TITLE="results for TO code"
VARIABLES = "x", "y", "z", "density", "sigmaxx", "sigmayy", "sigmazz", "sigmaxy", "sigmaxz", "sigmayz"
ZONE T="load step 1", NODES= 12221, ELEMENTS= 10000, DATAPACKING=POINT, ZONETYPE=FEBRICK
               0.00000000                0.00000000                0.00000000                1.00000000               -0.00000000               -0.00000000                0.09770469                0.00000000                0.04247083                0.04486979
               1.00000000                0.00000000                0.00000000                1.00000000                0.00000000               -0.00000000                0.07963259                0.00000000                0.01379811                0.04134660
               2.00000000                0.00000000                0.00000000                1.00000000               -0.00000000               -0.00000000                0.04651637               -0.00000000               -0.00645992                0.02822243
               3.00000000                0.00000000                0.00000000                1.00000000               -0.00000000                0.00000000               -0.00231891                0.00000000               -0.00304373                0.00183973
               4.00000000                0.00000000                0.00000000                1.00000000                0.00000000                0.00000000                0.00015132                0.00000000                0.00115155               -0.00059462
               5.00000000                0.00000000                0.00000000                1.00000000               -0.00000000               -0.00000000               -0.00134975                0.00000000                0.00720331                0.00159014
               6.00000000                0.00000000                0.00000000                1.00000000                0.00000000                0.00000000                0.02975993               -0.00000000                0.02128279                0.02493785
               7.00000000                0.00000000                0.00000000                1.00000000               -0.00000000               -0.00000000                0.08502257                0.00000000                0.01769330                0.05382645
               8.00000000                0.00000000                0.00000000                1.00000000                0.00000000                0.00000000                0.10497321                0.00000000               -0.00079588                0.06268700
               9.00000000                0.00000000                0.00000000                1.00000000               -0.00000000               -0.00000000                0.10978388               -0.00000000               -0.02452403                0.06435009
              10.00000000                0.00000000                0.00000000                1.00000000               -0.00000000                0.00000000                0.13044611               -0.00000000               -0.06133271                0.06760173
               0.00000000                1.00000000                0.00000000                1.00000000                0.00000000                0.00000000                0.08062207               -0.00000000                0.04171960                0.01584073
               1.00000000                1.00000000                0.00000000                1.00000000               -0.00000000               -0.00000000                0.04917408                0.00000000                0.01534080                0.01464473
               2.00000000                1.00000000                0.00000000                1.00000000               -0.00000000               -0.00000000                0.01555580                0.00000000                0.00302729                0.00611751
               3.00000000                1.00000000                0.00000000                1.00000000                0.00000000               -0.00000000               -0.00108974               -0.00000000                0.00228974                0.00160522
               4.00000000                1.00000000                0.00000000                1.00000000               -0.00000000               -0.00000000                0.00015631                0.00000000                0.00107089               -0.00093006
               5.00000000                1.00000000                0.00000000                1.00000000                0.00000000                0.00000000               -0.00075525               -0.00000000                0.00119803                0.00024529
               6.00000000                1.00000000                0.00000000                1.00000000               -0.00000000                0.00000000                0.00842012                0.00000000                0.00569011                0.00416072
               7.00000000                1.00000000                0.00000000                1.00000000                0.00000000               -0.00000000                0.04459008               -0.00000000                0.00748807                0.01541226
               8.00000000                1.00000000                0.00000000                1.00000000               -0.00000000                0.00000000                0.07983442               -0.00000000               -0.00638323                0.02555336
               9.00000000                1.00000000                0.00000000                1.00000000               -0.00000000                0.00000000                0.09069265               -0.00000000               -0.02933345                0.02768021
              10.00000000                1.00000000                0.00000000                1.00000000                0.00000000                0.00000000                0.10669453               -0.00000000               -0.06276808                0.02982830
               0.00000000                2.00000000                0.00000000                1.00000000               -0.00000000                0.00000000                0.04876196                0.00000000                0.03007913               -0.00512157
               1.00000000                2.00000000                0.00000000                1.00000000                0.00000000               -0.00000000                0.01577365                0.00000000                0.00774650                0.00296337
               2.00000000                2.00000000                0.00000000                1.00000000                0.00000000               -0.00000000               -0.00286929               -0.00000000                0.00350344                0.00319379
               3.00000000                2.00000000                0.00000000                1.00000000               -0.00000000                0.00000000                0.00075350                0.00000000                0.00152138                0.00079920
               4.00000000                2.00000000                0.00000000                1.00000000               -0.00000000               -0.00000000               -0.00012513               -0.00000000                0.00065922                0.00002874
               5.00000000                2.00000000                0.00000000                1.00000000               -0.00000000                0.00000000                0.00031694               -0.00000000                0.00016572               -0.00019509
               6.00000000                2.00000000                0.00000000                1.00000000               -0.00000000                0.00000000               -0.00115699                0.00000000               -0.00038499                0.00102815
               7.00000000                2.00000000                0.00000000                1.00000000               -0.00000000                0.00000000                0.00513012               -0.00000000                0.00111311                0.00148326
               8.00000000                2.00000000                0.00000000                1.00000000                0.00000000                0.00000000                0.03692758               -0.00000000               -0.00656189               -0.00091353
               9.00000000                2.00000000                0.00000000                1.00000000                0.00000000                0.00000000                0.06935314                0.00000000               -0.02753459                0.00382275
              10.00000000                2.00000000                0.00000000                1.00000000                0.00000000                0.00000000                0.10408666               -0.00000000               -0.06146745                0.00343323
               0.00000000                3.00000000                0.00000000                1.00000000                0.00000000                0.00000000               -0.00233033               -0.00000000                0.00225669               -0.00288753
               1.00000000                3.00000000                0.00000000                1.00000000               -0.00000000                0.00000000               -0.00109860               -0.00000000                0.00181064                0.00259293
               2.00000000                3.00000000                0.00000000                1.00000000               -0.00000000                0.00000000                0.00077014                0.00000000                0.00093394                0.00159618
               3.00000000                3.00000000                0.00000000                1.00000000                0.00000000               -0.00000000               -0.00013184               -0.00000000                0.00069939                0.00068214
               4.00000000                3.00000000                0.00000000                1.00000000               -0.00000000               -0.00000000                0.00008123                0.00000000                0.00027437                0.00013560
               5.00000000                3.00000000                0.00000000                1.00000000               -0.00000000               -0.00000000               -0.00004900                0.00000000               -0.00008476                0.00010859
               6.00000000                3.00000000                0.00000000                1.00000000               -0.00000000               -0.00000000                0.00018117               -0.00000000               -0.00023836                0.00025002
               7.00000000                3.00000000                0.00000000                1.00000000                0.00000000                0.00000000                0.00050652                0.00000000               -0.00134845                0.00036490
               8.00000000                3.00000000                0.00000000                1.00000000                0.00000000               -0.00000000               -0.00596233                0.00000000               -0.00373781                0.00141774
               9.00000000                3.00000000                0.00000000                1.00000000               -0.00000000               -0.00000000                0.02267941               -0.00000000               -0.01182898               -0.00426355
              10.00000000                3.00000000                0.00000000                1.00000000               -0.00000000                0.00000000                0.07110570                0.00000000               -0.04485410               -0.01839134
               0.00000000                4.00000000                0.00000000                1.00000000               -0.00000000               -0.00000000                0.00043418                0.00000000               -0.00062124                0.00197031
               1.00000000                4.00000000                0.00000000                1.00000000                0.00000000                0.00000000                0.00025102               -0.00000000               -0.00098829                0.00128470
               2.00000000                4.00000000                0.00000000                1.00000000               -0.00000000               -0.00000000               -0.00022753               -0.00000000                0.00008666                0.00077108
               3.00000000                4.00000000                0.00000000                1.00000000               -0.00000000                0.00000000                0.00011608                0.00000000                0.00011614                0.00034542
               4.00000000                4.00000000                0.00000000                1.00000000                0.00000000               -0.00000000               -0.00001284               -0.00000000                0.00009066                0.00012366
               5.00000000                4.00000000                0.00000000                1.00000000               -0.00000000                0.00000000                0.00002812               -0.00000000               -0.00003947                0.00006912
               6.00000000                4.00000000                0.00000000                1.00000000                0.00000000                0.00000000                0.00003742                0.00000000               -0.00025600                0.00014279
               7.00000000                4.00000000                0.00000000                1.00000000               -0.00000000               -0.00000000               -0.00017061               -0.00000000               -0.00056234                0.00051211
               8.00000000                4.00000000                0.00000000                1.00000000               -0.00000000                0.00000000                0.00120222               -0.00000000               -0.00089246                0.00088406
               9.00000000                4.00000000                0.00000000                1.00000000                0.00000000                0.00000000               -0.00180560                0.00000000               -0.00238544                0.00039473
              10.00000000                4.00000000                0.00000000                1.00000000               -0.00000000               -0.00000000               -0.00305517               -0.00000000               -0.00461100               -0.00902606
               0.00000000                5.00000000                0.00000000                1.00000000               -0.00000000                0.00000000               -0.00308201                0.00000000                0.00406102                0.01004450
               1.00000000                5.00000000                0.00000000                1.00000000                0.00000000               -0.00000000               -0.00200187               -0.00000000                0.00123847                0.00200385
               2.00000000                5.00000000                0.00000000                1.00000000               -0.00000000                0.00000000                0.00094806                0.00000000               -0.00025862                0.00051548
               3.00000000                5.00000000                0.00000000                1.00000000               -0.00000000                0.00000000               -0.00024437               -0.00000000                0.00007645                0.00003748
               4.00000000                5.00000000                0.00000000                1.00000000               -0.00000000               -0.00000000                0.00006684                0.00000000               -0.00000466                0.00004221
               5.00000000                5.00000000                0.00000000                1.00000000               -0.00000000                0.00000000                0.00000353               -0.00000000               -0.00004310               -0.00000625
               6.00000000                5.00000000                0.00000000                1.00000000               -0.00000000               -0.00000000                0.00000976                0.00000000               -0.00012682                0.00004136
               7.00000000                5.00000000                0.00000000                1.00000000                0.00000000                0.00000000                0.00008296               -0.00000000               -0.00015897                0.00012459
               8.00000000                5.00000000                0.00000000                1.00000000                0.00000000                0.00000000               -0.00013976                0.00000000               -0.00007684                0.00028549
               9.00000000                5.00000000                0.00000000                1.00000000               -0.00000000                0.00000000                0.00016585               -0.00000000                0.00066881               -0.00026020
              10.00000000                5.00000000                0.00000000                1.00000000               -0.00000000               -0.00000000                0.00024644                0.00000000                0.00054643               -0.00242888
               0.00000000                6.00000000                0.00000000                1.00000000               -0.00000000               -0.00000000                0.06224212               -0.00000000                0.03635633                0.02535071
               1.00000000                6.00000000                0.00000000                1.00000000                0.00000000                0.00000000                0.02210420                0.00000000                0.00554709                0.00948209
               2.00000000                6.00000000                0.00000000                1.00000000               -0.00000000                0.00000000               -0.00447737               -0.00000000                0.00114456                0.00031670
               3.00000000                6.00000000                0.00000000                1.00000000                0.00000000               -0.00000000                0.00089944               -0.00000000               -0.00007522                0.00016809
               4.00000000                6.00000000                0.00000000                1.00000000               -0.00000000                0.00000000               -0.00011028               -0.00000000                0.00001882               -0.00021293
               5.00000000                6.00000000                0.00000000                1.00000000               -0.00000000                0.00000000                0.00003130               -0.00000000               -0.00000996               -0.00010033
               6.00000000                6.00000000                0.00000000                1.00000000                0.00000000               -0.00000000                0.00002371                0.00000000               -0.00012656               -0.00011917
               7.00000000                6.00000000                0.00000000                1.00000000               -0.00000000               -0.00000000                0.00001240                0.00000000               -0.00019570               -0.00026532
               8.00000000                6.00000000                0.00000000                1.00000000               -0.00000000               -0.00000000                0.00007825                0.00000000                0.00007701               -0.00049500
               9.00000000                6.00000000                0.00000000                1.00000000               -0.00000000               -0.00000000                0.00001165               -0.00000000                0.00042007               -0.00069564
              10.00000000                6.00000000                0.00000000                1.00000000                0.00000000                0.00000000               -0.00036970                0.00000000                0.00052473               -0.00088576
               0.00000000                7.00000000                0.00000000                1.00000000                0.00000000                0.00000000                0.09125606               -0.00000000                0.05014337                0.01292326
               1.00000000                7.00000000                0.00000000                1.00000000               -0.00000000               -0.00000000                0.05755927                0.00000000                0.01592642                0.00671822
               2.00000000                7.00000000                0.00000000                1.00000000               -0.00000000                0.00000000                0.02002958               -0.00000000               -0.00063497                0.00338214
               3.00000000                7.00000000                0.00000000                1.00000000               -0.00000000                0.00000000               -0.00151483                0.00000000               -0.00033261               -0.00142417
               4.00000000                7.00000000                0.00000000                1.00000000                0.00000000               -0.00000000                0.00012383                0.00000000                0.00032284               -0.00047204
               5.00000000                7.00000000                0.00000000                1.00000000               -0.00000000                0.00000000                0.00002985               -0.00000000                0.00007836               -0.00019203
               6.00000000                7.00000000                0.00000000                1.00000000               -0.00000000               -0.00000000                0.00002050               -0.00000000               -0.00026841               -0.00021088
               7.00000000                7.00000000                0.00000000                1.00000000                0.00000000               -0.00000000                0.00009944                0.00000000               -0.00067008               -0.00068536
               8.00000000                7.00000000                0.00000000                1.00000000                0.00000000                0.00000000               -0.00002260               -0.00000000               -0.00086771               -0.00180960
               9.00000000                7.00000000                0.00000000                1.00000000               -0.00000000               -0.00000000                0.00032455                0.00000000                0.00033763               -0.00224391
              10.00000000                7.00000000                0.00000000                1.00000000                0.00000000                0.00000000                0.00034021               -0.00000000                0.00111756               -0.00052080
               0.00000000                8.00000000                0.00000000                1.00000000               -0.00000000               -0.00000000                0.09848730               -0.00000000                0.05749653               -0.00137202
               1.00000000                8.00000000                0.00000000                1.00000000                0.00000000                0.00000000                0.07484236                0.00000000                0.02277892               -0.00669811
               2.00000000                8.00000000                0.00000000                1.00000000                0.00000000               -0.00000000                0.03961510               -0.00000000                0.00064720               -0.00741787
               3.00000000                8.00000000                0.00000000                1.00000000               -0.00000000                0.00000000               -0.00455286                0.00000000                0.00121572               -0.00304776
               4.00000000                8.00000000                0.00000000                1.00000000               -0.00000000                0.00000000                0.00073681                0.00000000                0.00090695               -0.00098232
               5.00000000                8.00000000                0.00000000                1.00000000                0.00000000                0.00000000               -0.00005468               -0.00000000                0.00030440               -0.00012731
               6.00000000                8.00000000                0.00000000                1.00000000                0.00000000                0.00000000                0.00006945                0.00000000               -0.00046237                0.00001364
               7.00000000                8.00000000                0.00000000                1.00000000                0.00000000                0.00000000               -0.00001979                0.00000000               -0.00177640               -0.00088887
               8.00000000                8.00000000                0.00000000                1.00000000               -0.00000000                0.00000000                0.00103664                0.00000000               -0.00356182               -0.00356386
               9.00000000                8.00000000                0.00000000                1.00000000                0.00000000               -0.00000000               -0.00166881               -0.00000000               -0.00520731               -0.00797519
              10.00000000                8.00000000                0.00000000                1.00000000               -0.00000000                0.00000000               -0.00428358                0.00000000               -0.00361233                0.00040013
               0.00000000                9.00000000                0.00000000                1.00000000                0.00000000               -0.00000000                0.10853832                0.00000000                0.06414653               -0.02223569
               1.00000000                9.00000000                0.00000000                1.00000000                0.00000000                0.00000000                0.08178369                0.00000000                0.02910015               -0.02569281
               2.00000000                9.00000000                0.00000000                1.00000000               -0.00000000                0.00000000                0.05165997                0.00000000                0.00770357               -0.02191240
               3.00000000                9.00000000                0.00000000                1.00000000                0.00000000               -0.00000000                0.00906567               -0.00000000                0.00088691               -0.00799762
               4.00000000                9.00000000                0.00000000                1.00000000               -0.00000000                0.00000000               -0.00052655                0.00000000                0.00147099               -0.00159995
               5.00000000                9.00000000                0.00000000                1.00000000               -0.00000000               -0.00000000                0.00007708                0.00000000                0.00000546                0.00047881
               6.00000000                9.00000000                0.00000000                1.00000000               -0.00000000               -0.00000000                0.00002942               -0.00000000               -0.00053097                0.00031989
               7.00000000                9.00000000                0.00000000                1.00000000               -0.00000000                0.00000000                0.00032705               -0.00000000               -0.00217667                0.00032108
               8.00000000                9.00000000                0.00000000                1.00000000                0.00000000               -0.00000000               -0.00166643                0.00000000               -0.00794058               -0.00515127
               9.00000000                9.00000000                0.00000000                1.00000000               -0.00000000                0.00000000                0.03102436                0.00000000               -0.01746546               -0.01727701
              10.00000000                9.00000000                0.00000000                1.00000000                0.00000000                0.00000000                0.09327991               -0.00000000               -0.05275808               -0.01159150
               0.00000000               10.00000000                0.00000000                1.00000000                0.00000000                0.00000000                0.12892767               -0.00000000                0.06789551               -0.05834375
               1.00000000               10.00000000                0.00000000                1.00000000               -0.00000000               -0.00000000                0.10181884               -0.00000000                0.03184062               -0.05701511
               2.00000000               10.00000000                0.00000000                1.00000000                0.00000000               -0.00000000                0.08324693               -0.00000000                0.00760788               -0.05292306
               3.00000000               10.00000000                0.00000000                1.00000000               -0.00000000               -0.00000000                0.03937876                0.00000000               -0.01089127               -0.03052357
               4.00000000               10.00000000                0.00000000                1.00000000                0.00000000               -0.00000000               -0.00163969               -0.00000000               -0.00481465               -0.00177948
               5.00000000               10.00000000                0.00000000                1.00000000               -0.00000000               -0.00000000                0.00004389                0.00000000               -0.00125497                0.00048035
               6.00000000               10.00000000                0.00000000                1.00000000                0.00000000                0.00000000               -0.00031341                0.00000000               -0.00059928                0.00051866
               7.00000000               10.00000000                0.00000000                1.00000000                0.00000000               -0.00000000                0.00033788                0.00000000               -0.00045333                0.00112247
               8.00000000               10.00000000                0.00000000                1.00000000               -0.00000000               -0.00000000               -0.00431397               -0.00000000                0.00043687               -0.00353327
               9.00000000               10.00000000                0.00000000                1.00000000                0.00000000                0.00000000                0.09304039                0.00000000               -0.01123018               -0.05239343
              10.00000000               10.00000000                0.00000000                1.00000000               -0.00000000               -0.00000000                0.19191855                0.00000000               -0.06742514               -0.06803496
               0.00042471                0.00044870                1.00097705                1.00000000               -0.02867272               -0.02902907                0.09126372               -0.00427442                0.01225581                0.01780964
               1.00013798                0.00041347                1.00079633                0.92274214               -0.02446537               -0.02670187                0.08252125               -0.00678099               -0.00748974                0.00236915
               1.99993540                0.00028222                1.00046516                0.01000000               -0.00842092               -0.02210492                0.07350906               -0.01026623               -0.03706251               -0.00065630
               2.99996956                0.00001840                0.99997681                0.01000000                0.00380573               -0.00023451                0.08305769               -0.00907506               -0.02302125                0.02357684
               4.00001152               -0.00000595                1.00000151                0.01000004                0.00512352               -0.00033544                0.04806113               -0.00020545                0.01023511                0.03991516
               5.00007203                0.00001590                0.99998650                0.01000001                0.01006562               -0.00134485                0.05465346                0.00676097                0.03105935                0.04008255
               6.00021283                0.00024938                1.00029760                0.66670736                0.00524500               -0.02077714                0.08622273                0.01052548                0.07439104                0.00313929
               7.00017693                0.00053826                1.00085023                1.00000000               -0.01103933               -0.03841419                0.09103759                0.00866935                0.05177855               -0.00594208
               7.99999204                0.00062687                1.00104973                0.99999999               -0.02110866               -0.03713364                0.10102879               -0.00032552                0.00945518                0.01443330
               8.99975476                0.00064350                1.00109784                1.00000000               -0.03026842               -0.03666988                0.11215657               -0.00235205               -0.00702797                0.02407818
               9.99938667                0.00067602                1.00130446                1.00000000               -0.03680868               -0.03777343                0.11924320                0.00181627               -0.01512848                0.02314479
               0.00041720                1.00015841                1.00080622                0.95823300               -0.02637880               -0.02499568                0.08104994               -0.00739184                0.00177394               -0.00172340
               1.00015341                1.00014645                1.00049174                0.01000001               -0.01934616               -0.01919161                0.07077389               -0.00788741               -0.01133375               -0.01134193
               2.00003027                1.00006118                1.00015556                0.01000001               -0.00652553               -0.01251432                0.06345763               -0.00153808               -0.01740484               -0.01049450
               3.00002290                1.00001605                0.99998910                0.01000001               -0.00097820               -0.00052026                0.06699700               -0.00124123               -0.00551898                0.02070642
               4.00001071                0.99999070                1.00000156                0.01000000               -0.00054585                0.00031168                0.03958640               -0.00092613                0.00964774                0.01470822
               5.00001198                1.00000245                0.99999245                0.01000000                0.00230961               -0.00089261                0.04509106               -0.00097340                0.02082671                0.01405624
               6.00005690                1.00004161                1.00008420                0.01000007                0.00314502               -0.01195485                0.08053149               -0.00325040                0.04815514               -0.00646216
               7.00007488                1.00015412                1.00044590                0.58487668               -0.00603667               -0.02617160                0.09970389                0.00240623                0.04311238               -0.02196456
               7.99993617                1.00025553                1.00079834                0.99999998               -0.01841076               -0.03180027                0.10004874                0.00325097                0.01377898               -0.01017462
               8.99970667                1.00027680                1.00090693                0.99999999               -0.02819242               -0.03026367                0.10110979                0.00063219               -0.01169641                0.00658347
               9.99937232                1.00029828                1.00106695                0.99999999               -0.03343463               -0.03208425                0.10941911                0.00208072               -0.02512705                0.01748963
               0.00030079                1.99994878                1.00048762                0.01000001               -0.02233263               -0.00936413                0.07150409               -0.01164651                0.00270439               -0.03259573
               1.00007747                2.00002963                1.00015774                0.01000001               -0.01328785               -0.00602590                0.05813993               -0.00260740               -0.00542957               -0.01810408
               2.00003503                2.00003194                0.99997131                0.01000001               -0.00311256               -0.00226066                0.08542638               -0.00212876                0.01269371                0.00201931
               3.00001521                2.00000799                1.00000754                0.01000001               -0.00142211               -0.00046154                0.03020646               -0.00237770                0.01626312                0.01006925
               4.00000659                2.00000029                0.99999875                0.01000001               -0.00067783                0.00053283                0.04214166               -0.00089540                0.01103025                0.00440461
               5.00000166                1.99999805                1.00000317                0.01000000               -0.00052210               -0.00006835                0.04500378               -0.00014169                0.01042278                0.00080386
               5.99999615                2.00001028                0.99998843                0.01000000                0.00047369               -0.00195535                0.04476200               -0.00212506                0.01007581               -0.00390770
               7.00001113                2.00001483                1.00005130                0.01000000               -0.00308845               -0.00752368                0.12982514               -0.00538910                0.01673098               -0.01744091
               7.99993438                1.99999086                1.00036928                0.01000000               -0.01432385               -0.01206781                0.10025332                0.00249246                0.01766487               -0.03933686
               8.99972465                2.00003823                1.00069353                1.00000000               -0.02745278               -0.01597188                0.08820656                0.01092561                0.00277204               -0.02386277
               9.99938533                2.00003433                1.00104087                1.00000000               -0.03393286               -0.02410982                0.10093998                0.00856746               -0.01097448               -0.00332541
               0.00002257                2.99997112                0.99997670                0.01000001               -0.00044605                0.00354594                0.08790283               -0.00986972                0.02989391               -0.01870690
               1.00001811                3.00002593                0.99998901                0.01000001               -0.00066138               -0.00083934                0.07472659               -0.00212554                0.03554023               -0.00572443
               2.00000934                3.00001596                1.00000770                0.01000001               -0.00055563               -0.00121136                0.02740657               -0.00266379                0.02006828                0.01030636
               3.00000699                3.00000682                0.99999868                0.01000001               -0.00032978               -0.00022689                0.04120314               -0.00143291                0.01225616                0.00370872
               4.00000274                3.00000136                1.00000081                0.01000001               -0.00039208                0.00004746                0.03813685               -0.00057105                0.00966122               -0.00043625
               4.99999915                3.00000109                0.99999951                0.01000001               -0.00025636                0.00013210                0.04024533               -0.00004538                0.00630888               -0.00439361
               5.99999762                3.00000250                1.00000181                0.01000001               -0.00063185               -0.00044268                0.04890447                0.00019265                0.00190903               -0.00594712
               6.99998652                3.00000365                1.00000507                0.01000001               -0.00174972               -0.00048557                0.04037330               -0.00025387               -0.01133164               -0.00997498
               7.99996262                3.00001418                0.99994038                0.01000000               -0.00524027                0.00089879                0.09340921                0.00052049               -0.01293418               -0.02851175
               8.99988171                2.99995736                1.00022679                0.01000000               -0.02055815               -0.00171401                0.07417876                0.00267003                0.00762074               -0.04224310
               9.99955146                2.99981609                1.00071106                0.09888376               -0.03302512               -0.00622965                0.09304197                0.01430044               -0.00211886               -0.05611729
              -0.00000621                4.00001970                1.00000434                0.01000001               -0.00036706                0.00646601                0.05105133                0.00021655                0.04857956                0.00948268
               0.99999012                4.00001285                1.00000251                0.01000000                0.00035395               -0.00029454                0.03726456               -0.00088570                0.02245596                0.00781323
               2.00000087                4.00000771                0.99999772                0.01000001                0.00055222               -0.00054035                0.04172646               -0.00106592                0.01418958                0.00618771
               3.00000116                4.00000345                1.00000116                0.01000001                0.00000200               -0.00032233                0.03719777               -0.00063518                0.00991837                0.00077892
               4.00000091                4.00000124                0.99999987                0.01000002               -0.00007780               -0.00004669                0.03749062               -0.00027767                0.00666685               -0.00421201
               4.99999961                4.00000069                1.00000028                0.01000001               -0.00017333               -0.00005742                0.03844144                0.00003039                0.00365639               -0.00749425
               5.99999744                4.00000143                1.00000037                0.01000001               -0.00026144               -0.00010433                0.03953205                0.00027726               -0.00106194               -0.00929252
               6.99999438                4.00000512                0.99999829                0.01000000               -0.00031823               -0.00012016                0.04464810                0.00096538               -0.00654957               -0.00924973
               7.99999108                4.00000884                1.00001202                0.01000000               -0.00091155               -0.00056613                0.04002821                0.00177179               -0.01605132               -0.00521910
               8.99997615                4.00000395                0.99998194                0.01000000               -0.00185927                0.00200168                0.05146676                0.00129383               -0.03260880               -0.01948898
               9.99995389                3.99990974                0.99996945                0.01000000               -0.00222556                0.00798123                0.06663165                0.01327948               -0.05553246               -0.04153466
               0.00004061                5.00010044                0.99996918                0.01000003               -0.00282255                0.01169020                0.06311811                0.01044813                0.04749903                0.04370752
               1.00001238                5.00002004                0.99997998                0.01000000               -0.00215982                0.00409869                0.04801605               -0.00149681                0.02373701                0.02362333
               1.99999741                5.00000515                1.00000948                0.01000000               -0.00058101               -0.00022719                0.04213693               -0.00045424                0.01074659                0.00193928
               3.00000076                5.00000037                0.99999756                0.01000001                0.00012698               -0.00008867                0.03820733               -0.00033232                0.00637192               -0.00284679
               3.99999995                5.00000042                1.00000067                0.01000001               -0.00005977               -0.00016830                0.03678480               -0.00005778                0.00478433               -0.00787359
               4.99999957                4.99999994                1.00000004                0.01000000               -0.00006108               -0.00008472                0.03674682                0.00001433                0.00229094               -0.01069530
               5.99999873                5.00000041                1.00000010                0.01000000               -0.00005794               -0.00013098                0.03815297                0.00013014               -0.00134325               -0.01166237
               6.99999841                5.00000125                1.00000083                0.01000000                0.00002499               -0.00038871                0.03965968                0.00030539               -0.00686779               -0.01107576
               7.99999923                5.00000285                0.99999860                0.01000001                0.00041389               -0.00068953                0.04366532                0.00029234               -0.01462946               -0.01034560
               9.00000669                4.99999740                1.00000166                0.01000001                0.00031164               -0.00054518                0.04591451                0.00004557               -0.02650366               -0.00744850
              10.00000546                4.99997571                1.00000246                0.01000000               -0.00012237                0.00407015                0.06125327                0.00039919               -0.04922013               -0.00752755
               0.00036356                6.00025351                1.00062242                0.96440875               -0.03080923                0.00143938                0.08734309                0.00717256               -0.00637419                0.06894216
               1.00005547                6.00009482                1.00022104                0.01000000               -0.01760589                0.00235718                0.07474778               -0.00517303               -0.01832901                0.04600236
               2.00001145                6.00000317                0.99995523                0.01000000               -0.00281116                0.00143333                0.04597594               -0.00484518               -0.00141394                0.00834999
               2.99999925                6.00000168                1.00000899                0.01000001               -0.00056287               -0.00073082                0.04057011               -0.00046934                0.00676312               -0.00845275
               4.00000019                5.99999787                0.99999890                0.01000001                0.00003263               -0.00025712                0.03630710                0.00002954                0.00386192               -0.01283190
               4.99999990                5.99999900                1.00000031                0.01000000               -0.00007269               -0.00009289                0.03633222                0.00010761                0.00238345               -0.01438922
               5.99999873                5.99999881                1.00000024                0.01000004               -0.00009287               -0.00012612                0.03749673               -0.00015329               -0.00108673               -0.01496451
               6.99999804                5.99999735                1.00000012                0.01000000                0.00010178               -0.00040497                0.04001678               -0.00044347               -0.00622876               -0.01432089
               8.00000077                5.99999505                1.00000078                0.01000000                0.00030788               -0.00104755                0.04319723               -0.00061059               -0.01381480               -0.01258429
               9.00000420                5.99999304                1.00000012                0.01000001                0.00022386               -0.00099185                0.04741906               -0.00036097               -0.02587885               -0.01024902
              10.00000525                5.99999114                0.99999630                0.01000049                0.00010466                0.00095404                0.06326136                0.00009545               -0.04881044               -0.00825995
               0.00050143                7.00012923                1.00091256                1.00000000               -0.03421695               -0.01336137                0.09166345                0.00436506                0.00436321                0.02511367
               1.00015926                7.00006718                1.00057559                0.99748811               -0.02538917               -0.00809010                0.07640049                0.00384535               -0.01257650                0.02788394
               1.99999365                7.00003382                1.00020030                0.01000000               -0.00812951               -0.00386728                0.05925463               -0.00431987               -0.02239035                0.02161124
               2.99999667                6.99998576                0.99998485                0.01000001                0.00047891               -0.00160792                0.03464082               -0.00128162               -0.00311161               -0.02174550
               4.00000323                6.99999528                1.00000124                0.01000000                0.00020548               -0.00038469                0.03812709                0.00106013                0.00627757               -0.01742676
               5.00000078                6.99999808                1.00000030                0.01000000               -0.00029562               -0.00001349                0.03615135                0.00028776                0.00324323               -0.01901319
               5.99999732                6.99999789                1.00000020                0.01000000               -0.00037422                0.00006641                0.03824789               -0.00041456               -0.00030902               -0.01935892
               6.99999330                6.99999315                1.00000099                0.01000001               -0.00029965               -0.00031178                0.04162825               -0.00158972               -0.00594385               -0.01902259
               7.99999132                6.99998190                0.99999977                0.01000000                0.00050385               -0.00153443                0.04666347               -0.00259869               -0.01418485               -0.01716830
               9.00000338                6.99997756                1.00000325                0.01000001                0.00099264               -0.00363977                0.05238779               -0.00216929               -0.02714529               -0.01569157
              10.00001118                6.99999479                1.00000340                0.01000001                0.00077993                0.00064294                0.06990915               -0.00034543               -0.05172947               -0.01166904
               0.00057497                7.99998628                1.00098487                1.00000000               -0.03471761               -0.01757948                0.10017035                0.00167549                0.01999949                0.00348890
               1.00022779                7.99993302                1.00074842                1.00000000               -0.02842467               -0.01620552                0.08301983                0.00356394               -0.00125171                0.00149928
               2.00000647                7.99992582                1.00039615                0.01257871               -0.01078160               -0.01264727                0.06588969                0.00599445               -0.02765926               -0.00004400
               3.00001216                7.99996952                0.99995447                0.01000000                0.00012988               -0.00328673                0.08123047                0.00382753               -0.01340494               -0.02389950
               4.00000907                7.99999018                1.00000737                0.01000000               -0.00045566               -0.00056396                0.03184484                0.00203430                0.00991292               -0.02332066
               5.00000304                7.99999873                0.99999945                0.01000001               -0.00068466                0.00033542                0.03860271                0.00046153                0.00414375               -0.02472439
               5.99999538                8.00000014                1.00000069                0.01000000               -0.00104040                0.00026538                0.03989075               -0.00051206                0.00069815               -0.02531557
               6.99998224                7.99999111                0.99999980                0.01000000               -0.00154973                0.00050322                0.04503208               -0.00254204               -0.00542209               -0.02560744
               7.99996438                7.99996436                1.00001037                0.01000000               -0.00171545               -0.00167083                0.05399420               -0.00707959               -0.01708695               -0.02656634
               8.99994793                7.99992025                0.99998331                0.01000003               -0.00002525               -0.00751655                0.06534988               -0.00691955               -0.03569254               -0.00904256
               9.99996388                8.00000400                0.99995716                0.01000002                0.00159498               -0.00553535                0.08812170               -0.01856251               -0.06438958                0.02622013
               0.00064147                8.99977764                1.00108538                1.00000000               -0.03504637               -0.02848586                0.11011254                0.00174237                0.02242470               -0.00469785
               1.00029100                8.99974307                1.00081784                1.00000000               -0.02822148               -0.02515850                0.09161985                0.00469250                0.00545561               -0.01085207
               2.00007704                8.99978088                1.00051660                0.77239529               -0.01410662               -0.02275260                0.07776120                0.01232794               -0.01703243               -0.00680042
               3.00000887                8.99992002                1.00009066                0.01000001               -0.00311629               -0.01373791                0.06906773                0.00410273               -0.01821136               -0.00676543
               4.00001471                8.99998400                0.99999473                0.01000000               -0.00044073               -0.00039858                0.04108769                0.00137741                0.00174067               -0.03463240
               5.00000005                9.00000479                1.00000077                0.01000001               -0.00100098                0.00030383                0.04030019                0.00018024                0.00617797               -0.03366218
               5.99999469                9.00000320                1.00000029                0.01000001               -0.00109106                0.00025251                0.04341397               -0.00014732                0.00214324               -0.03473790
               6.99997823                9.00000321                1.00000327                0.01000001               -0.00370480                0.00100567                0.04975966               -0.00207404               -0.00620002               -0.03588166
               7.99992059                8.99994849                0.99998334                0.01000001               -0.00764439                0.00001529                0.06368463               -0.00679970               -0.00352086               -0.04188879
               8.99982535                8.99982723                1.00031024                0.99388641               -0.02240875               -0.02220912                0.10209782               -0.00623155                0.00489632                0.00631296
               9.99947242                8.99988408                1.00093280                0.99999999               -0.03529262               -0.03421754                0.13869242               -0.02622089               -0.00939012                0.05337645
               0.00067896                9.99941656                1.00128928                0.99999999               -0.03605488               -0.03610806                0.11971401                0.00507762                0.02577835               -0.01525500
               1.00031841                9.99942985                1.00101819                0.99999999               -0.03014381               -0.03132230                0.10157747                0.00545082                0.01504960               -0.01933359
               2.00007608                9.99947077                1.00083247                1.00000000               -0.02136595               -0.03101066                0.09386238                0.01315008               -0.00754592               -0.01103603
               2.99989109                9.99969476                1.00039379                0.01000001               -0.00621127               -0.02252595                0.08664503                0.01379361               -0.03270671               -0.01415960
               3.99995185                9.99998221                0.99998360                0.01000001                0.00481815               -0.00017953                0.05833767                0.00921632               -0.01003917               -0.05459383
               4.99998745               10.00000480                1.00000044                0.01000000                0.00210769                0.00000155                0.05820847               -0.00011136                0.00771917               -0.05302138
               5.99999401               10.00000519                0.99999687                0.01000000                0.00040082                0.00019877                0.06234556                0.00025276                0.00416268               -0.05470293
               6.99999547               10.00001122                1.00000338                0.01000000                0.00051807                0.00080139                0.06976872               -0.00030262               -0.00432992               -0.05767386
               8.00000437                9.99996467                0.99995686                0.01000000               -0.00538842                0.00161800                0.08776356               -0.01838050                0.02826341               -0.06678150
               8.99988770                9.99947607                1.00093040                0.99999999               -0.03393101               -0.03511641                0.13827185               -0.02601556                0.05447302               -0.00805741
               9.99932575                9.99931965                1.00191919                1.00000000               -0.05619497               -0.05644346                0.17324588               -0.03030860                0.03067329                0.02932152
               0.00060656                0.00069785                2.00182527                1.00000000               -0.02444698               -0.02428859                0.08263672                0.00165882               -0.00114419                0.00427493
               1.00036209                0.00065655                2.00165043                1.00000000               -0.02641467               -0.02448025                0.08346791                0.00160194                0.00050799               -0.00191549
               2.00007826                0.00060609                2.00147018                0.02538533               -0.01794315               -0.03221188                0.09181048               -0.00285234                0.01674998                0.00289738
               3.00000323                0.00044695                2.00166115                0.01000003                0.00583728               -0.00635491                0.07942073                0.01364487               -0.01186569               -0.00072630
               4.00019501                0.00079820                2.00096122                0.01000001                0.01609377               -0.05012745                0.09861856                0.01660032               -0.01134175                0.02875607
               5.00032510                0.00078976                2.00109307                0.01000001                0.02145435               -0.05253033                0.10895259               -0.01455156                0.05226271                0.01968704
               6.00062410                0.00048958                2.00172445                0.81716371               -0.00208314               -0.03096560                0.09892166               -0.01644246                0.04735624               -0.00321294
               7.00028344                0.00068981                2.00182075                0.99999999               -0.03413036               -0.03301751                0.10002397                0.00155963                0.01763320                0.02044453
               7.99994149                0.00079144                2.00202058                1.00000000               -0.03393633               -0.03144778                0.10557581               -0.00401468                0.01752973                0.00754263
               8.99960471                0.00086339                2.00224313                1.00000000               -0.03286523               -0.03274113                0.11232476               -0.00339981                0.00944949               -0.00319711
               9.99928419                0.00093793                2.00238486                1.00000000               -0.03205258               -0.03245401                0.10878264               -0.00322251                0.00675911                0.00630843
               0.00066444                1.00045496                2.00162100                1.00000000               -0.02404507               -0.02601179                0.08211970                0.00104392                0.00137981                0.00693195
               1.00042399                1.00041175                2.00141548                0.41344420               -0.02549486               -0.02579539                0.08867464               -0.00626801                0.00496592               -0.00180277
               2.00015454                1.00028397                2.00126915                0.01000000               -0.01901863               -0.02089213                0.09775493                0.01487322                0.01248867                0.03401989
               3.00004362                1.00038340                2.00133994                0.01000000                0.00175343               -0.01275737                0.07410159                0.01537788               -0.01169955               -0.02440479
               4.00018961                1.00029693                2.00079173                0.01000000                0.01451404               -0.03546802                0.09296773               -0.00444932               -0.00441243                0.01860993
               5.00033390                1.00026446                2.00090182                0.01000000                0.01600198               -0.03903733                0.10292284               -0.01116648                0.05905885                0.00864592
               6.00050965                1.00017993                2.00161063                0.01000000               -0.00928957               -0.02426732                0.11059133               -0.01877690                0.06417652               -0.03431379
               7.00014810                1.00035963                2.00199408                0.99999998               -0.03475479               -0.02988955                0.12575141               -0.00163132                0.01828393                0.04373624
               7.99981455                1.00047696                2.00200097                0.99999999               -0.03253170               -0.03601056                0.11535191               -0.00270398               -0.00780811                0.01001833
               8.99949747                1.00053598                2.00202220                0.99999999               -0.03185661               -0.03302556                0.11309192               -0.00422190               -0.00548458               -0.00360040
               9.99917742                1.00061339                2.00218838                0.99999999               -0.03200492               -0.03242736                0.11057872               -0.00217625                0.00109721                0.00987085
               0.00071385                2.00017761                2.00143008                0.08787630               -0.03061329               -0.01729097                0.08967186               -0.00825615                0.00584331                0.03144673
               1.00040772                2.00014065                2.00116280                0.01000000               -0.01548891               -0.01855065                0.09350733                0.01332227                0.04501196                0.01982925
               2.00040408                2.00018824                2.00170853                0.01000001               -0.00549501               -0.00521285                0.05662315                0.01441587               -0.00137702               -0.01417558
               3.00029782                2.00019181                2.00060413                0.01000000               -0.00895526               -0.01514278                0.09389382                0.00544987               -0.01882751               -0.01023529
               4.00022497                2.00008884                2.00084283                0.01000001               -0.00395233               -0.01533883                0.08449594               -0.00900026                0.03166622                0.00718941
               5.00021877                2.00000901                2.00090008                0.01000000               -0.00357932               -0.01747210                0.09212778               -0.01466627                0.01509471               -0.00166405
               6.00015338                2.00000424                2.00089524                0.01000001               -0.01325001               -0.01554062                0.11347039               -0.01970106                0.08560918               -0.03105171
               6.99995377                2.00009202                2.00259650                0.01000000               -0.02211585               -0.02530628                0.15296732               -0.01231538                0.04956926               -0.06065326
               7.99971107                2.00007123                2.00200507                0.02308138               -0.02849619               -0.03449726                0.13415000               -0.00920534               -0.05749600                0.00251673
               8.99938385                2.00020288                2.00176413                1.00000000               -0.03126136               -0.03346257                0.11296186                0.00512068               -0.02368732               -0.01157747
               9.99908584                2.00028938                2.00201880                1.00000000               -0.02980101               -0.03321574                0.10281641               -0.00076590                0.00010937                0.00830974
               0.00057324                3.00010914                2.00175806                0.01000000                0.01065562                0.00097805                0.07562231                0.00622982                0.01494789               -0.00214753
               1.00067980                3.00004074                2.00149453                0.01000000               -0.00907728                0.00123260                0.06201949                0.00592924               -0.01455492               -0.00863768
               2.00039170                3.00017971                2.00054813                0.01000000               -0.02138938               -0.00331339                0.09434587               -0.00395619               -0.00027601               -0.02874282
               3.00025201                3.00008055                2.00082406                0.01000001               -0.00996510               -0.00875511                0.07880263               -0.01455788                0.03251067                0.01268910
               4.00019240                2.99999015                2.00076274                0.01000001               -0.00634171               -0.00864697                0.08235267               -0.01281434                0.01414893               -0.00541359
               5.00012518                2.99991502                2.00080491                0.01000000               -0.00798853               -0.00797124                0.08622919               -0.01335938                0.01838960               -0.01228995
               6.00003263                2.99986911                2.00097809                0.01000001               -0.01451880               -0.00941859                0.09509769               -0.01170720               -0.00122646               -0.01309084
               6.99983480                2.99985351                2.00080747                0.01000000               -0.02565190               -0.01363882                0.11297694               -0.00892542                0.02686850               -0.08832288
               7.99951959                2.99978702                2.00186818                0.01000000               -0.02265338               -0.01169190                0.09609300               -0.00012630                0.00431935               -0.05307518
               8.99938173                2.99986673                2.00148358                0.01000000               -0.02652452               -0.01837604                0.12190678                0.00843008               -0.04383430               -0.03466073
               9.99898910                2.99994907                2.00186084                0.24627951               -0.03926374               -0.02057404                0.11089336               -0.00034020               -0.00511954               -0.01481449
               0.00097525                4.00019717                2.00102103                0.01000001               -0.05195183                0.00734656                0.10580963                0.01456939                0.03497677               -0.00934276
               1.00045574                4.00016530                2.00074529                0.01000000               -0.03450567                0.01065985                0.09517373               -0.01602780                0.03270862               -0.01356753
               2.00028514                4.00012197                2.00083453                0.01000000               -0.01297579               -0.00492128                0.08179980               -0.01714674                0.02746631                0.02157184
               3.00019622                4.00001670                2.00074396                0.01000001               -0.00754622               -0.00726591                0.08061316               -0.01609166                0.01461304               -0.00380649
               4.00013422                3.99991590                2.00074981                0.01000000               -0.00617977               -0.00733249                0.07883797               -0.01331512                0.01325105               -0.00951921
               5.00007263                3.99984959                2.00076883                0.01000002               -0.00767341               -0.00644769                0.08095651               -0.00894143                0.00723154               -0.01622986
               5.99998075                3.99981586                2.00079064                0.01000002               -0.01076323               -0.00511119                0.08571689               -0.00453168                0.00217026               -0.02466653
               6.99985736                3.99981924                2.00089296                0.01000001               -0.01427125               -0.00384265                0.08968845                0.00254329               -0.01509202               -0.01277427
               7.99969532                3.99983739                2.00080056                0.01000001               -0.02334813                0.00086546                0.10189391                0.01015548               -0.02254471               -0.05481259
               8.99939040                3.99983536                2.00102934                0.01000002               -0.03904906               -0.00169340                0.10957249                0.00624187               -0.01978804               -0.03332298
               9.99891434                3.99987790                2.00133263                0.01000000               -0.04760557               -0.00632390                0.12286583                0.00549874               -0.03506031               -0.03115966
               0.00092838                5.00025607                2.00126236                0.01000002               -0.04939384                0.01191460                0.11550442               -0.01521263                0.02501768                0.04535380
               1.00043444                5.00025393                2.00096032                0.01000000               -0.03655105                0.00795692                0.10108400               -0.01649543                0.01547458                0.04912014
               2.00019736                5.00008128                2.00084274                0.01000000               -0.01490945               -0.00728952                0.08879326               -0.02100383                0.01275719                0.00580964
               3.00013625                4.99993523                2.00076415                0.01000000               -0.00520746               -0.00865271                0.08081688               -0.01712054                0.01021150               -0.00510991
               4.00009321                4.99984350                2.00073570                0.01000002               -0.00449305               -0.00865558                0.07755695               -0.00987326                0.00873611               -0.01669711
               5.00004639                4.99978606                2.00073494                0.01000000               -0.00604335               -0.00688187                0.07804567               -0.00514543                0.00552284               -0.02172483
               5.99997234                4.99976689                2.00076306                0.01000000               -0.00911251               -0.00576307                0.08102185               -0.00058507               -0.00082202               -0.02271476
               6.99986414                4.99977665                2.00079319                0.01000000               -0.01328794               -0.00529118                0.08643982                0.00274784               -0.00869011               -0.02359951
               7.99970658                4.99980433                2.00087331                0.01000001               -0.01990373               -0.00451248                0.09206537                0.00422954               -0.02133621               -0.01298240
               8.99946606                4.99983286                2.00091829                0.01000000               -0.03462982               -0.00209617                0.10167651                0.00573856               -0.02826061               -0.01626951
               9.99901399                4.99982259                2.00122507                0.01000001               -0.04520793               -0.00220180                0.11314735                0.00482749               -0.03427356               -0.01365931
               0.00067527                6.00043546                2.00174686                0.99872314               -0.03746597               -0.00581247                0.10501881               -0.01946156               -0.00297951                0.03752266
               1.00030061                6.00032444                2.00149496                0.01000002               -0.02457528               -0.01118188                0.11413523               -0.02164913               -0.01788231                0.03509735
               2.00018377                5.99997618                2.00091952                0.01000001               -0.01045117               -0.00449920                0.09773414               -0.02676044               -0.01348965                0.00989828
               3.00009159                5.99984365                2.00081140                0.01000001               -0.00489245               -0.01578087                0.08195781               -0.01164089                0.00501069               -0.02092696
               4.00008592                5.99974279                2.00072614                0.01000001               -0.00226311               -0.01002542                0.07789202               -0.00574002                0.00625648               -0.02316465
               5.00004633                5.99971195                2.00072664                0.01000000               -0.00537326               -0.00827331                0.07713335               -0.00113406                0.00613375               -0.02812945
               5.99997845                5.99970060                2.00074993                0.01000001               -0.00857249               -0.00772628                0.08059475                0.00111240                0.00091913               -0.02827751
               6.99987488                5.99971342                2.00080034                0.01000001               -0.01273715               -0.00783922                0.08644805                0.00319775               -0.00732295               -0.02525913
               7.99972371                5.99974714                2.00086394                0.01000001               -0.01939884               -0.00786389                0.09440518                0.00437428               -0.01922721               -0.02129263
               8.99948690                5.99979343                2.00094838                0.01000001               -0.03461465               -0.00649422                0.10467353                0.00370610               -0.02460426               -0.01375686
               9.99903142                5.99983386                2.00126523                0.01000005               -0.04554842               -0.00084181                0.11721532                0.00159865               -0.03281351               -0.00811694
               0.00076120                7.00013982                2.00183327                0.99999999               -0.03004654               -0.02692535                0.09659318               -0.00107173               -0.00473944                0.01316257
               1.00046073                7.00003030                2.00152801                1.00000000               -0.03091330               -0.02683472                0.09773534                0.00572758               -0.00515566                0.00174541
               2.00014293                6.99999130                2.00118509                0.01000000               -0.01619547               -0.01466843                0.09678161               -0.01768430               -0.02083114                0.00467501
               3.00013683                6.99961961                2.00069282                0.01000000               -0.00164148               -0.02137224                0.09304447               -0.01596067               -0.00370406                0.00811809
               4.00011010                6.99964299                2.00076254                0.01000002               -0.00354637               -0.01013507                0.07656414                0.00341698                0.01501283               -0.03906828
               5.00006590                6.99962060                2.00072303                0.01000000               -0.00584903               -0.01034562                0.07853082                0.00062948                0.00730572               -0.03444287
               5.99999312                6.99961236                2.00076496                0.01000001               -0.00921720               -0.01035015                0.08263395                0.00172170                0.00407735               -0.03520696
               6.99988155                6.99961987                2.00083257                0.01000000               -0.01395359               -0.01139211                0.09095979                0.00208463               -0.00437809               -0.03216905
               7.99971405                6.99964705                2.00093327                0.01000002               -0.02140440               -0.01310156                0.10224813                0.00170713               -0.01698082               -0.02420616
               8.99945347                6.99970297                2.00104776                0.01000000               -0.03744773               -0.01406410                0.11659976                0.00055785               -0.02457845               -0.01290266
               9.99896510                6.99980576                2.00139818                0.01000003               -0.04883688               -0.01194288                0.13186150               -0.00306722               -0.03425010                0.00010815
               0.00087289                7.99989696                2.00200341                1.00000000               -0.03092007               -0.02690911                0.10304878                0.00019791               -0.00262293                0.01035523
               1.00056369                7.99978774                2.00166040                0.99999999               -0.03160608               -0.02585518                0.09596437                0.00015107               -0.00108618                0.00029407
               2.00024077                7.99968282                2.00131779                0.35708990               -0.02215019               -0.02818134                0.09443144               -0.00639695                0.02783687               -0.00553025
               3.00012068                7.99941620                2.00162461                0.01000000               -0.00437453               -0.00971189                0.05453116               -0.00609564               -0.00814324               -0.01059649
               4.00015328                7.99954009                2.00063690                0.01000001               -0.00155677               -0.01559385                0.08629933                0.00517149               -0.02255608               -0.04163579
               5.00008955                7.99950504                2.00077205                0.01000001               -0.00698311               -0.01474126                0.08045728                0.00028053                0.01784461               -0.04343987
               6.00001361                7.99949360                2.00079782                0.01000001               -0.01038311               -0.01516469                0.08740711                0.00138882                0.00670152               -0.04375416
               6.99988189                7.99948558                2.00090064                0.01000002               -0.01694315               -0.01705401                0.09889542                0.00014581                0.00085900               -0.04141573
               7.99967475                7.99948511                2.00107988                0.01000000               -0.02712674               -0.02156599                0.11755205               -0.00324333               -0.01146524               -0.03243900
               8.99933935                7.99951215                2.00130700                0.01000007               -0.04551236               -0.02619029                0.14265955               -0.00975544               -0.02078704                0.00394427
               9.99876450                7.99959501                2.00176243                0.01000002               -0.05748475               -0.03501252                0.16742289               -0.01161505               -0.03340900                0.02738868
               0.00098359                8.99960164                2.00220225                1.00000000               -0.03056910               -0.03049212                0.10985894                0.00039818                0.00009434                0.00603508
               1.00067790                8.99951319                2.00183240                0.99999999               -0.02985276               -0.02875581                0.10216667                0.00100727                0.00597338               -0.00187367
               2.00038653                8.99942767                2.00155522                1.00000000               -0.02601288               -0.02676379                0.09724713                0.00724485                0.01158777               -0.00316729
               3.00015764                8.99942538                2.00138135                0.01000000               -0.01309161               -0.01528292                0.09746803               -0.00112541               -0.01155279               -0.04217437
               4.00012470                8.99933112                2.00082175                0.01000002               -0.00198191               -0.03048522                0.08938502               -0.00301578               -0.00723800               -0.03126580
               5.00011800                8.99932577                2.00080600                0.01000000               -0.00421671               -0.02824019                0.08885605                0.00147627                0.01596585               -0.04234984
               6.00004037                8.99930907                2.00086828                0.01000001               -0.01125209               -0.02904007                0.09650824                0.00098594                0.01191663               -0.04114150
               6.99989296                8.99927879                2.00099519                0.01000003               -0.02088776               -0.03196345                0.11161281               -0.00109096                0.00697425               -0.04105292
               7.99962261                8.99921573                2.00127369                0.01000001               -0.03722475               -0.03838953                0.14002419               -0.00680655                0.01658863               -0.03331195
               8.99914846                8.99917917                2.00204196                1.00000000               -0.05277617               -0.04568098                0.18019638               -0.01612195                0.00665754                0.00767944
               9.99856709                8.99910551                2.00277385                1.00000000               -0.05813766               -0.04906740                0.17879363               -0.01379604               -0.00414035                0.01398128
               0.00105774                9.99928711                2.00239428                1.00000000               -0.02999442               -0.03145263                0.10884915               -0.00003309                0.00656275                0.00749658
               1.00075780                9.99921263                2.00203155                0.99999999               -0.02921306               -0.03005685                0.10135761                0.00101173                0.01859411                0.00023841
               2.00047348                9.99914754                2.00187725                1.00000000               -0.02815337               -0.02801329                0.09535858                0.00359116                0.02622695                0.00372657
               3.00019473                9.99911055                2.00173290                0.01000000               -0.01404586               -0.03148287                0.09959609               -0.00714830                0.00317851               -0.00997004
               4.00019257                9.99893039                2.00116675                0.01000000               -0.00268058               -0.04007308                0.10592412               -0.00172892                0.00148652               -0.03799775
               5.00014112                9.99894024                2.00116417                0.01000000               -0.00561258               -0.03855345                0.10425519                0.00143266                0.02146905               -0.04087323
               6.00008031                9.99891280                2.00124691                0.01000005               -0.00938566               -0.03962726                0.11327131               -0.00070164                0.01681156               -0.04115783
               6.99995341                9.99884631                2.00139537                0.01000002               -0.02210353               -0.04324840                0.13006009               -0.00372894                0.01393614               -0.04272476
               7.99963824                9.99871732                2.00175527                0.01000000               -0.04131360               -0.04984094                0.16620335               -0.01082542                0.03061525               -0.03643429
               8.99912714                9.99859853                2.00276544                1.00000000               -0.05011703               -0.05806361                0.17824600               -0.00731596                0.01579457               -0.00192140
               9.99863590                9.99861366                2.00346492                0.99999999               -0.04912326               -0.04918500                0.15850018                0.00839425                0.00319253                0.00097897
               0.00075152                0.00094275                3.00262978                1.00000000               -0.02482894               -0.02505089                0.08038296                0.00066140               -0.00269689                0.00455898
               1.00050323                0.00084505                3.00246568                0.99999999               -0.02459258               -0.02470323                0.08127771                0.00010795               -0.00251303               -0.00233798
               2.00025967                0.00074223                3.00230137                0.01000000               -0.01310132               -0.02390026                0.08215172               -0.00034637               -0.02916665               -0.00515918
               3.00024121                0.00064630                3.00156523                0.01000000                0.00465467               -0.00613177                0.05283388                0.01080911                0.00328079                0.02045929
               4.00035277                0.00090816                3.00197388                0.01000001                0.00564239               -0.04268772                0.09352050                0.00807339                0.03621470               -0.00709283
               5.00035406                0.00079214                3.00216555                0.01000001                0.00397524               -0.04237731                0.10085393               -0.02274972                0.01703108               -0.01301661
               6.00043227                0.00041277                3.00227603                0.55147017               -0.00602897               -0.02282235                0.10563202               -0.02799124                0.03236574               -0.00345740
               7.00023348                0.00060050                3.00285071                1.00000000               -0.02560069               -0.03474069                0.11425771                0.00188159                0.04133790                0.00851840
               7.99992026                0.00081692                3.00316125                1.00000000               -0.03270074               -0.03455151                0.11366690                0.00420947                0.02160560                0.00037627
               8.99957946                0.00102143                3.00334433                1.00000000               -0.03409331               -0.03376358                0.11234571                0.00192177                0.01289473               -0.00128594
               9.99923839                0.00119515                3.00348011                1.00000000               -0.03410712               -0.03333851                0.11167363               -0.00027801                0.00920751                0.00508713
               0.00085583                1.00069224                3.00244861                1.00000000               -0.02512617               -0.02510433                0.08271885                0.00061300                0.00009425                0.00522631
               1.00060457                1.00059802                3.00226523                0.01000000               -0.02501251               -0.02489430                0.08499406                0.00035061                0.00098847               -0.00441003
               2.00035558                1.00050323                3.00211066                0.01000000               -0.01691208               -0.01363908                0.08606232                0.01467271               -0.02143891               -0.04276350
               3.00026633                1.00058498                3.00147113                0.01000000                0.00024976               -0.01635676                0.06441074                0.01206057                0.00759701                0.02469035
               4.00036058                1.00048129                3.00186092                0.01000000                0.00539623               -0.03675490                0.09983705               -0.01127055                0.03849152               -0.00352721
               5.00037426                1.00036836                3.00205090                0.01000000               -0.00562021               -0.03652276                0.10639364               -0.01998261                0.02438645               -0.01285950
               6.00024818                1.00018455                3.00229603                0.01000001               -0.01620206               -0.01954910                0.11060590               -0.02678160                0.03494326               -0.00874674
               7.00005021                1.00025310                3.00296093                0.99999999               -0.02481438               -0.03060622                0.10208504               -0.00269613                0.03083424                0.00995245
               7.99975189                1.00047141                3.00310538                0.99999999               -0.03203239               -0.03214675                0.10867727                0.00636373                0.00112780               -0.00052996
               8.99940957                1.00068379                3.00316877                0.99999998               -0.03449984               -0.03380657                0.11382112                0.00240340               -0.00126459               -0.00397032
               9.99906189                1.00086176                3.00327852                0.99999997               -0.03476759               -0.03335398                0.11107422               -0.00021372               -0.00003921                0.00527207
               0.00095222                2.00044066                3.00228106                0.01000001               -0.02529658               -0.01775047                0.08476527               -0.00971262               -0.00131021               -0.02403321
               1.00069926                2.00034716                3.00202788                0.01000000               -0.01930304               -0.01636677                0.08803523                0.01805736               -0.03273565               -0.03394019
               2.00056616                2.00046945                3.00110377                0.01000001               -0.00974500               -0.00940613                0.04136277                0.01453513                0.00836555                0.00033550
               3.00050436                2.00031916                3.00188541                0.01000000               -0.01110966               -0.02321019                0.10007997               -0.00600551                0.03817723                0.00946733
               4.00034397                2.00017307                3.00168867                0.01000000               -0.01266068               -0.02475912                0.09222223               -0.01565906                0.00701044               -0.00603997
               5.00025114                2.00006168                3.00184572                0.01000000               -0.01660318               -0.02409156                0.09984184               -0.01869714                0.02913323               -0.01490873
               6.00001191                2.00002179                3.00225784                0.01000000               -0.01792273               -0.01696319                0.11561768               -0.01754756                0.05376472               -0.02105863
               6.99989269                1.99998838                3.00311065                0.01000000               -0.01975369               -0.01561821                0.06847202               -0.01321107                0.02637544               -0.03964200
               7.99961683                2.00017399                3.00305228                0.01000001               -0.03277577               -0.01571167                0.10311096               -0.00110339               -0.02420530               -0.05272788
               8.99923717                2.00034530                3.00295277                0.99999999               -0.03693285               -0.03424243                0.11554919               -0.00215587               -0.01426694               -0.00942348
               9.99887818                2.00052807                3.00309719                0.99999997               -0.03589986               -0.03279005                0.10973631               -0.00009044               -0.00404804                0.00662305
               0.00084857                3.00033723                3.00148914                0.01000001                0.00883587               -0.00560594                0.05718237                0.00797384                0.01839195                0.00918057
               1.00093693                3.00027068                3.00122940                0.01000000               -0.00871432               -0.00357288                0.05759754                0.00547016                0.03708555                0.00885972
               2.00067429                3.00031510                3.00189462                0.01000000               -0.02471657               -0.01624536                0.10043140               -0.00822703                0.03402692                0.02741729
               3.00044260                3.00012078                3.00157473                0.01000000               -0.01847047               -0.01659613                0.08642263               -0.02276092                0.00313410               -0.01246419
               4.00030488                2.99998610                3.00164787                0.01000000               -0.01455050               -0.01675866                0.09006386               -0.01685797                0.01571921               -0.00801147
               5.00015159                2.99988653                3.00172409                0.01000001               -0.01671754               -0.01578094                0.09399996               -0.01442798                0.01402994               -0.01474594
               5.99997053                2.99984528                3.00190377                0.01000003               -0.02589006               -0.01493301                0.09926214               -0.00204979                0.01985678               -0.02926034
               6.99963379                2.99994073                3.00226460                0.01000000               -0.02988140               -0.01122353                0.11971181                0.00509085               -0.01282616               -0.06355310
               7.99937290                3.00015718                3.00186224                0.01000001               -0.03107109               -0.01332616                0.07376361               -0.00774057                0.00485469               -0.03709538
               8.99901237                2.99999895                3.00266493                0.01000001               -0.03391801               -0.02212632                0.11477841               -0.00700357                0.02341532               -0.02286247
               9.99869454                3.00020596                3.00292892                0.13384943               -0.03178293               -0.03028748                0.10702080                0.00909738               -0.00014348               -0.00859575
               0.00124479                4.00032854                3.00212053                0.01000000               -0.04140067               -0.00277719                0.09460971                0.00954006               -0.00109431                0.04476180
               1.00083079                4.00027571                3.00190598                0.01000000               -0.03466325               -0.00089531                0.10020363               -0.01897176                0.00515665                0.04217175
               2.00055153                4.00014454                3.00163372                0.01000000               -0.02263239               -0.01393730                0.08943794               -0.02570113                0.00809840               -0.00610660
               3.00037814                3.99998724                3.00161342                0.01000000               -0.01552372               -0.01450236                0.08800511               -0.02186059                0.01292351               -0.00369102
               4.00024105                3.99983789                3.00157663                0.01000098               -0.01373657               -0.01479774                0.08645645               -0.01710848                0.00999836               -0.01315866
               5.00010341                3.99974606                3.00161941                0.01000000               -0.01621710               -0.01394542                0.08887150               -0.00918478                0.00927389               -0.01784728
               5.99991671                3.99972313                3.00171471                0.01000000               -0.02103972               -0.01292288                0.09463653               -0.00143246                0.00324568               -0.02270760
               6.99968261                3.99976391                3.00179206                0.01000001               -0.02564521               -0.01594250                0.09877242                0.01324549                0.00229538               -0.03122804
               7.99940381                3.99990747                3.00204990                0.01000001               -0.03171486               -0.02386748                0.11364806                0.01066875               -0.00460198               -0.00229159
               8.99904832                3.99990277                3.00217339                0.01000001               -0.03788599               -0.01229919                0.11293262                0.00461007               -0.00863201               -0.02492706
               9.99864609                3.99992232                3.00242676                0.01000000               -0.04022277               -0.02180163                0.10745769                0.00254993                0.00426188               -0.02615345
               0.00114505                5.00028169                3.00227927                0.01000000               -0.04035463                0.00522556                0.10304793               -0.02474128               -0.00776328                0.03009012
               1.00074150                5.00025278                3.00200166                0.01000000               -0.03481571               -0.00233141                0.10443756               -0.02754733               -0.00114058                0.02730130
               2.00044873                5.00003636                3.00178535                0.01000000               -0.02147315               -0.01428810                0.09433581               -0.02741848                0.00316544                0.00666676
               3.00031204                4.99983073                3.00161389                0.01000001               -0.01224232               -0.01663844                0.08754401               -0.02157542                0.00595869               -0.00999973
               4.00020389                4.99969015                3.00155181                0.01000000               -0.01146874               -0.01650808                0.08523415               -0.01270417                0.00866794               -0.01632703
               5.00008266                4.99960763                3.00156095                0.01000000               -0.01399257               -0.01488735                0.08652265               -0.00539751                0.00753714               -0.02062706
               5.99992403                4.99958682                3.00162053                0.01000001               -0.01841505               -0.01458838                0.09058613                0.00204853                0.00447926               -0.02147770
               6.99971436                4.99962188                3.00172963                0.01000000               -0.02383118               -0.01555578                0.09740038                0.00739814               -0.00157555               -0.01727831
               7.99944741                4.99967983                3.00183991                0.01000001               -0.03123222               -0.01991161                0.10402001                0.00977260               -0.00579637               -0.01807516
               8.99908972                4.99975296                3.00203519                0.01000001               -0.03704839               -0.01571657                0.11193850                0.00763106               -0.00556226               -0.01034615
               9.99870644                4.99976993                3.00226541                0.01000000               -0.03832740               -0.01333170                0.10388748                0.00515676                0.00092185               -0.00870714
               0.00080779                6.00043305                3.00272280                0.99007425               -0.02826176               -0.00728734                0.09960758               -0.02679161               -0.00559691                0.02660522
               1.00052517                6.00022908                3.00250375                0.01000000               -0.01912898               -0.01580637                0.09924791               -0.03057238               -0.02064838                0.01442682
               2.00042521                5.99985878                3.00190991                0.01000000               -0.01161649               -0.01536558                0.09765333               -0.03055591               -0.01939403                0.00362271
               3.00029284                5.99965447                3.00164815                0.01000003               -0.01075652               -0.02479086                0.08880084               -0.01589702                0.00314062               -0.00764603
               4.00021008                5.99950773                3.00155674                0.01000000               -0.00970277               -0.01934955                0.08569060               -0.00683830                0.00831236               -0.02312820
               5.00009878                5.99944832                3.00154298                0.01000001               -0.01333248               -0.01719064                0.08618396               -0.00072762                0.00909235               -0.02428882
               5.99994343                5.99943136                3.00161213                0.01000000               -0.01806043               -0.01704767                0.09102267                0.00248832                0.00710711               -0.02339447
               6.99973757                5.99945279                3.00172908                0.01000001               -0.02376228               -0.01862115                0.09837857                0.00504697                0.00243849               -0.01943527
               7.99946818                5.99950923                3.00188889                0.01000001               -0.03133707               -0.01989926                0.10737770                0.00623767               -0.00210270               -0.01161296
               8.99911083                5.99958844                3.00209359                0.01000000               -0.03764474               -0.01960353                0.11579693                0.00518144               -0.00376687               -0.00375178
               9.99871529                5.99965569                3.00234061                0.01000000               -0.03955474               -0.01350914                0.10821233                0.00266834                0.00229983                0.00247603
               0.00101716                7.00013594                3.00284442                1.00000000               -0.03128358               -0.03043255                0.10322885                0.00010816               -0.00399376                0.01357182
               1.00070433                6.99993665                3.00253030                1.00000000               -0.03024712               -0.02972829                0.09994284               -0.00201908               -0.00832812               -0.00405033
               2.00041222                6.99972905                3.00213593                0.01000001               -0.01795920               -0.02068468                0.09395354               -0.02139730               -0.00568915               -0.00692954
               3.00034514                6.99933491                3.00184574                0.01000004               -0.00694733               -0.02927087                0.09621524               -0.00942680               -0.00650262               -0.04908975
               4.00027327                6.99930316                3.00153252                0.01000001               -0.01003307               -0.02047415                0.08493614                0.00646635                0.00367260               -0.02198098
               5.00014448                6.99926381                3.00157091                0.01000004               -0.01519746               -0.02006822                0.08830570                0.00214736                0.01493119               -0.02967521
               5.99996933                6.99924587                3.00165288                0.01000001               -0.02035281               -0.02048141                0.09416793                0.00215201                0.01157838               -0.02705612
               6.99973743                6.99924946                3.00182019                0.01000000               -0.02664046               -0.02263121                0.10429382                0.00078714                0.00746132               -0.02185814
               7.99943652                6.99928184                3.00204474                0.01000001               -0.03452660               -0.02670380                0.11679659               -0.00140136                0.00292998               -0.01056102
               8.99904689                6.99936089                3.00233524                0.01000001               -0.04055983               -0.02917541                0.12940827               -0.00216449                0.00023885                0.00501563
               9.99862532                6.99949975                3.00264063                0.01000003               -0.04215746               -0.02397884                0.12374822               -0.00263740                0.00545873                0.02064666
               0.00120853                7.99982440                3.00304585                1.00000000               -0.03168487               -0.03142337                0.10595310               -0.00069412               -0.00158050                0.01541439
               1.00089168                7.99963451                3.00266771                1.00000000               -0.03047654               -0.03011019                0.10066795               -0.00130745               -0.00187309                0.00124013
               2.00059900                7.99944508                3.00228478                0.01000001               -0.01807446               -0.02854850                0.09559649               -0.01089230               -0.04313056               -0.00798547
               3.00053019                7.99906905                3.00104509                0.01000001               -0.00942469               -0.01833339                0.04708550               -0.00903480                0.00577498               -0.01549613
               4.00041050                7.99909825                3.00173335                0.01000001               -0.01655858               -0.02371658                0.09342218                0.00749623                0.04743358               -0.02726091
               5.00019902                7.99904695                3.00160860                0.01000001               -0.02048419               -0.02490681                0.09125796                0.00259232                0.01387481               -0.03066917
               6.00000082                7.99902173                3.00174884                0.01000001               -0.02408354               -0.02572994                0.09985440                0.00138620                0.01857628               -0.02808424
               6.99971735                7.99900017                3.00197771                0.01000001               -0.03360491               -0.02810198                0.11350876               -0.00358469                0.01599529               -0.02263033
               7.99932872                7.99897516                3.00236141                0.01000001               -0.04338555               -0.03374901                0.13318131               -0.01130739                0.01265330               -0.00942486
               8.99884964                7.99900493                3.00283650                0.01000000               -0.04719486               -0.04192560                0.15147773               -0.01938013                0.00795184                0.03218238
               9.99838482                7.99917611                3.00330562                0.01000001               -0.04648123               -0.05192606                0.15094416               -0.01785690                0.01422778                0.05561279
               0.00138306                8.99950747                3.00328256                1.00000000               -0.03255636               -0.03209836                0.10889385               -0.00094536                0.00176307                0.01288382
               1.00105750                8.99933445                3.00286117                0.99999997               -0.03116130               -0.02991004                0.10198478               -0.00168763                0.00223754                0.00214067
               2.00075983                8.99915808                3.00246154                1.00000000               -0.02731063               -0.02719157                0.09033994               -0.00329654                0.00221793               -0.00290743
               3.00051128                8.99896825                3.00204002                0.01000005               -0.01572664               -0.01383916                0.07012664               -0.00971434                0.00768847                0.02765410
               4.00044530                8.99882883                3.00178243                0.01000001               -0.01192188               -0.02829990                0.09241908               -0.00313784                0.01873372               -0.02486873
               5.00027285                8.99876568                3.00177789                0.01000001               -0.02007336               -0.02879725                0.09748434                0.00200505                0.02447802               -0.02192352
               6.00004383                8.99873127                3.00193046                0.01000000               -0.02802704               -0.02984825                0.10719330                0.00099789                0.02437238               -0.02098308
               6.99971231                8.99868742                3.00223553                0.01000001               -0.04191149               -0.03219006                0.12474649               -0.00379647                0.02606474               -0.01650786
               7.99920560                8.99860686                3.00278382                0.01000001               -0.06269825               -0.03511672                0.14967071               -0.01235751                0.04580693               -0.00489959
               8.99845834                8.99852238                3.00391417                0.99999999               -0.06398878               -0.05071281                0.18572835               -0.02506635                0.02446680                0.02473698
               9.99792583                8.99846123                3.00450867                1.00000000               -0.05325121               -0.06095090                0.17351531               -0.02582455               -0.00023731                0.03018213
               0.00153567                9.99918244                3.00346626                0.99999999               -0.03283507               -0.03250363                0.10842959                0.00064892                0.01017967                0.00950407
               1.00120732                9.99903631                3.00304534                1.00000000               -0.03182027               -0.02981334                0.10090750                0.00092342                0.01498987                0.00174172
               2.00089927                9.99890125                3.00273964                1.00000000               -0.02710848               -0.02568230                0.08662836                0.00174124                0.01816320                0.00268071
               3.00066515                9.99879227                3.00238571                0.01000001               -0.01744757               -0.01759738                0.06849255               -0.00306333                0.02075277               -0.00053412
               4.00055032                9.99853225                3.00210209                0.01000000               -0.01642389               -0.02965768                0.08773188               -0.00556172                0.02129053               -0.00265811
               5.00033667                9.99847101                3.00208554                0.01000000               -0.02256408               -0.02946683                0.09107762                0.00100857                0.02838764               -0.00804431
               6.00009903                9.99842477                3.00226229                0.01000000               -0.02854221               -0.03065062                0.10079573               -0.00021203                0.02854210               -0.00662102
               6.99976583                9.99835637                3.00260458                0.01000002               -0.04262112               -0.03310525                0.11966491               -0.00224470                0.03427681               -0.00309960
               7.99924661                9.99827282                3.00328093                0.01000002               -0.06359431               -0.03340371                0.14894672               -0.01418378                0.05883723                0.01084952
               8.99849394                9.99799068                3.00449532                1.00000000               -0.06279867               -0.05317027                0.17304958               -0.01222632                0.03230237                0.00199616
               9.99799064                9.99795709                3.00508919                1.00000000               -0.05033055               -0.05041356                0.16249447                0.00312244                0.00074437               -0.00147838
               0.00088081                0.00115136                4.00343293                1.00000000               -0.02405792               -0.02431480                0.07990874                0.00116078               -0.00358049                0.00349388
               1.00064024                0.00101069                4.00327598                0.99999999               -0.02427122               -0.02493436                0.08117689                0.00079685               -0.00350765               -0.00130587
               2.00039539                0.00088434                4.00311322                0.01000001               -0.01219527               -0.02580355                0.08214667                0.01412852               -0.01556309               -0.00118308
               3.00039633                0.00104432                4.00271783                0.01000000               -0.00382074               -0.04872960                0.10809117                0.00479363               -0.00289302                0.00640509
               4.00031898                0.00088228                4.00283163                0.01000003               -0.00163778               -0.03706785                0.09128075               -0.00821014                0.02107940               -0.00763268
               5.00036357                0.00075873                4.00311015                0.01000001                0.01336430               -0.04316318                0.10263435               -0.02279781                0.04876678               -0.01354143
               6.00058626                0.00038044                4.00383710                0.64283405               -0.00692972               -0.03572575                0.11847644               -0.03472715                0.04923393               -0.00348990
               7.00022498                0.00063973                4.00410591                1.00000000               -0.03531440               -0.03409890                0.11835413               -0.00044177                0.01866382                0.00015207
               7.99987997                0.00091070                4.00429391                0.99999999               -0.03406199               -0.03353615                0.11488800                0.00238392                0.01397700                0.00103282
               8.99954374                0.00118881                4.00449005                1.00000000               -0.03415988               -0.03406715                0.11495840                0.00213809                0.01088727               -0.00010653
               9.99919678                0.00144286                4.00461834                0.99999969               -0.03469645               -0.03411107                0.11533301                0.00144030                0.00713454                0.00506203
               0.00103309                1.00090821                4.00327538                1.00000000               -0.02513703               -0.02474704                0.08271452                0.00097323                0.00072694                0.00423344
               1.00078172                1.00076135                4.00311536                0.01000000               -0.02566117               -0.02565116                0.08504149                0.00040746                0.00243419               -0.00302399
               2.00051986                1.00062630                4.00299040                0.01000000               -0.01682107               -0.02366724                0.08758419                0.00570711               -0.00816398               -0.01855986
               3.00044529                1.00055703                4.00262815                0.01000000               -0.00700960               -0.03833842                0.11012156               -0.00172801                0.00432248               -0.00517611
               4.00037967                1.00051160                4.00278847                0.01000000               -0.00293896               -0.03505922                0.09550479               -0.00720190                0.02439778               -0.00826744
               5.00038651                1.00032710                4.00302969                0.01000000               -0.00405901               -0.03605392                0.10413337               -0.03098611                0.04939946               -0.01508877
               6.00029849                1.00002319                4.00382275                0.01000000               -0.02155400               -0.02025590                0.11370817               -0.03254315                0.04200473               -0.03572520
               6.99995543                1.00029874                4.00403578                1.00000000               -0.03346083               -0.03221134                0.10682657                0.00070079                0.00610427                0.00059906
               7.99962927                1.00057534                4.00417452                1.00000000               -0.03281967               -0.03254401                0.10843999                0.00271314                0.00033910                0.00181156
               8.99929904                1.00084814                4.00429862                0.99999996               -0.03360728               -0.03352823                0.11227519                0.00181312               -0.00049412               -0.00189630
               9.99895713                1.00110175                4.00440987                0.99999996               -0.03419137               -0.03357109                0.11341620                0.00132372               -0.00064003                0.00511159
               0.00119400                2.00065642                4.00312539                0.01293467               -0.02637021               -0.02274681                0.08518974                0.00549921                0.00191060                0.00087734
               1.00093029                2.00049767                4.00292350                0.01000000               -0.02400693               -0.02107602                0.08904951               -0.00055534               -0.00778887               -0.00932602
               2.00071386                2.00041099                4.00253578                0.01000001               -0.02269134               -0.02140976                0.12422670               -0.00065375               -0.00028500               -0.02133021
               3.00047647                2.00027755                4.00260573                0.01000000               -0.01544963               -0.02268864                0.08339088               -0.00568707                0.01403534               -0.00545383
               4.00040487                2.00018110                4.00268728                0.01000000               -0.01220998               -0.02848213                0.09831820               -0.01310760                0.01876674               -0.01286522
               5.00023227                2.00003765                4.00289691                0.01000000               -0.02205549               -0.02403433                0.10266181               -0.02212042                0.02386471               -0.01973731
               5.99996376                1.99997533                4.00320759                0.01000003               -0.02727119               -0.00980766                0.10233840               -0.02256940                0.04715260               -0.04479946
               6.99968684                1.99999550                4.00396594                0.01000042               -0.02894577               -0.01988547                0.09329487               -0.00255670                0.02291324               -0.03682455
               7.99938484                2.00025982                4.00406729                0.01000000               -0.03166262               -0.02639254                0.10225429                0.00549113               -0.01640780               -0.02964610
               8.99905359                2.00051824                4.00407512                0.99999999               -0.03344069               -0.03296425                0.11049283               -0.00020351               -0.01155711               -0.00662530
               9.99871603                2.00077144                4.00421353                0.99999999               -0.03375657               -0.03270803                0.11125062                0.00037491               -0.00354779                0.00504690
               0.00146056                3.00045327                4.00290170                0.01000001               -0.04445260               -0.01770680                0.10605090               -0.00192077                0.00684839                0.00156374
               1.00101604                3.00033983                4.00264648                0.01000000               -0.03668275               -0.01305983                0.11596788               -0.00698905               -0.00222604               -0.00020395
               2.00072691                3.00019810                4.00255676                0.01000000               -0.02272938               -0.01509373                0.08132681               -0.01053834                0.00728392                0.00088835
               3.00056145                3.00010325                4.00255252                0.01000000               -0.01847427               -0.01869146                0.09464562               -0.01104165                0.01058735               -0.00881307
               4.00035742                2.99994196                4.00256401                0.01000001               -0.02057851               -0.02161535                0.09368380               -0.01667558                0.01197310               -0.01525972
               5.00014988                2.99984641                4.00268491                0.01000000               -0.02340849               -0.01909307                0.09773111               -0.01135865                0.01941822               -0.02192249
               5.99988925                2.99982703                4.00296333                0.01000000               -0.02650347               -0.01651914                0.10221244               -0.00180629                0.01871802               -0.02811183
               6.99961981                2.99990103                4.00320170                0.01000003               -0.03364476               -0.01329219                0.09903700                0.00508443                0.01049227               -0.05574777
               7.99921636                3.00004749                4.00334346                0.01000000               -0.04182272               -0.02229656                0.13343735                0.00624666                0.01181599               -0.05020412
               8.99878335                3.00018885                4.00377914                0.01000000               -0.03790586               -0.02758434                0.10935557                0.00937008                0.00981699               -0.01865707
               9.99845824                3.00044759                4.00400126                0.15514127               -0.03251150               -0.03765467                0.10741388                0.01471418               -0.00096269               -0.01118370
               0.00138247                4.00030228                4.00291322                0.01000001               -0.03367848               -0.00988316                0.08850286               -0.01319235               -0.00178535                0.02218821
               1.00104568                4.00023647                4.00274936                0.01000000               -0.03213990               -0.00688159                0.09099181               -0.01518249                0.00294275                0.01996302
               2.00073967                4.00010912                4.00262329                0.01000000               -0.02669512               -0.01298369                0.09572424               -0.02056121                0.00447126                0.00340509
               3.00051178                3.99990372                4.00250406                0.01000001               -0.02057368               -0.02013716                0.09116936               -0.02164060                0.00621516               -0.01039463
               4.00032820                3.99974879                4.00247894                0.01000000               -0.01958793               -0.02025520                0.09210043               -0.01429217                0.01054231               -0.01560436
               5.00012002                3.99965579                4.00254626                0.01000000               -0.02275929               -0.01982291                0.09463738               -0.00626592                0.01236458               -0.01977795
               5.99987301                3.99964494                4.00268337                0.01000000               -0.02759712               -0.01935585                0.09905966                0.00389333                0.01228034               -0.02613985
               6.99956808                3.99972966                4.00286841                0.01000001               -0.03255287               -0.02034819                0.10679948                0.00811950                0.00976308               -0.02641409
               7.99922195                3.99981389                4.00307353                0.01000002               -0.03635932               -0.02218238                0.10635767                0.01528169                0.00558523               -0.02103912
               8.99884089                3.99996656                4.00328799                0.01000001               -0.03645578               -0.02415549                0.11127375                0.01752102                0.00376734               -0.02208379
               9.99849284                4.00001834                4.00348179                0.01000001               -0.03480557               -0.03564900                0.10575322                0.01086566                0.00771284               -0.02510704
               0.00132833                5.00025561                4.00332332                0.01000000               -0.04227761                0.00500649                0.10848804               -0.02439265               -0.01551526                0.04146692
               1.00090555                5.00020220                4.00304907                0.01000000               -0.03399467               -0.00760705                0.10350619               -0.03311635               -0.01282705                0.03150186
               2.00064843                4.99993843                4.00272945                0.01000000               -0.02082939               -0.02055297                0.09397374               -0.02949377               -0.00630283                0.00133064
               3.00048896                4.99970051                4.00251503                0.01000000               -0.01644607               -0.02224209                0.09174887               -0.02028905                0.00306869               -0.00965667
               4.00031951                4.99953686                4.00244038                0.01000000               -0.01802788               -0.02246372                0.09096758               -0.01107078                0.00976527               -0.01714751
               5.00012841                4.99944995                4.00246539                0.01000000               -0.02131316               -0.02197897                0.09320149               -0.00220899                0.01243428               -0.01975731
               5.99989325                4.99943992                4.00257478                0.01000001               -0.02575761               -0.02222894                0.09807298                0.00527977                0.01261798               -0.01897216
               6.99961325                4.99949407                4.00274120                0.01000000               -0.03040784               -0.02477553                0.10403493                0.01213694                0.01153843               -0.01562521
               7.99928509                4.99960384                4.00295371                0.01000001               -0.03419675               -0.02519153                0.11101216                0.01534384                0.00917309               -0.00949983
               8.99892932                4.99970574                4.00315706                0.01000001               -0.03565573               -0.02741054                0.11222476                0.01248586                0.00666623               -0.00389439
               9.99857198                4.99973461                4.00330282                0.01000000               -0.03573409               -0.02550900                0.10565105                0.00741328                0.00668873               -0.00489950
               0.00100144                6.00040241                4.00373901                0.99218891               -0.03009023               -0.00837017                0.10254602               -0.03274531               -0.00362088                0.02454968
               1.00070054                6.00008433                4.00347991                0.01000000               -0.01749769               -0.02084363                0.09668208               -0.03036181               -0.02166070                0.00827592
               2.00065148                5.99969806                4.00287259                0.01000003               -0.00964802               -0.02302962                0.09491387               -0.02800879               -0.02054219               -0.00028083
               3.00050758                5.99945888                4.00258742                0.01000000               -0.01470733               -0.02298176                0.09230277               -0.01386625                0.00111391               -0.01431261
               4.00035734                5.99929951                4.00243995                0.01000000               -0.01673967               -0.02550490                0.09069104               -0.00519004                0.00985677               -0.01978933
               5.00017278                5.99921621                4.00245032                0.01000001               -0.02114228               -0.02442397                0.09358490                0.00083016                0.01589879               -0.02048456
               5.99993449                5.99920036                4.00257039                0.01000000               -0.02629433               -0.02526892                0.09908351                0.00500527                0.01749087               -0.01724342
               6.99964690                5.99923415                4.00276791                0.01000001               -0.03086682               -0.02799923                0.10681085                0.00676838                0.01659262               -0.01047545
               7.99931716                5.99931006                4.00301150                0.01000001               -0.03435266               -0.03202652                0.11450493                0.00783534                0.01503444               -0.00136121
               8.99895984                5.99941835                4.00326432                0.01000000               -0.03668924               -0.03226855                0.11787292                0.00655682                0.01172116                0.00952054
               9.99858337                5.99950816                4.00342947                0.01000000               -0.03764713               -0.02404642                0.11095651                0.00355740                0.00964517                0.01617091
               0.00130957                7.00008821                4.00389785                1.00000000               -0.03069058               -0.03176527                0.10540663               -0.00048227               -0.00411932                0.01413859
               1.00100267                6.99978533                4.00352687                0.99999999               -0.02979325               -0.03013304                0.09893183               -0.00118046               -0.00824789               -0.00590472
               2.00071371                6.99947784                4.00306416                0.01000005               -0.01962444               -0.02502821                0.09208162               -0.00975821               -0.01158342               -0.00800979
               3.00061018                6.99924087                4.00261712                0.01000003               -0.01276634               -0.02734379                0.08503600               -0.00855238               -0.00106072               -0.02088116
               4.00045838                6.99902676                4.00246126                0.01000001               -0.01830104               -0.02772779                0.09331499               -0.00491473                0.01484957               -0.02309339
               5.00024416                6.99896147                4.00248914                0.01000000               -0.02414834               -0.02657651                0.09485497                0.00432805                0.02248599               -0.02061562
               5.99997542                6.99893454                4.00264832                0.01000001               -0.03026156               -0.02730121                0.10256394                0.00270727                0.02501921               -0.01652088
               6.99963893                6.99893408                4.00291844                0.01000001               -0.03589074               -0.03082578                0.11287755               -0.00144514                0.02505351               -0.00772368
               7.99925760                6.99896331                4.00326920                0.01000001               -0.03882900               -0.03762626                0.12403780               -0.00609212                0.02349295                0.00846937
               8.99886235                6.99906037                4.00363592                0.01000000               -0.03970561               -0.04207386                0.13028448               -0.00576490                0.01766288                0.02722935
               9.99846349                6.99925368                4.00387315                0.01000001               -0.03988587               -0.03344706                0.12445460               -0.00429659                0.01361740                0.04674935
               0.00159755                7.99976711                4.00412247                1.00000000               -0.03102590               -0.03246512                0.10780331               -0.00094039               -0.00165017                0.01849652
               1.00128729                7.99948167                4.00367376                0.99999999               -0.02983908               -0.03034744                0.10017755               -0.00143078               -0.00102711                0.00174584
               2.00100077                7.99919749                4.00322972                0.01000000               -0.02498430               -0.02815875                0.09316891               -0.00156668               -0.01128512               -0.01043896
               3.00078761                7.99891201                4.00256632                0.01000000               -0.02311641               -0.03015158                0.12826476               -0.00360995               -0.00232560               -0.01514493
               4.00053844                7.99874496                4.00250534                0.01000002               -0.02180229               -0.02808728                0.08559879                0.00378951                0.02710851               -0.02176871
               5.00035156                7.99868468                4.00259721                0.01000001               -0.02612078               -0.02755583                0.09824411                0.00623790                0.03211922               -0.01855907
               6.00001603                7.99865434                4.00279490                0.01000001               -0.03811708               -0.02792919                0.10703332                0.00138571                0.03345227               -0.01332667
               6.99958922                7.99861763                4.00317082                0.01000001               -0.04735017               -0.03061596                0.12092188               -0.00874218                0.03848893               -0.00420998
               7.99906902                7.99855753                4.00374351                0.01000008               -0.05175238               -0.03825449                0.13846693               -0.02191307                0.03764996                0.01347718
               8.99855417                7.99857687                4.00433655                0.01000000               -0.04791017               -0.05226421                0.14910909               -0.03338551                0.02772399                0.06794105
               9.99811082                7.99883922                4.00478132                0.01000001               -0.04433522               -0.06640478                0.14749786               -0.02827207                0.02257197                0.08951796
               0.00186163                8.99943890                4.00438013                0.99999999               -0.03179652               -0.03286533                0.10969880               -0.00077164                0.00216027                0.01581976
               1.00154367                8.99917838                4.00387209                0.99999995               -0.03047942               -0.03012770                0.10065933               -0.00136602                0.00258585                0.00318999
               2.00125204                8.99891466                4.00336202                1.00000000               -0.02765758               -0.02762676                0.09005902               -0.00224648               -0.00044945               -0.00587302
               3.00099051                8.99863784                4.00278389                0.01000002               -0.02452718               -0.02517630                0.07640682                0.00050412                0.01879709               -0.00710056
               4.00076150                8.99846501                4.00267014                0.01000001               -0.02654893               -0.02535177                0.08955189                0.00763063                0.03587958               -0.01158625
               5.00045954                8.99841036                4.00275569                0.01000001               -0.03456608               -0.02603157                0.09765959                0.00540228                0.03887400               -0.01065124
               6.00007018                8.99837595                4.00301215                0.01000000               -0.04493219               -0.02688141                0.10889863                0.00137479                0.04236073               -0.00614922
               6.99956089                8.99832176                4.00349012                0.01000000               -0.06050369               -0.02857129                0.12556480               -0.00733241                0.05131519                0.00034347
               7.99886010                8.99819822                4.00426711                0.01000001               -0.08239727               -0.03087179                0.14737263               -0.02257286                0.08336669                0.01419036
               8.99791295                8.99801509                4.00575652                0.99999999               -0.07433823               -0.05503595                0.18394764               -0.04309442                0.04917861                0.04883214
               9.99737334                8.99792558                4.00624415                0.99999996               -0.05396075               -0.07080833                0.17361182               -0.04133837               -0.00112278                0.04860917
               0.00210318                9.99910980                4.00456287                1.00000000               -0.03189597               -0.03291056                0.10988661                0.00108638                0.01130324                0.01180868
               1.00178422                9.99887912                4.00404970                1.00000000               -0.03033988               -0.02992584                0.10031956                0.00081284                0.01558885                0.00200128
               2.00149638                9.99864496                4.00360981                1.00000000               -0.02684363               -0.02697063                0.08836628                0.00090151                0.01698852               -0.00093410
               3.00124734                9.99840848                4.00310275                0.01000002               -0.02889176               -0.02293623                0.07550781                0.00533112                0.02879616               -0.00510575
               4.00091854                9.99823792                4.00292139                0.01000001               -0.03493382               -0.02270887                0.08259623                0.00348272                0.03408113               -0.00068703
               5.00054867                9.99816405                4.00298572                0.01000000               -0.03932124               -0.02463081                0.09119558                0.00285247                0.04021317               -0.00186163
               6.00013212                9.99811671                4.00326283                0.01000000               -0.04641793               -0.02592422                0.10178890                0.00030190                0.04622051                0.00069155
               6.99962031                9.99804621                4.00378867                0.01000003               -0.06039366               -0.02755564                0.11933808               -0.00288921                0.06269714                0.00505660
               7.99892424                9.99794010                4.00473421                0.01000002               -0.08276936               -0.02581230                0.14513817               -0.02208881                0.09409055                0.01910658
               8.99796492                9.99747615                4.00622643                0.99999997               -0.07305925               -0.05389369                0.17320600               -0.02065462                0.05142237                0.00110490
               9.99746306                9.99742306                4.00671481                1.00000000               -0.05018613               -0.05025278                0.16289513                0.00366265                0.00120302               -0.00101432
               0.00099382                0.00132774                5.00422796                1.00000000               -0.02410233               -0.02432869                0.07961033                0.00090176               -0.00361347                0.00342980
               1.00075280                0.00114017                5.00408922                0.99999999               -0.02436322               -0.02501592                0.08147650                0.00036645               -0.00399713               -0.00105220
               2.00050656                0.00096420                5.00394431                0.01000000               -0.01439344               -0.02547391                0.08330273                0.00797409               -0.00804473               -0.00180909
               3.00046493                0.00095375                5.00372705                0.01000000               -0.00622605               -0.03601920                0.09747149                0.00285992               -0.00099114               -0.01245314
               4.00038204                0.00084184                5.00379950                0.01000000               -0.00705008               -0.03815450                0.09923857               -0.00708096                0.02941516               -0.00879306
               5.00032393                0.00068222                5.00421824                0.01000000                0.00195768               -0.04023921                0.10658596               -0.02310485                0.04174550               -0.01430042
               6.00042119                0.00037167                5.00464556                0.49093701               -0.00869974               -0.02721228                0.11398036               -0.03082136                0.04245244                0.00018835
               7.00014993                0.00074380                5.00521779                1.00000000               -0.03027667               -0.03387593                0.11567793                0.00229448                0.03284041                0.00127005
               7.99981566                0.00107637                5.00545901                1.00000000               -0.03385749               -0.03420995                0.11575026                0.00093505                0.01344235                0.00028440
               8.99947278                0.00140215                5.00564350                0.99999999               -0.03455790               -0.03413557                0.11587608                0.00100345                0.00827066                0.00070728
               9.99912450                0.00171333                5.00578677                1.00000000               -0.03482850               -0.03445230                0.11700835                0.00132695                0.00605560                0.00492131
               0.00119041                1.00108445                5.00410291                1.00000000               -0.02521735               -0.02479306                0.08283084                0.00057514                0.00103888                0.00373421
               1.00093823                1.00089001                5.00396606                0.01000000               -0.02554491               -0.02553265                0.08493416                0.00026469                0.00268341               -0.00277700
               2.00067951                1.00070946                5.00386234                0.01000000               -0.01917614               -0.02438589                0.08693445                0.00376137                0.00030130               -0.01128273
               3.00055471                1.00059356                5.00367357                0.01000000               -0.01162566               -0.03340138                0.10032239               -0.00402641                0.00552230               -0.00884569
               4.00044700                1.00046029                5.00377101                0.01000000               -0.01133723               -0.03508107                0.09996563               -0.01338262                0.02779588               -0.01284108
               5.00032797                1.00027982                5.00413357                0.01000000               -0.01824051               -0.03352460                0.10505547               -0.02382777                0.03590277               -0.01936782
               6.00008219                1.00009954                5.00457019                0.01000000               -0.02537194               -0.01932264                0.10741470               -0.02050233                0.03443754               -0.01176929
               6.99982053                1.00040504                5.00509746                1.00000000               -0.02931777               -0.03289179                0.10910995               -0.00119727                0.02154911                0.00085148
               7.99949583                1.00073427                5.00527418                0.99999999               -0.03280949               -0.03321186                0.11020839                0.00098033                0.00192466                0.00033926
               8.99916434                1.00106080                5.00541427                0.99999761               -0.03346185               -0.03349436                0.11179457                0.00107731               -0.00037347               -0.00054501
               9.99882659                1.00136881                5.00554684                0.99999997               -0.03377445               -0.03378555                0.11347110                0.00109579               -0.00053484                0.00549752
               0.00139420                2.00083188                5.00398485                0.01000000               -0.02611189               -0.02518917                0.08600162               -0.00495695                0.00147023               -0.00880195
               1.00113308                2.00062952                5.00380887                0.01000000               -0.02579829               -0.02246356                0.08824146               -0.00281364               -0.00062267               -0.00939755
               2.00087824                2.00047648                5.00358830                0.01000001               -0.02497573               -0.02320477                0.10014539               -0.00546849                0.00207419               -0.01259209
               3.00063357                2.00028573                5.00355323                0.01000001               -0.02250584               -0.02736875                0.09611530               -0.01219413                0.01600959               -0.01093683
               4.00042812                2.00014022                5.00365503                0.01000001               -0.02127237               -0.02855232                0.09768736               -0.01545231                0.02044539               -0.01690958
               5.00020812                2.00001173                5.00389896                0.01000000               -0.02710965               -0.02405436                0.10163478               -0.01711657                0.02937213               -0.02517122
               5.99988593                1.99998521                5.00430461                0.01000000               -0.03584301               -0.01461379                0.10417755               -0.00899273                0.04429077               -0.02962197
               6.99949126                2.00008596                5.00497655                0.01000005               -0.03532115               -0.02408656                0.10237259                0.00349512                0.02010048               -0.03079435
               7.99917950                2.00041213                5.00509736                0.01007674               -0.03157354               -0.02937076                0.10430098                0.00911260               -0.01095293               -0.01936499
               8.99885979                2.00073227                5.00516263                1.00000000               -0.03245532               -0.03239337                0.10850750                0.00060303               -0.00843390               -0.00459213
               9.99853040                2.00103762                5.00532221                0.99999997               -0.03293934               -0.03273894                0.11034533                0.00075861               -0.00316664                0.00512124
               0.00149599                3.00058067                5.00361016                0.01000003               -0.02586282               -0.02405948                0.08900061               -0.00686290                0.00317814                0.00340746
               1.00123736                3.00044074                5.00354876                0.01000000               -0.02910259               -0.01785715                0.09603989               -0.01444073                0.01097056                0.00292569
               2.00091393                3.00024537                5.00352115                0.01000001               -0.02951315               -0.02182681                0.09588811               -0.01932674                0.01139671                0.00010611
               3.00064709                3.00004619                5.00346765                0.01000001               -0.02509917               -0.02344447                0.09369393               -0.01714505                0.00981929               -0.01101736
               4.00041195                2.99988925                5.00352154                0.01000000               -0.02532280               -0.02453877                0.09641246               -0.01329354                0.01580920               -0.01756697
               5.00014064                2.99979874                5.00367872                0.01000000               -0.02919294               -0.02208518                0.09940601               -0.00719167                0.02058149               -0.02365375
               5.99982809                2.99980727                5.00394801                0.01000001               -0.03385630               -0.01981664                0.10108293                0.00394056                0.02154706               -0.03052526
               6.99946351                2.99992331                5.00424534                0.01000000               -0.03981565               -0.01949183                0.10504427                0.01680221                0.01496750               -0.04713926
               7.99903178                3.00014685                5.00453098                0.01000000               -0.04563010               -0.02678485                0.11830933                0.02030263                0.01160786               -0.03397241
               8.99855091                3.00041293                5.00485204                0.01000000               -0.04003584               -0.03245439                0.10638416                0.02113919                0.00334488               -0.01408657
               9.99823106                3.00071403                5.00507720                0.12970243               -0.03198483               -0.04594998                0.10692926                0.02422706               -0.00103044               -0.01035723
               0.00153680                4.00035069                5.00389059                0.01000000               -0.03572258               -0.01477197                0.09898706               -0.01346858               -0.00379260                0.04392774
               1.00117957                4.00027238                5.00372582                0.01000000               -0.03252702               -0.01442397                0.09735733               -0.02346376               -0.00308545                0.02586079
               2.00088626                4.00003995                5.00354821                0.01000001               -0.02663929               -0.02158465                0.09365050               -0.02563769                0.00064171                0.00043665
               3.00064679                3.99981684                5.00343681                0.01000000               -0.02382803               -0.02459756                0.09398264               -0.01875564                0.00692015               -0.01022189
               4.00040970                3.99964944                5.00341864                0.01000001               -0.02502599               -0.02515299                0.09510715               -0.01049686                0.01249018               -0.01738254
               5.00014627                3.99957002                5.00351216                0.01000001               -0.02847660               -0.02451617                0.09780822               -0.00021271                0.01712838               -0.02061722
               5.99984017                3.99958888                5.00369591                0.01000007               -0.03292741               -0.02434513                0.10179544                0.00992984                0.01845910               -0.02266907
               6.99948772                3.99969613                5.00392805                0.01000000               -0.03721160               -0.02567140                0.10676622                0.01951234                0.01688136               -0.02200652
               7.99909594                3.99987643                5.00417705                0.01000001               -0.03861598               -0.02974984                0.11020228                0.02851435                0.01243321               -0.01561216
               8.99871540                4.00008318                5.00439887                0.01000001               -0.03415944               -0.03570950                0.11090353                0.02826041                0.00721918               -0.01489795
               9.99841275                4.00011862                5.00454183                0.01000000               -0.03026547               -0.04948872                0.10672549                0.01942628                0.00779217               -0.02382017
               0.00138324                5.00028523                5.00444903                0.01240991               -0.03044132               -0.00005840                0.09063469               -0.02745839               -0.02422806                0.04132771
               1.00107882                5.00015226                5.00407179                0.01000000               -0.02632586               -0.01777874                0.09280861               -0.03463751               -0.02038251                0.02668831
               2.00085672                4.99981367                5.00366482                0.01000000               -0.02081691               -0.02607467                0.09477423               -0.02887156               -0.01013912               -0.00010126
               3.00066249                4.99955424                5.00344887                0.01000000               -0.02039462               -0.02753556                0.09354230               -0.01632636                0.00374388               -0.01210588
               4.00044883                4.99938619                5.00337116                0.01000001               -0.02327710               -0.02791909                0.09442936               -0.00556072                0.01294604               -0.01736885
               5.00019694                4.99930841                5.00342498                0.01000001               -0.02741232               -0.02775736                0.09746888                0.00371168                0.01894225               -0.01808995
               5.99990058                4.99932037                5.00358199                0.01000001               -0.03153697               -0.02879619                0.10225820                0.01184799                0.02190615               -0.01533019
               6.99956621                4.99940988                5.00381032                0.01000002               -0.03427844               -0.03150422                0.10778630                0.01860436                0.02184832               -0.00937590
               7.99921501                4.99955186                5.00406015                0.01000000               -0.03461362               -0.03549593                0.11170237                0.02326905                0.01952511               -0.00192439
               8.99887393                4.99969874                5.00427968                0.01000000               -0.03331529               -0.03915944                0.11275898                0.01921381                0.01359028                0.00434417
               9.99854871                4.99972425                5.00437843                0.01000000               -0.03252252               -0.03549237                0.10882189                0.01080793                0.01061227                0.00128704
               0.00125357                6.00034952                5.00477372                0.99186690               -0.02951849               -0.01249880                0.10317945               -0.02859703               -0.00401179                0.01939131
               1.00095838                5.99991680                5.00443739                0.01000000               -0.01733548               -0.02637753                0.09506163               -0.02684206               -0.01830398                0.00477739
               2.00090686                5.99951845                5.00380819                0.01000000               -0.01053173               -0.03009806                0.09337364               -0.02085502               -0.01912829               -0.00343415
               3.00074775                5.99926613                5.00349421                0.01000001               -0.01812756               -0.03079231                0.09203540               -0.00815263                0.00420030               -0.01586713
               4.00054431                5.99909106                5.00337056                0.01000007               -0.02307115               -0.03051412                0.09430642               -0.00009170                0.01676333               -0.01909440
               5.00028632                5.99901487                5.00341468                0.01000001               -0.02843232               -0.03019021                0.09813494                0.00660512                0.02501126               -0.01665497
               5.99997566                5.99901296                5.00359380                0.01000001               -0.03290043               -0.03147131                0.10403565                0.00954979                0.02951102               -0.01042154
               6.99962832                5.99906604                5.00386530                0.01000000               -0.03516019               -0.03589029                0.11111604                0.01024823                0.03082632               -0.00066646
               7.99927246                5.99916652                5.00417898                0.01000001               -0.03505177               -0.04163200                0.11730047                0.01039147                0.02873777                0.01176497
               8.99892728                5.99929999                5.00445105                0.01000000               -0.03472876               -0.04327480                0.11915719                0.00822644                0.01993020                0.02409065
               9.99857788                5.99940877                5.00455974                0.01000001               -0.03493998               -0.03206811                0.11443194                0.00460347                0.01422313                0.03009759
               0.00167674                7.00003526                5.00495256                1.00000000               -0.03036833               -0.03187354                0.10522799               -0.00008498               -0.00343335                0.01568874
               1.00137305                6.99962471                5.00450894                0.99999996               -0.02932187               -0.02962994                0.09766972               -0.00090216               -0.00756312               -0.00487203
               2.00109030                6.99921171                5.00397756                0.01000002               -0.02231122               -0.02900035                0.09067093               -0.00562255               -0.00648620               -0.01013160
               3.00092683                6.99893839                5.00354646                0.01000003               -0.01960262               -0.03333679                0.09338717                0.00122529                0.00627950               -0.02249003
               4.00069825                6.99877590                5.00339882                0.01000000               -0.02598389               -0.03185279                0.09482072                0.00718469                0.02386974               -0.02124835
               5.00040715                6.99870461                5.00346801                0.01000002               -0.03289184               -0.03028262                0.09933072                0.00902745                0.03482843               -0.01556242
               6.00004041                6.99869094                5.00370416                0.01000000               -0.03947693               -0.03107938                0.10711670                0.00540335                0.04052610               -0.00667245
               6.99961761                6.99869208                5.00407774                0.01000001               -0.04257568               -0.03608780                0.11699260               -0.00307597                0.04294673                0.00584207
               7.99918890                6.99871922                5.00452549                0.01000001               -0.04107030               -0.04598596                0.12612429               -0.01076505                0.04068538                0.02691069
               8.99879621                6.99883325                5.00494093                0.01000001               -0.03828403               -0.05284197                0.13068283               -0.00986485                0.02805660                0.04930553
               9.99842321                6.99908289                5.00512972                0.01000000               -0.03729906               -0.04066555                0.12653118               -0.00659277                0.01900416                0.07121024
               0.00207295                7.99971205                5.00520191                0.99999999               -0.03090689               -0.03258957                0.10776505               -0.00050469               -0.00117379                0.02045203
               1.00176388                7.99932420                5.00467126                1.00000000               -0.02961102               -0.03012058                0.09943723               -0.00096695               -0.00067305                0.00202569
               2.00148073                7.99893845                5.00414816                0.01000000               -0.02779107               -0.02755937                0.09132248                0.00119685               -0.00084689               -0.01237969
               3.00120806                7.99859939                5.00361039                0.01000000               -0.02794756               -0.03242938                0.09844581                0.00839211                0.01007968               -0.02942287
               4.00092178                7.99845400                5.00344533                0.01000001               -0.03281106               -0.02974265                0.09457488                0.01513379                0.03801828               -0.01968091
               5.00055184                7.99840922                5.00357348                0.01000000               -0.04127590               -0.02702336                0.09945464                0.01192656                0.04695338               -0.01168033
               6.00009626                7.99839137                5.00388950                0.01000001               -0.05066605               -0.02752866                0.11016543                0.00256360                0.05286881               -0.00249582
               6.99953852                7.99834429                5.00439615                0.01000001               -0.05901382               -0.03078212                0.12309947               -0.01392683                0.06121201                0.01020592
               7.99891598                7.99824680                5.00513075                0.01000001               -0.05861049               -0.04096221                0.13863281               -0.03417470                0.06034411                0.03348912
               8.99836631                7.99824315                5.00581868                0.01000001               -0.04846256               -0.06120499                0.14798113               -0.04913380                0.04201397                0.10355315
               9.99794673                7.99859546                5.00625558                0.01000000               -0.04195753               -0.07914856                0.14762324               -0.03952427                0.03141197                0.12243368
               0.00244234                8.99938346                5.00547654                0.99999999               -0.03150177               -0.03294653                0.10937713               -0.00035962                0.00250032                0.01740524
               1.00212732                8.99902230                5.00487436                1.00000000               -0.03016430               -0.03015398                0.10015935               -0.00073328                0.00224331                0.00290708
               2.00183905                8.99866052                5.00426272                1.00000000               -0.02741027               -0.02757294                0.09033774               -0.00136231               -0.00219825               -0.00831444
               3.00157911                8.99828980                5.00356815                0.01000000               -0.03239802               -0.02734808                0.07944358                0.01209824                0.02866200               -0.02155810
               4.00119109                8.99818105                5.00357347                0.01000001               -0.04353983               -0.02190025                0.09087539                0.01507649                0.05517394               -0.01173200
               5.00070832                8.99816414                5.00373108                0.01000000               -0.05172368               -0.02177545                0.09849923                0.01034884                0.05559385               -0.00481589
               6.00015662                8.99814037                5.00410843                0.01000000               -0.06123341               -0.02270661                0.11021753                0.00182609                0.06315054                0.00088591
               6.99948365                8.99807643                5.00474682                0.01000001               -0.07750393               -0.02419435                0.12587386               -0.01152596                0.07746868                0.00954029
               7.99860654                8.99789997                5.00573127                0.01000000               -0.10093916               -0.02630191                0.14615635               -0.03463032                0.12137704                0.02729960
               8.99746486                8.99760915                5.00759312                1.00000000               -0.08392135               -0.05850936                0.18326482               -0.06122860                0.07254657                0.07148874
               9.99692811                8.99749992                5.00798091                0.99999999               -0.05367545               -0.07999805                0.17363897               -0.05636214               -0.00096108                0.06697588
               0.00278808                9.99905312                5.00566399                0.99999999               -0.03159270               -0.03303433                0.11012549                0.00137506                0.01224853                0.01301446
               1.00247216                9.99872112                5.00505173                0.99999997               -0.03010489               -0.03011774                0.10058581                0.00117708                0.01572973                0.00145802
               2.00218598                9.99838699                5.00450697                1.00000000               -0.02713285               -0.02735373                0.09069021                0.00125866                0.01571126               -0.00216927
               3.00192950                9.99805243                5.00389587                0.01000000               -0.04185084               -0.02373737                0.08097409                0.01648915                0.03514288               -0.00389012
               4.00134897                9.99801600                5.00375401                0.01000000               -0.05649978               -0.01650531                0.08526799                0.01185209                0.04722045               -0.00246762
               5.00079950                9.99797371                5.00390945                0.01000000               -0.05642374               -0.01904301                0.09398653                0.00518058                0.05535630                0.00184935
               6.00022049                9.99793724                5.00429807                0.01000000               -0.06255551               -0.02031288                0.10503970                0.00072208                0.06620482                0.00491135
               6.99954839                9.99786040                5.00499134                0.01000000               -0.07649134               -0.02160332                0.12120492               -0.00434948                0.09093125                0.00997812
               7.99869067                9.99772076                5.00618369                0.01000002               -0.10033016               -0.01792149                0.14515693               -0.03095890                0.12927340                0.02748973
               8.99754179                9.99707296                5.00795944                0.99999999               -0.08263622               -0.05361816                0.17329662               -0.02857042                0.07065273                0.00126827
               9.99703794                9.99699550                5.00834709                0.99999998               -0.05038477               -0.05044205                0.16363391                0.00323674                0.00108830               -0.00113047
               0.00108601                0.00147006                6.00502514                1.00000000               -0.02420713               -0.02440569                0.07991686                0.00074458               -0.00365771                0.00340248
               1.00084394                0.00123597                6.00490551                0.99999999               -0.02446724               -0.02498082                0.08173950                0.00030220               -0.00409444               -0.00106340
               2.00059667                0.00101209                6.00477927                0.01000000               -0.01613138               -0.02554386                0.08355086                0.00548458               -0.00379399               -0.00171275
               3.00052131                0.00090223                6.00466726                0.01000000               -0.00902911               -0.03482937                0.09370332                0.00014040                0.00670430               -0.00940251
               4.00041609                0.00076339                6.00481640                0.01000000               -0.00844460               -0.03641428                0.10087326               -0.00705874                0.03176987               -0.01080040
               5.00035242                0.00064206                6.00524187                0.01000005                0.00098386               -0.03830388                0.10710405               -0.01612505                0.06512103               -0.01371385
               6.00043576                0.00053495                6.00611670                0.52213229               -0.01420406               -0.04061947                0.12581146               -0.02805487                0.05300828               -0.00067607
               7.00006834                0.00090578                6.00641946                1.00000000               -0.03563286               -0.03487726                0.11798130               -0.00103709                0.01594460               -0.00195679
               7.99972311                0.00128604                6.00660892                1.00000000               -0.03434770               -0.03422696                0.11582577                0.00056692                0.01007732                0.00021631
               8.99938139                0.00166142                6.00680757                0.99999999               -0.03458815               -0.03433069                0.11645085                0.00050765                0.00786447                0.00073937
               9.99903134                0.00202115                6.00695850                0.99999999               -0.03500441               -0.03448804                0.11720034                0.00096637                0.00537828                0.00496495
               0.00132755                1.00122600                6.00493199                1.00000000               -0.02515984               -0.02484666                0.08294712                0.00048333                0.00102760                0.00365097
               1.00107595                1.00098616                6.00481404                0.01000000               -0.02545805               -0.02544726                0.08474526                0.00005481                0.00270794               -0.00276611
               2.00081839                1.00075665                6.00472909                0.01000000               -0.02144409               -0.02558763                0.08654605               -0.00089553                0.00397667               -0.00873781
               3.00064707                1.00055393                6.00463460                0.01000000               -0.01714021               -0.03187448                0.09548684               -0.00743912                0.01098485               -0.01172350
               4.00047558                1.00039925                6.00478778                0.01000000               -0.01708371               -0.03355074                0.10060713               -0.01214779                0.02682398               -0.01488508
               5.00030539                1.00025902                6.00513080                0.01000000               -0.02261147               -0.03264888                0.10435230               -0.02263894                0.05384634               -0.01677670
               6.00002335                1.00012876                6.00597104                0.01000000               -0.03114831               -0.02649437                0.12003692               -0.01828924                0.04309230               -0.02937666
               6.99968243                1.00055701                6.00621798                1.00000000               -0.03361970               -0.03370267                0.11164957                0.00213854                0.00631112               -0.00232342
               7.99935096                1.00094377                6.00637869                0.99999995               -0.03317578               -0.03351607                0.11116523                0.00088476                0.00125624                0.00035932
               8.99901891                1.00131811                6.00653451                0.99999999               -0.03348387               -0.03363957                0.11217384                0.00055886                0.00022698               -0.00019079
               9.99868128                1.00167627                6.00667929                1.00000000               -0.03376297               -0.03388212                0.11316061                0.00092458               -0.00033018                0.00594506
               0.00157536                2.00097312                6.00484542                0.01000000               -0.02609691               -0.03051577                0.08596598               -0.00864117                0.00153535                0.00011202
               1.00131439                2.00072702                6.00468833                0.01000000               -0.02821858               -0.02523814                0.08774886               -0.01121422                0.00196530               -0.00413164
               2.00101099                2.00050033                6.00453869                0.01000066               -0.02922283               -0.02581613                0.09400262               -0.01223592                0.00442984               -0.01207314
               3.00072993                2.00026474                6.00452803                0.01000000               -0.02714726               -0.02773041                0.09667097               -0.01487892                0.01386563               -0.01385474
               4.00046804                2.00009238                6.00464103                0.01000001               -0.02798979               -0.02861181                0.09904744               -0.01443501                0.02291750               -0.01964263
               5.00017014                1.99998908                6.00492961                0.01000000               -0.03480269               -0.02494415                0.10262300               -0.01288356                0.02793201               -0.02370652
               5.99977199                2.00000506                6.00529114                0.01000000               -0.04370190               -0.01517636                0.10369986               -0.00135695                0.04311649               -0.04280481
               6.99929610                2.00023173                6.00601339                0.01000002               -0.03961430               -0.02751374                0.10510720                0.01322082                0.02361252               -0.02830759
               7.99897970                2.00061572                6.00615331                0.01159562               -0.03180150               -0.03277116                0.10626523                0.01238768               -0.00835371               -0.01071304
               8.99866007                2.00098863                6.00624526                1.00000000               -0.03230860               -0.03236183                0.10837594                0.00064540               -0.00671062               -0.00358311
               9.99833353                2.00134350                6.00642043                0.99999997               -0.03265391               -0.03277223                0.10952643                0.00078887               -0.00239378                0.00577740
               0.00164692                3.00061568                6.00468172                0.01000000               -0.03224708               -0.03155773                0.10321064               -0.01038866                0.00047720                0.00645616
               1.00132445                3.00048140                6.00456728                0.01000000               -0.03054842               -0.02481779                0.09946485               -0.01816933                0.00105911                0.00339454
               2.00103595                3.00024033                6.00447452                0.01000000               -0.02835030               -0.02630754                0.09500712               -0.02257733                0.00568851               -0.00406734
               3.00075745                2.99999932                6.00442639                0.01000001               -0.02867099               -0.02733371                0.09609943               -0.01817483                0.01122748               -0.01286813
               4.00046254                2.99982701                6.00449226                0.01000000               -0.03112060               -0.02704276                0.09765835               -0.01022875                0.01737629               -0.01913638
               5.00013503                2.99976014                6.00467303                0.01000000               -0.03544856               -0.02459498                0.10012442                0.00067019                0.02380697               -0.02421074
               5.99975356                2.99982523                6.00498499                0.01000005               -0.03994230               -0.02237408                0.10322976                0.01504556                0.02431484               -0.02505667
               6.99933619                3.00000674                6.00530259                0.01000001               -0.04558741               -0.02535921                0.10692268                0.02957886                0.02384476               -0.03988750
               7.99884182                3.00028835                6.00570964                0.01000000               -0.05160778               -0.03216213                0.11562243                0.03421189                0.00984903               -0.02574103
               8.99830403                3.00067088                6.00590683                0.01000000               -0.04272540               -0.03738370                0.10525113                0.03464536               -0.00347955               -0.00913296
               9.99798731                3.00102082                6.00613984                0.12440547               -0.03167250               -0.05513971                0.10578196                0.03645598               -0.00145331               -0.00736434
               0.00163616                4.00034197                6.00489296                0.01000000               -0.03097971               -0.02083224                0.09623157               -0.01356360               -0.00770327                0.02399373
               1.00132636                4.00023067                6.00469651                0.01000000               -0.02973217               -0.02284997                0.09550655               -0.02050640               -0.00514233                0.01293893
               2.00104151                3.99997418                6.00449630                0.01000001               -0.02733053               -0.02819504                0.09524005               -0.02399980                0.00021813               -0.00026743
               3.00077975                3.99971806                6.00438371                0.01000000               -0.02694310               -0.02991632                0.09518291               -0.01613035                0.00820263               -0.01228178
               4.00050265                3.99955152                6.00438108                0.01000003               -0.02972128               -0.02947262                0.09689388               -0.00405443                0.01581853               -0.01784495
               5.00018532                3.99949718                6.00450242                0.01000000               -0.03381765               -0.02872517                0.09961373                0.00837205                0.02155282               -0.01929542
               5.99982630                3.99955758                6.00471928                0.01000001               -0.03803829               -0.02949067                0.10314159                0.02099132                0.02454579               -0.01946550
               6.99942456                3.99972455                6.00500373                0.01000000               -0.04132489               -0.03187192                0.10791891                0.03253828                0.02268575               -0.01508641
               7.99899980                3.99997247                6.00527757                0.01000000               -0.04020284               -0.03624629                0.11088632                0.04404127                0.01692057               -0.01398018
               8.99862050                4.00024095                6.00550606                0.01000000               -0.03185207               -0.04652141                0.11084542                0.04235229                0.00823754               -0.00696254
               9.99836276                4.00024071                6.00561630                0.01000005               -0.02577414               -0.06391914                0.10786375                0.02994639                0.00672843               -0.01941158
               0.00159825                5.00019904                6.00513601                0.01000004               -0.03161444               -0.00276291                0.09492337               -0.01957883               -0.00047055                0.04323028
               1.00128211                5.00002440                6.00490524                0.01000000               -0.02648444               -0.02439681                0.09323609               -0.02744932               -0.00301866                0.02214926
               2.00106856                4.99967642                6.00462494                0.01000000               -0.02123035               -0.03287748                0.09409568               -0.02264072               -0.00298376               -0.00259027
               3.00085750                4.99940100                6.00438587                0.01000078               -0.02331196               -0.03370559                0.09457282               -0.00947027                0.00614055               -0.01357399
               4.00060233                4.99923756                6.00432897                0.01000008               -0.02805435               -0.03307783                0.09644767                0.00270589                0.01828092               -0.01734665
               5.00029641                4.99918563                6.00441477                0.01000007               -0.03281499               -0.03285539                0.09983446                0.01311472                0.02610916               -0.01568470
               5.99994603                4.99923541                6.00461995                0.01000000               -0.03621771               -0.03439084                0.10443519                0.02157271                0.03048393               -0.01003995
               6.99957206                4.99936930                6.00489693                0.01000000               -0.03698955               -0.03855727                0.10918526                0.02908432                0.03100807               -0.00223511
               7.99920623                4.99956342                6.00518775                0.01000000               -0.03446082               -0.04462291                0.11299099                0.03387574                0.02702211                0.00745957
               8.99888284                4.99974045                6.00541224                0.01000000               -0.03097546               -0.05010210                0.11360582                0.02681037                0.01763911                0.01352891
               9.99858673                4.99974244                6.00547925                0.01000000               -0.02961189               -0.04409428                0.11084196                0.01458326                0.01258261                0.00853591
               0.00159386                6.00028671                6.00580260                0.98632599               -0.02938743               -0.01126266                0.10267217               -0.02790311               -0.00379046                0.03642112
               1.00129999                5.99974273                6.00538115                0.01000000               -0.01908806               -0.02851930                0.09425662               -0.02128910               -0.01474583                0.01080757
               2.00121210                5.99931663                6.00474006                0.01000000               -0.01353890               -0.03705949                0.09319179               -0.01104426               -0.01404674               -0.00819650
               3.00102921                5.99904395                6.00442813                0.01000002               -0.02199841               -0.03630536                0.09372225                0.00151691                0.01003797               -0.01727773
               4.00077213                5.99888996                6.00432608                0.01000001               -0.02897231               -0.03552706                0.09630795                0.01040122                0.02450265               -0.01822262
               5.00044976                5.99884007                6.00441302                0.01000000               -0.03490219               -0.03471064                0.10068073                0.01593855                0.03510600               -0.01312637
               6.00007409                5.99886976                6.00465110                0.01000000               -0.03857620               -0.03650137                0.10654273                0.01717565                0.04145095               -0.00368200
               6.99967824                5.99895340                6.00499023                0.01000000               -0.03839605               -0.04246110                0.11299423                0.01573620                0.04333258                0.00948456
               7.99930617                5.99908002                6.00535751                0.01000001               -0.03502740               -0.05068296                0.11813814                0.01436976                0.03941091                0.02459956
               8.99897769                5.99923891                6.00564746                0.01000000               -0.03278611               -0.05308031                0.11996698                0.01076056                0.02615683                0.03859009
               9.99865045                5.99935882                6.00571811                0.01000000               -0.03272459               -0.03801969                0.11666070                0.00595413                0.01729933                0.04355714
               0.00212815                6.99997378                6.00600241                1.00000000               -0.03017462               -0.03172723                0.10483306                0.00009876               -0.00281272                0.01695688
               1.00182640                6.99945401                6.00548026                1.00000000               -0.02908442               -0.02929823                0.09694734               -0.00054735               -0.00674819               -0.00366105
               2.00154646                6.99893523                6.00487758                0.01000002               -0.02559467               -0.03259487                0.08972664                0.00267419               -0.00010724               -0.01259645
               3.00131451                6.99867489                6.00448486                0.01000001               -0.02661181               -0.03710467                0.09348307                0.01273019                0.01609502               -0.02091946
               4.00101422                6.99852702                6.00435768                0.01000000               -0.03395617               -0.03566380                0.09633804                0.01900591                0.03414639               -0.02055149
               5.00063539                6.99849142                6.00447576                0.01000000               -0.04190066               -0.03260354                0.10159238                0.01875320                0.04772056               -0.01117207
               6.00017621                6.99850539                6.00479065                0.01000000               -0.04794267               -0.03348051                0.10935489                0.01026523                0.05614343                0.00121347
               6.99967653                6.99852008                6.00525829                0.01000000               -0.04840458               -0.04003665                0.11848779               -0.00308234                0.05958657                0.01793317
               7.99920812                6.99854976                6.00579169                0.01000000               -0.04286421               -0.05292410                0.12675742               -0.01470161                0.05524234                0.04431038
               8.99881925                6.99867884                6.00624958                0.01000000               -0.03710675               -0.06215874                0.13103649               -0.01378941                0.03656555                0.07036597
               9.99846598                6.99898204                6.00640377                0.01000001               -0.03532637               -0.04610561                0.12800132               -0.00893844                0.02315256                0.09381698
               0.00263538                7.99965216                6.00627777                0.99999999               -0.03077929               -0.03244265                0.10734598               -0.00014734               -0.00101687                0.02164295
               1.00232759                7.99915677                6.00566250                0.99999999               -0.02953384               -0.02989812                0.09899069               -0.00057418               -0.00049376                0.00226788
               2.00204471                7.99866474                6.00505617                0.01000001               -0.03177803               -0.02728344                0.09074457                0.00564554                0.00419502               -0.01367537
               3.00169203                7.99830186                6.00453524                0.01000000               -0.03544941               -0.03768425                0.09179304                0.02252239                0.01907973               -0.03570721
               4.00133572                7.99817669                6.00439684                0.01000000               -0.04227860               -0.03026631                0.09509189                0.02869859                0.04746372               -0.02057990
               5.00084646                7.99818800                6.00458631                0.01000000               -0.05424904               -0.02566782                0.10191578                0.02122671                0.06293160               -0.00795293
               6.00025074                7.99820015                6.00499821                0.01000001               -0.06371195               -0.02601413                0.11151614                0.00529517                0.07166822                0.00481068
               6.99957222                7.99815267                6.00563281                0.01000000               -0.06986834               -0.03013514                0.12388603               -0.01838634                0.08321660                0.02154783
               7.99885337                7.99802153                6.00651617                0.01000000               -0.06512994               -0.04292476                0.13850169               -0.04618540                0.08102508                0.05109615
               8.99826962                7.99799574                6.00729617                0.01000002               -0.04940495               -0.06873701                0.14769187               -0.06449146                0.05523365                0.13784694
               9.99786527                7.99843671                6.00773378                0.01000002               -0.04043483               -0.09042279                0.14806082               -0.05027430                0.03936954                0.15360340
               0.00311600                8.99932493                6.00656767                0.99999999               -0.03136521               -0.03284922                0.10891990               -0.00002411                0.00246063                0.01792901
               1.00280235                8.99885605                6.00587528                1.00000000               -0.03008593               -0.03016179                0.10016336               -0.00035603                0.00183788                0.00255512
               2.00251428                8.99838957                6.00516878                1.00000000               -0.02746715               -0.02758260                0.09102727               -0.00065412               -0.00338393               -0.00971155
               3.00225300                8.99792120                6.00437276                0.01000000               -0.04061165               -0.03133010                0.08137011                0.02716266                0.03749550               -0.02887980
               4.00170205                8.99792169                6.00448764                0.01000000               -0.06082753               -0.01745963                0.09195400                0.02852526                0.07262221               -0.01409416
               5.00103645                8.99797807                6.00472568                0.01000000               -0.06922994               -0.01718551                0.10028330                0.01643438                0.07292590               -0.00285547
               6.00031745                8.99798510                6.00521650                0.01000001               -0.07745143               -0.01822465                0.11146741                0.00314490                0.08395580                0.00542605
               6.99948743                8.99791737                6.00600760                0.01000000               -0.09380530               -0.01979696                0.12638682               -0.01563727                0.10298847                0.01636851
               7.99844134                8.99769127                6.00719023                0.01000001               -0.11865917               -0.02182408                0.14587678               -0.04625164                0.15839676                0.03895862
               8.99711424                8.99730410                6.00942182                0.99999999               -0.09313968               -0.06134311                0.18248666               -0.07863617                0.09571060                0.09388255
               9.99657855                8.99717359                6.00971693                0.99999999               -0.05356923               -0.08843164                0.17358994               -0.07083841               -0.00099064                0.08464237
               0.00357267                9.99899518                6.00676538                1.00000000               -0.03168309               -0.03297514                0.11015420                0.00150162                0.01248558                0.01337646
               1.00325584                9.99855353                6.00606142                1.00000000               -0.03030989               -0.03025191                0.10130756                0.00124396                0.01569709                0.00110591
               2.00296647                9.99811308                6.00542362                0.99999998               -0.02763393               -0.02764818                0.09236393                0.00130493                0.01550025               -0.00286901
               3.00270316                9.99767525                6.00472223                0.01000000               -0.05585530               -0.02459506                0.08363098                0.03073580                0.04202629               -0.00398022
               4.00184936                9.99782750                6.00462675                0.01000005               -0.07957122               -0.00941962                0.08870796                0.02318343                0.06052073               -0.00439063
               5.00111173                9.99784429                6.00486545                0.01000000               -0.07375183               -0.01337715                0.09703412                0.00793612                0.07119998                0.00293581
               6.00037433                9.99783566                6.00536362                0.01000000               -0.07792102               -0.01494435                0.10781014                0.00130948                0.08604839                0.00726399
               6.99955331                9.99775673                6.00621277                0.01000000               -0.09163577               -0.01606447                0.12297830               -0.00594174                0.11776056                0.01336098
               7.99854161                9.99758505                6.00763734                0.01000001               -0.11693690               -0.01062130                0.14571674               -0.03936600                0.16294326                0.03482462
               8.99721457                9.99676887                6.00969236                0.99999998               -0.09160405               -0.05352264                0.17331098               -0.03581549                0.08923673                0.00123905
               9.99670953                9.99666808                6.00998749                1.00000000               -0.05050446               -0.05055095                0.16442095                0.00301837                0.00111396               -0.00110511
               0.00115993                0.00158209                7.00582629                1.00000000               -0.02431498               -0.02448916                0.08031808                0.00066842               -0.00365701                0.00340497
               1.00091678                0.00130184                7.00572401                0.99999999               -0.02455021               -0.02499707                0.08196524                0.00026289               -0.00408168               -0.00106766
               2.00066893                0.00103031                7.00561532                0.01000000               -0.01774490               -0.02550252                0.08362574                0.00341463                0.00026439               -0.00170876
               3.00056188                0.00083102                7.00560112                0.01000005               -0.01130487               -0.03327024                0.09310780               -0.00197852                0.01379763               -0.00941585
               4.00044283                0.00068308                7.00581696                0.01000000               -0.01179156               -0.03451049                0.10064799               -0.00560312                0.04024610               -0.01100000
               5.00032605                0.00063007                7.00636032                0.01000005               -0.00695351               -0.03735172                0.10975986               -0.01212231                0.06620546               -0.01435886
               6.00030376                0.00064947                7.00716179                0.46598911               -0.01747211               -0.03118982                0.11515019               -0.02081150                0.05038971               -0.00162904
               6.99997661                0.00110764                7.00757741                0.99999989               -0.03373288               -0.03429966                0.11674670                0.00083403                0.02095994               -0.00203583
               7.99962910                0.00154116                7.00777552                1.00000000               -0.03480600               -0.03440881                0.11659517                0.00030315                0.00986978               -0.00019960
               8.99928049                0.00196306                7.00797252                0.99999999               -0.03494544               -0.03437721                0.11669190                0.00027385                0.00753622                0.00082109
               9.99893019                0.00237106                7.00813078                1.00000000               -0.03502969               -0.03452797                0.11717015                0.00082411                0.00553594                0.00501317
               0.00144686                1.00133719                7.00576185                1.00000000               -0.02515631               -0.02488447                0.08302829                0.00042526                0.00102293                0.00366379
               1.00119530                1.00105187                7.00566097                0.01000001               -0.02541891               -0.02540951                0.08465801                0.00002151                0.00268303               -0.00279242
               2.00093848                1.00077528                7.00559326                0.01000000               -0.02397913               -0.02703616                0.08629684               -0.00476720                0.00728924               -0.00682157
               3.00071571                1.00049832                7.00558330                0.01000000               -0.02256038               -0.03070906                0.09447932               -0.00953238                0.01562363               -0.01195249
               4.00048727                1.00033797                7.00578316                0.01000000               -0.02470407               -0.03200966                0.10005648               -0.00998498                0.03207854               -0.01515645
               5.00022163                1.00025655                7.00622062                0.01000000               -0.03152084               -0.03173474                0.10691440               -0.01049052                0.05189777               -0.01908268
               5.99985686                1.00033757                7.00697093                0.01000000               -0.03412646               -0.02671490                0.11072163               -0.00655974                0.04062962               -0.02044167
               6.99953910                1.00076464                7.00733045                1.00000000               -0.03262173               -0.03362182                0.11189388               -0.00078775                0.01166805               -0.00216989
               7.99920442                1.00119707                7.00749749                0.99999995               -0.03354136               -0.03371210                0.11208233                0.00030517                0.00146425               -0.00014106
               8.99886828                1.00161929                7.00765775                1.00000000               -0.03369956               -0.03373847                0.11251293                0.00033369                0.00047761                0.00011323
               9.99853043                1.00202578                7.00781006                0.99999999               -0.03378449               -0.03392220                0.11304750                0.00074920                0.00003139                0.00616631
               0.00173909                2.00108440                7.00570417                0.01000001               -0.02599655               -0.03374713                0.08575059               -0.01469760                0.00154115                0.00540844
               1.00147912                2.00079365                7.00556385                0.01000000               -0.03059762               -0.02757064                0.08736245               -0.01621860                0.00388035               -0.00084955
               2.00112713                2.00048959                7.00546836                0.01000001               -0.03352855               -0.02844362                0.09255756               -0.01733508                0.00712931               -0.01074627
               3.00080855                2.00021684                7.00548665                0.01000001               -0.03211176               -0.02825851                0.09566790               -0.01542584                0.01551935               -0.01516870
               4.00048490                2.00004288                7.00563598                0.01000001               -0.03459525               -0.02857553                0.09941563               -0.00979487                0.02432039               -0.02033315
               5.00011664                1.99999537                7.00595142                0.01000000               -0.04102132               -0.02574209                0.10298561               -0.00126487                0.03128543               -0.02537536
               5.99966447                2.00011517                7.00637860                0.01000000               -0.05076456               -0.02297846                0.10685894                0.01338999                0.04495358               -0.03672260
               6.99910135                2.00043520                7.00707869                0.01000002               -0.04419552               -0.03147113                0.10697059                0.02141995                0.02261376               -0.02483493
               7.99878056                2.00086692                7.00722267                0.01291707               -0.03214501               -0.03446508                0.10744357                0.01365917               -0.00737558               -0.00538638
               8.99845845                2.00128829                7.00733014                1.00000000               -0.03241863               -0.03249032                0.10861044                0.00042727               -0.00567857               -0.00292976
               9.99813219                2.00169262                7.00751274                0.99999997               -0.03262643               -0.03274511                0.10915033                0.00070952               -0.00193278                0.00617530
               0.00173440                3.00066225                7.00567437                0.01000001               -0.02686671               -0.03540650                0.09634920               -0.01435188               -0.00371549                0.00958673
               1.00146573                3.00050046                7.00553806                0.01000000               -0.02829056               -0.03002287                0.09536417               -0.02307835                0.00073284                0.00441873
               2.00116859                3.00020641                7.00542130                0.01000001               -0.03059161               -0.03027032                0.09467135               -0.02455092                0.00557763               -0.00530993
               3.00085390                2.99993315                7.00538964                0.01000001               -0.03278728               -0.03025586                0.09630006               -0.01612230                0.01226529               -0.01461354
               4.00051284                2.99976646                7.00547471                0.01000000               -0.03649259               -0.02935213                0.09848429               -0.00344902                0.01942315               -0.01995196
               5.00012405                2.99974171                7.00568120                0.01000003               -0.04140087               -0.02765000                0.10114345                0.01170120                0.02579335               -0.02325941
               5.99968483                2.99987800                7.00601261                0.01000001               -0.04541474               -0.02752762                0.10326461                0.02794060                0.02765688               -0.02373547
               6.99921576                3.00013522                7.00638380                0.01000003               -0.05301534               -0.03175711                0.10789619                0.04557808                0.03040724               -0.03389243
               7.99862452                3.00050777                7.00684343                0.01000000               -0.05823168               -0.03740977                0.11804595                0.04928612                0.00903939               -0.01855893
               8.99805112                3.00096948                7.00695706                0.01000000               -0.04442762               -0.04248863                0.10502825                0.04730419               -0.00780574               -0.00372709
               9.99773597                3.00137088                7.00719284                0.01001901               -0.03151539               -0.06508198                0.10515253                0.04987233               -0.00161340               -0.00359277
               0.00177564                4.00037627                7.00581522                0.01000001               -0.03022461               -0.02110277                0.09672613               -0.01325909               -0.00326274                0.03493596
               1.00147339                4.00019319                7.00563595                0.01000000               -0.02861078               -0.02949217                0.09549952               -0.02141465               -0.00198716                0.01437951
               2.00120342                3.99988418                7.00545301                0.01000001               -0.02736685               -0.03441522                0.09528872               -0.02168212                0.00235799               -0.00365288
               3.00092605                3.99961172                7.00534047                0.01000000               -0.02980325               -0.03474044                0.09600745               -0.01004858                0.01049054               -0.01368964
               4.00060736                3.99945584                7.00535652                0.01000004               -0.03434629               -0.03361020                0.09790345                0.00516791                0.01935770               -0.01812015
               5.00023913                3.99944237                7.00550443                0.01000006               -0.03887929               -0.03287934                0.10061207                0.02064370                0.02607997               -0.01741688
               5.99982977                3.99956462                7.00575874                0.01000003               -0.04279920               -0.03451266                0.10404573                0.03504808                0.02995748               -0.01457770
               6.99938315                3.99980006                7.00608643                0.01000000               -0.04488741               -0.03782665                0.10857038                0.04784540                0.02786800               -0.00910709
               7.99893202                4.00011872                7.00639478                0.01000000               -0.04208595               -0.04433281                0.11178245                0.06270393                0.01942908               -0.01060407
               8.99854143                4.00043852                7.00661578                0.01000000               -0.03025925               -0.05707823                0.11148480                0.05781752                0.00752856                0.00147253
               9.99832684                4.00039098                7.00669910                0.01000000               -0.02145880               -0.07888605                0.10824936                0.04176431                0.00539467               -0.01321390
               0.00183537                5.00024020                7.00634750                0.01189067               -0.03058404               -0.00823566                0.09856183               -0.02070675               -0.01525385                0.04857794
               1.00152953                4.99991061                7.00593651                0.01000000               -0.02594750               -0.03176272                0.09496013               -0.02347351               -0.01205908                0.02084044
               2.00131642                4.99951811                7.00554673                0.01000000               -0.02241281               -0.03911498                0.09423698               -0.01483768               -0.00259688               -0.00547863
               3.00108127                4.99923834                7.00534033                0.01000003               -0.02654323               -0.03950718                0.09541800                0.00062879                0.01171888               -0.01524100
               4.00078555                4.99909426                7.00530011                0.01000006               -0.03265614               -0.03789727                0.09760018                0.01439440                0.02399624               -0.01704196
               5.00042815                4.99908412                7.00542167                0.01000000               -0.03787262               -0.03755069                0.10110753                0.02588931                0.03327193               -0.01287801
               6.00002810                4.99918775                7.00567070                0.01000000               -0.04047946               -0.03980016                0.10548549                0.03461336                0.03838183               -0.00449342
               6.99961856                4.99937869                7.00599403                0.01000000               -0.03939788               -0.04528459                0.10982662                0.04193908                0.03886879                0.00545781
               7.99924014                4.99962111                7.00631997                0.01000000               -0.03416715               -0.05320730                0.11286552                0.04603216                0.03322309                0.01624269
               8.99893522                4.99982791                7.00655180                0.01000001               -0.02869045               -0.06020305                0.11396374                0.03602156                0.02076375                0.02281760
               9.99866633                4.99979316                7.00659527                0.01000000               -0.02688822               -0.05177894                0.11193961                0.01931075                0.01400239                0.01644337
               0.00202067                6.00021155                7.00682716                0.97563750               -0.02946595               -0.01704854                0.10259346               -0.02389135               -0.00370196                0.02686299
               1.00172601                5.99955794                7.00632252                0.01000000               -0.02208636               -0.03202371                0.09448117               -0.01381436               -0.01112121                0.00639061
               2.00157894                5.99910188                7.00567202                0.01000000               -0.01817637               -0.04372199                0.09331139                0.00153866               -0.00783568               -0.01084313
               3.00136248                5.99882158                7.00536865                0.01000001               -0.02647393               -0.04127240                0.09428725                0.01416870                0.01729534               -0.01871127
               4.00104946                5.99869789                7.00529672                0.01000003               -0.03495283               -0.04000683                0.09744077                0.02372545                0.03319487               -0.01753270
               5.00066343                5.99869136                7.00542829                0.01000000               -0.04109951               -0.03881181                0.10199396                0.02855798                0.04521835               -0.00979797
               6.00022747                5.99876861                7.00572466                0.01000000               -0.04374326               -0.04098238                0.10772408                0.02778245                0.05272128                0.00285417
               6.99978856                5.99889437                7.00612519                0.01000000               -0.04120177               -0.04852629                0.11371522                0.02378544                0.05451557                0.01934427
               7.99940344                5.99905457                7.00654175                0.01000000               -0.03493741               -0.05871725                0.11861382                0.02012007                0.04867603                0.03726637
               8.99908981                5.99923445                7.00685038                0.01000001               -0.03104342               -0.06180303                0.12047335                0.01405196                0.03146969                0.05277493
               9.99878257                5.99935540                7.00689295                0.01000001               -0.03072427               -0.04247973                0.11791070                0.00767148                0.02002314                0.05659836
               0.00266477                6.99989923                7.00704922                0.99999998               -0.03018585               -0.03159538                0.10472991                0.00021552               -0.00240486                0.01788512
               1.00236291                6.99927014                7.00644788                1.00000000               -0.02906105               -0.02916974                0.09686167               -0.00029818               -0.00617590               -0.00273168
               2.00208355                6.99864367                7.00577209                0.01000001               -0.02971405               -0.03640686                0.08947993                0.01278530                0.00607695               -0.01544988
               3.00176863                6.99841289                7.00541612                0.01000002               -0.03466336               -0.04121141                0.09322027                0.02684795                0.02651321               -0.02255017
               4.00139028                6.99829412                7.00532558                0.01000000               -0.04200208               -0.03927262                0.09705185                0.03327563                0.04494462               -0.02034149
               5.00092859                6.99830788                7.00549986                0.01000000               -0.05047714               -0.03455573                0.10282365                0.03098252                0.06071843               -0.00795801
               6.00038074                6.99836810                7.00589126                0.01000000               -0.05601416               -0.03534376                0.11043559                0.01779639                0.07104222                0.00801716
               6.99980831                6.99840816                7.00644750                0.01000000               -0.05391410               -0.04342156                0.11912395               -0.00124981                0.07495832                0.02886152
               7.99930246                6.99844677                7.00706064                0.01000000               -0.04464371               -0.05922007                0.12695940               -0.01733136                0.06847865                0.06067837
               8.99891543                6.99859185                7.00756166                0.01000000               -0.03622892               -0.07033034                0.13133868               -0.01698255                0.04430271                0.09050286
               9.99857788                6.99894356                7.00768975                0.01000001               -0.03375530               -0.05005155                0.12898147               -0.01101221                0.02706104                0.11517374
               0.00328315                7.99957965                7.00734883                0.99999999               -0.03075493               -0.03223968                0.10693104                0.00006774               -0.00093001                0.02225949
               1.00297560                7.99897454                7.00665108                1.00000000               -0.02956286               -0.02978250                0.09887003               -0.00029228               -0.00044627                0.00242906
               2.00269190                7.99837374                7.00596305                0.01000001               -0.03633066               -0.02724101                0.09086569                0.01065747                0.00848871               -0.01446470
               3.00224899                7.99799735                7.00544625                0.01000000               -0.04359565               -0.04438419                0.09127475                0.03901119                0.02865647               -0.04206553
               4.00181998                7.99791244                7.00534717                0.01000000               -0.05199462               -0.03124318                0.09534336                0.04516140                0.06027901               -0.02183328
               5.00120910                7.99800024                7.00561180                0.01000000               -0.06684286               -0.02399987                0.10296420                0.03293434                0.07842363               -0.00572521
               6.00048313                7.99806174                7.00611983                0.01000000               -0.07621010               -0.02423095                0.11254057                0.00993799                0.08988217                0.01050953
               6.99968490                7.99802594                7.00687387                0.01000000               -0.08050040               -0.02921609                0.12430679               -0.02150960                0.10399573                0.03136963
               7.99887312                7.99787017                7.00790078                0.01000000               -0.07157649               -0.04443996                0.13845292               -0.05701471                0.10065946                0.06749845
               8.99825337                7.99782785                7.00877252                0.01000005               -0.05071037               -0.07506215                0.14762455               -0.07894313                0.06785468                0.17087104
               9.99785891                7.99835437                7.00921680                0.01000000               -0.03944558               -0.10022485                0.14848648               -0.06033873                0.04720062                0.18336458
               0.00387633                8.99925443                7.00765494                0.99999999               -0.03133617               -0.03272093                0.10860846                0.00013439                0.00238671                0.01806346
               1.00356297                8.99867449                7.00687762                0.99999996               -0.03012194               -0.03017862                0.10036184               -0.00016637                0.00154211                0.00231525
               2.00327389                8.99809885                7.00608327                0.99999999               -0.02764059               -0.02769095                0.09188238               -0.00030027               -0.00409851               -0.01050471
               3.00301016                8.99752521                7.00519556                0.01000000               -0.04916370               -0.03617379                0.08309366                0.04441548                0.04620135               -0.03470670
               4.00229062                8.99766926                7.00541255                0.01000000               -0.07860879               -0.01312355                0.09313516                0.04494302                0.08972245               -0.01611160
               5.00143798                8.99782789                7.00573675                0.01000003               -0.08684055               -0.01236846                0.10176768                0.02458791                0.08997031               -0.00189927
               6.00055381                8.99788348                7.00633778                0.01000001               -0.09341508               -0.01367340                0.11269407                0.00534838                0.10406585                0.00860592
               6.99956968                8.99782384                7.00727456                0.01000000               -0.10967769               -0.01543292                0.12702852               -0.01902643                0.12745158                0.02218176
               7.99836025                8.99755797                7.00864881                0.01000001               -0.13586516               -0.01735714                0.14591914               -0.05682023                0.19419450                0.04984407
               8.99685238                8.99709061                7.01124286                1.00000000               -0.10210919               -0.06355925                0.18171903               -0.09479429                0.11808848                0.11549611
               9.99631807                8.99693906                7.01145271                1.00000000               -0.05343074               -0.09610351                0.17356094               -0.08460152               -0.00098606                0.10166870
               0.00444573                9.99892523                7.00786708                1.00000000               -0.03178667               -0.03292051                0.11015521                0.00151403                0.01251277                0.01342191
               1.00412786                9.99837097                7.00707788                0.99999999               -0.03052775               -0.03035182                0.10189062                0.00122404                0.01570389                0.00090667
               2.00383517                9.99781992                7.00635425                0.99999998               -0.02804840               -0.02789234                0.09357549                0.00127324                0.01558737               -0.00320482
               3.00356689                9.99727388                7.00556849                0.01000000               -0.07095042               -0.02513327                0.08535817                0.04717583                0.04931362               -0.00402809
               4.00241616                9.99764997                7.00552817                0.01000000               -0.10401293               -0.00192851                0.09116071                0.03650457                0.07400378               -0.00594925
               5.00148663                9.99775287                7.00585014                0.01000000               -0.09110107               -0.00750129                0.09953431                0.01178016                0.08680560                0.00350161
               6.00059414                9.99778827                7.00645427                0.01000002               -0.09283772               -0.00952094                0.11002467                0.00225374                0.10511469                0.00897701
               6.99962988                9.99771728                7.00745091                0.01000000               -0.10621004               -0.01065605                0.12450997               -0.00724204                0.14312377                0.01633274
               7.99846994                9.99752303                7.00909803                0.01000000               -0.13267481               -0.00349377                0.14640545               -0.04706191                0.19508614                0.04196290
               8.99697638                9.99655666                7.01142566                1.00000000               -0.09999845               -0.05339479                0.17334615               -0.04213603                0.10713328                0.00124439
               9.99646997                9.99643230                7.01163551                0.99999999               -0.05064107               -0.05067692                0.16518745                0.00275359                0.00110898               -0.00111071
               0.00121744                0.00166705                8.00663150                1.00000000               -0.02441580               -0.02456496                0.08071612                0.00059831               -0.00366297                0.00340703
               1.00097328                0.00134070                8.00654481                0.99980546               -0.02462914               -0.02502287                0.08220560                0.00024131               -0.00407892               -0.00107263
               2.00072485                0.00102204                8.00645178                0.01000000               -0.01888257               -0.02548529                0.08369552                0.00214002                0.00408415               -0.00170160
               3.00059563                0.00074953                8.00652942                0.01000000               -0.01315258               -0.03201855                0.09286172               -0.00314966                0.02197710               -0.00905770
               4.00046180                0.00061101                8.00682936                0.01000000               -0.01319602               -0.03339046                0.10089631               -0.00395857                0.04737083               -0.01116621
               5.00033171                0.00063429                8.00743706                0.01000000               -0.01176676               -0.03480229                0.10844899               -0.00395904                0.07920671               -0.01499410
               6.00022647                0.00088409                8.00841971                0.45828009               -0.02289496               -0.03809815                0.12136037               -0.01380046                0.05649315               -0.00046943
               6.99987381                0.00135899                8.00875440                1.00000000               -0.03505346               -0.03466532                0.11733953               -0.00075624                0.01579058               -0.00278739
               7.99952540                0.00183812                8.00894082                1.00000000               -0.03484764               -0.03443149                0.11667532                0.00017502                0.00896478               -0.00027232
               8.99917685                0.00230739                8.00914141                0.99999999               -0.03499295               -0.03446359                0.11692032                0.00014087                0.00758541                0.00082865
               9.99882554                0.00276286                8.00930191                1.00000000               -0.03513165               -0.03452226                0.11714734                0.00072213                0.00552295                0.00509637
               0.00154976                1.00142140                8.00659256                1.00000000               -0.02515682               -0.02491405                0.08311141                0.00037695                0.00101219                0.00367321
               1.00129820                1.00109047                8.00650720                0.01000000               -0.02539633               -0.02538798                0.08459338                0.00001602                0.00267008               -0.00279739
               2.00104184                1.00076718                8.00645502                0.01000000               -0.02642756               -0.02823321                0.08608072               -0.00776013                0.01044502               -0.00509900
               3.00076964                1.00042935                8.00652419                0.01000000               -0.02810000               -0.02972526                0.09403962               -0.01065059                0.02142977               -0.01182990
               4.00047984                1.00027710                8.00678891                0.01000000               -0.03070350               -0.03084238                0.10023888               -0.00576025                0.03614838               -0.01577745
               5.00015557                1.00028627                8.00726909                0.01000000               -0.03768631               -0.03066516                0.10574990               -0.00262390                0.06185490               -0.01874599
               5.99972611                1.00050311                8.00818547                0.01000000               -0.03831722               -0.03275799                0.11714211                0.00216980                0.04509896               -0.02801750
               6.99938923                1.00101234                8.00845586                1.00000000               -0.03365807               -0.03386529                0.11257486                0.00105999                0.00670185               -0.00309340
               7.99905295                1.00149381                8.00862033                0.99999998               -0.03366682               -0.03380380                0.11247954                0.00028752                0.00125310               -0.00018676
               8.99871589                1.00196275                8.00878477                1.00000000               -0.03378308               -0.03383367                0.11280455                0.00017022                0.00069247                0.00023634
               9.99837729                1.00241764                8.00894024                0.99999999               -0.03386057               -0.03393177                0.11307794                0.00069608                0.00017930                0.00632306
               0.00188682                2.00116877                8.00656043                0.01000001               -0.02590118               -0.03625152                0.08551056               -0.01880830                0.00155025                0.00805078
               1.00162781                2.00083294                8.00643558                0.01000000               -0.03280238               -0.02964012                0.08698061               -0.02087011                0.00560116                0.00110187
               2.00123077                2.00045737                8.00638984                0.01000001               -0.03775576               -0.03088535                0.09190499               -0.02119098                0.01007336               -0.00852566
               3.00087270                2.00015503                8.00644139                0.01000001               -0.03705492               -0.02880584                0.09533050               -0.01417580                0.01787766               -0.01530624
               4.00048968                1.99999416                8.00662934                0.01000001               -0.04097365               -0.02848338                0.09937849               -0.00272245                0.02737786               -0.02103381
               5.00005322                2.00002099                8.00698932                0.01000000               -0.04729426               -0.02721657                0.10368251                0.00960983                0.03311567               -0.02507523
               5.99954379                2.00022893                8.00742832                0.01000000               -0.05744557               -0.02663622                0.10597400                0.02693479                0.04567726               -0.04288446
               6.99890431                2.00068169                8.00815281                0.01000002               -0.04815282               -0.03455962                0.10779684                0.03286967                0.02388510               -0.02290803
               7.99858073                2.00116204                8.00830218                0.01402963               -0.03239417               -0.03743760                0.10821470                0.01727079               -0.00678483                0.00414007
               8.99825643                2.00163071                8.00841747                0.99999999               -0.03255222               -0.03260255                0.10885870                0.00023976               -0.00513915               -0.00253417
               9.99792969                2.00208422                8.00860344                0.99999997               -0.03267371               -0.03275199                0.10912204                0.00066076               -0.00167014                0.00634577
               0.00184524                3.00069637                8.00660870                0.01000001               -0.02530587               -0.04006004                0.09332409               -0.01773847               -0.00208975                0.01615193
               1.00159219                3.00049767                8.00647456                0.01000000               -0.02746567               -0.03565667                0.09335519               -0.02629331                0.00052762                0.00729689
               2.00129593                3.00014948                8.00636795                0.01000001               -0.03214224               -0.03408419                0.09433359               -0.02455288                0.00643413               -0.00592313
               3.00094934                2.99985323                8.00635240                0.01000001               -0.03682510               -0.03307265                0.09625908               -0.01143435                0.01419914               -0.01537191
               4.00055943                2.99970744                8.00646195                0.01000000               -0.04181701               -0.03152231                0.09884364                0.00624352                0.02185325               -0.02025906
               5.00011300                2.99974194                8.00669589                0.01000001               -0.04776601               -0.03063033                0.10160099                0.02572151                0.02818153               -0.02277035
               5.99960411                2.99997039                8.00705028                0.01000002               -0.04997452               -0.03104961                0.10459890                0.04394352                0.02990217               -0.02055682
               6.99911351                3.00032115                8.00746051                0.01000002               -0.05773853               -0.03747567                0.10434026                0.06081161                0.03433429               -0.02892920
               7.99844934                3.00074505                8.00807056                0.01000000               -0.06575006               -0.04390958                0.14243897                0.06339276               -0.00999669               -0.00273204
               8.99779851                3.00131070                8.00800739                0.01000000               -0.04829266               -0.04775234                0.10511397                0.06139321               -0.01657191                0.00213085
               9.99748348                3.00176260                8.00824289                0.01001930               -0.03150246               -0.07551116                0.10507815                0.06390501               -0.00166150                0.00008347
               0.00192944                4.00036756                8.00682748                0.01000000               -0.02806111               -0.02688537                0.09837540               -0.01128001               -0.00560534                0.02626067
               1.00164883                4.00011981                8.00660650                0.01000000               -0.02726442               -0.03715163                0.09598693               -0.01711855               -0.00301936                0.00945824
               2.00138416                3.99977569                8.00640207                0.01000001               -0.02813919               -0.04008205                0.09516719               -0.01546787                0.00360623               -0.00456018
               3.00108605                3.99949358                8.00630386                0.01000000               -0.03291574               -0.03926182                0.09637518               -0.00114072                0.01361177               -0.01518625
               4.00072584                3.99936371                8.00633915                0.01000001               -0.03906730               -0.03754579                0.09847505                0.01781436                0.02314653               -0.01809934
               5.00030470                3.99940838                8.00651466                0.01000000               -0.04411950               -0.03688608                0.10133359                0.03612458                0.03028619               -0.01540586
               5.99984345                3.99960794                8.00680019                0.01000001               -0.04794143               -0.03953792                0.10436543                0.05304917                0.03449238               -0.00984711
               6.99934587                3.99993217                8.00717514                0.01000000               -0.04922076               -0.04407238                0.10984493                0.06312825                0.03107449               -0.00118169
               7.99885904                4.00028385                8.00751322                0.01000000               -0.04395633               -0.05018734                0.10782607                0.08035413                0.02344967               -0.00722626
               8.99846675                4.00067567                8.00773575                0.01000000               -0.02775186               -0.06742545                0.11172106                0.07572296                0.00686192                0.00996570
               9.99830400                4.00057400                8.00778128                0.01000003               -0.01627492               -0.09425706                0.10809047                0.05465057                0.00332622               -0.00619920
               0.00211516                5.00015866                8.00710725                0.01000001               -0.02734659               -0.01226583                0.09128800               -0.01041912                0.00154478                0.04799310
               1.00184169                4.99975464                8.00680445                0.01000000               -0.02511748               -0.03803209                0.09277795               -0.01134769                0.00176196                0.01850463
               2.00161281                4.99934784                8.00650968                0.01000000               -0.02515943               -0.04506386                0.09538552               -0.00307714                0.00528266               -0.00782652
               3.00133850                4.99906800                8.00629423                0.01000000               -0.03059480               -0.04498234                0.09580277                0.01365276                0.01613450               -0.01694907
               4.00100091                4.99895652                8.00628097                0.01000000               -0.03736167               -0.04249366                0.09829352                0.02933834                0.03031009               -0.01678385
               5.00059127                4.99900422                8.00643692                0.01000002               -0.04298050               -0.04212303                0.10182721                0.04222969                0.04027417               -0.01009910
               6.00014130                4.99917963                8.00672966                0.01000000               -0.04455531               -0.04508268                0.10615942                0.05118264                0.04554673                0.00133368
               6.99970016                4.99943970                8.00709346                0.01000000               -0.04141870               -0.05226767                0.10995275                0.05836322                0.04550261                0.01328594
               7.99931293                4.99974131                8.00744506                0.01000000               -0.03386705               -0.05995885                0.11334756                0.06089727                0.03858372                0.02546266
               8.99902282                4.99996219                8.00769151                0.01000001               -0.02665477               -0.06955586                0.11394395                0.04626399                0.02441926                0.03221987
               9.99877983                4.99987746                8.00771805                0.01000001               -0.02429900               -0.05888444                0.11237458                0.02461496                0.01570778                0.02489560
               0.00252910                6.00012225                8.00785447                0.96425074               -0.02964018               -0.01744222                0.10276017               -0.01792978               -0.00370799                0.03976434
               1.00223270                5.99935917                8.00727077                0.01000000               -0.02599239               -0.03419076                0.09507914               -0.00547580               -0.00787684                0.00998897
               2.00200926                5.99887441                8.00660629                0.01000000               -0.02411406               -0.05063130                0.09372143                0.01608581               -0.00176611               -0.01569162
               3.00175042                5.99859393                8.00631387                0.01000001               -0.03164341               -0.04608543                0.09471481                0.02961066                0.02492124               -0.02044588
               4.00137639                5.99851384                8.00627490                0.01000006               -0.04121150               -0.04433912                0.09808249                0.04002297                0.04213855               -0.01727202
               5.00092619                5.99856592                8.00645290                0.01000000               -0.04723840               -0.04277289                0.10274618                0.04426260                0.05519596               -0.00679774
               6.00043162                5.99870629                8.00680558                0.01000000               -0.04873656               -0.04545326                0.10833874                0.04145097                0.06337859                0.00898005
               6.99995146                5.99888682                8.00726453                0.01000000               -0.04385653               -0.05455372                0.11412825                0.03422736                0.06490423                0.02891504
               7.99955449                5.99908468                8.00772978                0.01000000               -0.03477904               -0.06685051                0.11874015                0.02741672                0.05722106                0.04995161
               8.99925588                5.99928455                8.00805693                0.01000001               -0.02943593               -0.06977151                0.12078171                0.01825046                0.03632200                0.06676600
               9.99896577                5.99939631                8.00807633                0.01000001               -0.02901080               -0.04578895                0.11858600                0.00973584                0.02265284                0.06953919
               0.00328272                6.99980981                8.00809700                0.99999998               -0.03027123               -0.03153056                0.10478879                0.00026064               -0.00231536                0.01837879
               1.00298001                6.99907082                8.00741749                1.00000000               -0.02914810               -0.02917805                0.09712448               -0.00014283               -0.00593381               -0.00228286
               2.00269976                6.99833521                8.00666718                0.01000001               -0.03443623               -0.04050723                0.08975917                0.02427567                0.01202425               -0.01835654
               3.00229129                6.99814629                8.00634927                0.01000002               -0.04351913               -0.04564086                0.09357314                0.04325735                0.03719619               -0.02469209
               4.00182938                6.99806974                8.00629872                0.01000000               -0.05036048               -0.04303947                0.09757730                0.05009177                0.05619166               -0.02080348
               5.00128408                6.99814876                8.00653223                0.01000000               -0.05899784               -0.03646546                0.10353257                0.04584530                0.07361077               -0.00533224
               6.00064942                6.99827056                8.00699936                0.01000000               -0.06388786               -0.03712298                0.11105334                0.02772783                0.08530252                0.01409235
               7.00000632                6.99834863                8.00764077                0.01000000               -0.05929454               -0.04669103                0.11945854                0.00267273                0.08941131                0.03904590
               7.99946353                6.99840430                8.00833087                0.01000000               -0.04650625               -0.06506693                0.12711386               -0.01842231                0.08091055                0.07620074
               8.99907619                6.99856676                8.00887635                0.01000001               -0.03562525               -0.07762950                0.13155655               -0.01939003                0.05165695                0.10988071
               9.99875102                6.99896168                8.00898340                0.01000000               -0.03251685               -0.05276328                0.12964327               -0.01276020                0.03079944                0.13573088
               0.00401230                7.99949164                8.00841639                0.99999999               -0.03078501               -0.03209275                0.10667237                0.00017872               -0.00087602                0.02253101
               1.00370445                7.99877561                8.00763990                1.00000000               -0.02964971               -0.02976378                0.09899851               -0.00012604               -0.00041200                0.00250325
               2.00341931                7.99806427                8.00687349                0.01000002               -0.04117047               -0.02734671                0.09134449                0.01600629                0.01262001               -0.01489854
               3.00288104                7.99768111                8.00636073                0.01000000               -0.05217766               -0.05207253                0.09186124                0.05726234                0.03835331               -0.04798022
               4.00237575                7.99765305                8.00630371                0.01000000               -0.06193839               -0.03256394                0.09606351                0.06407132                0.07331861               -0.02327303
               5.00164227                7.99783661                8.00664559                0.01000000               -0.07947219               -0.02235090                0.10374140                0.04686659                0.09397921               -0.00402262
               6.00078631                7.99796383                8.00724902                0.01000000               -0.08855466               -0.02238926                0.11322263                0.01639618                0.10733299                0.01542300
               6.99987118                7.99795300                8.00811894                0.01000000               -0.09092010               -0.02823276                0.12467260               -0.02306888                0.12381582                0.04037303
               7.99896791                7.99778334                8.00928522                0.01000000               -0.07802408               -0.04566973                0.13844509               -0.06638165                0.11941051                0.08305894
               8.99831070                7.99773196                8.01024867                0.01000000               -0.05235848               -0.08029398                0.14760100               -0.09231856                0.08001603                0.20264907
               9.99792074                7.99834105                8.01070351                0.01000001               -0.03899608               -0.10867149                0.14881591               -0.06968618                0.05479279                0.21202020
               0.00471836                8.99916796                8.00873984                0.99999998               -0.03134996               -0.03261487                0.10841204                0.00020918                0.00233824                0.01811237
               1.00440486                8.99847555                8.00788252                0.99999996               -0.03019892               -0.03022298                0.10064019               -0.00006944                0.00137887                0.00218766
               2.00411438                8.99778828                8.00700643                0.99999999               -0.02785555               -0.02786167                0.09273711               -0.00012016               -0.00449251               -0.01092805
               3.00384775                8.99710484                8.00603463                0.01000000               -0.05795379               -0.04161393                0.08465044                0.06323237                0.05480162               -0.03968415
               4.00295530                8.99741846                8.00635035                0.01000000               -0.09685570               -0.00878871                0.09440062                0.06344690                0.10641935               -0.01776520
               5.00191063                8.99770174                8.00676103                0.01000001               -0.10471735               -0.00745304                0.10299924                0.03418930                0.10665421               -0.00116899
               6.00086096                8.99782278                8.00747038                0.01000001               -0.10926020               -0.00908053                0.11373000                0.00858854                0.12338506                0.01135096
               6.99972543                8.99778397                8.00854817                0.01000001               -0.12520107               -0.01111564                0.12765753               -0.02155095                0.15087177                0.02750849
               7.99835694                8.99749090                8.01010862                0.01000001               -0.15266584               -0.01287309                0.14605167               -0.06612082                0.22863630                0.06023324
               8.99667211                8.99696088                8.01305620                1.00000000               -0.11089029               -0.06519050                0.18095127               -0.10967989                0.13966133                0.13634448
               9.99613913                8.99678825                8.01318815                1.00000000               -0.05329830               -0.10303948                0.17352856               -0.09769963               -0.00098777                0.11809015
               0.00540131                9.99883934                8.00896849                1.00000000               -0.03185636               -0.03286202                0.11009487                0.00147572                0.01252630                0.01342714
               1.00508274                9.99817115                8.00809923                0.99999999               -0.03068470               -0.03044008                0.10231863                0.00117334                0.01572904                0.00080314
               2.00478761                9.99750703                8.00729513                1.00000000               -0.02836195               -0.02812422                0.09451338                0.00120778                0.01568844               -0.00337143
               3.00451551                9.99684883                8.00642940                0.01000000               -0.08699135               -0.02560026                0.08673838                0.06528797                0.05656753               -0.00408346
               4.00304779                9.99747728                8.00644997                0.01000000               -0.12968820                0.00588187                0.09298735                0.05118422                0.08762822               -0.00716858
               5.00192174                9.99768755                8.00685614                0.01000000               -0.10859691               -0.00141883                0.10140574                0.01635768                0.10210015                0.00399376
               6.00087585                9.99778222                8.00756411                0.01000001               -0.10748531               -0.00405612                0.11172184                0.00364597                0.12339047                0.01046983
               6.99977204                9.99773069                8.00870297                0.01000000               -0.12036352               -0.00532836                0.12577278               -0.00815642                0.16727323                0.01909336
               7.99846858                9.99752588                8.01056545                0.01000004               -0.14761402                0.00349735                0.14703589               -0.05396249                0.22586767                0.04885543
               8.99681975                9.99642815                8.01315928                0.99999947               -0.10782818               -0.05327314                0.17337872               -0.04751670                0.12433748                0.00124351
               9.99631201                9.99628026                8.01329123                0.99999999               -0.05077399               -0.05079901                0.16595558                0.00249914                0.00111056               -0.00110983
               0.00126005                0.00172811                9.00744062                1.00000000               -0.02451277               -0.02463845                0.08111312                0.00052662               -0.00364931                0.00341202
               1.00101492                0.00135561                9.00736812                1.00000000               -0.02470204               -0.02504567                0.08243392                0.00021556               -0.00406518               -0.00108147
               2.00076601                0.00098980                9.00728923                0.01000001               -0.01955369               -0.02545507                0.08375283                0.00167460                0.00797027               -0.00170539
               3.00062385                0.00066032                9.00745835                0.01000001               -0.01417039               -0.03105782                0.09282169               -0.00379922                0.02996958               -0.00870764
               4.00048260                0.00054066                9.00783489                0.01000000               -0.01520010               -0.03182092                0.10057824               -0.00143548                0.05563773               -0.01136285
               5.00031984                0.00066613                9.00852930                0.01000000               -0.01831556               -0.03367567                0.10877510                0.00262663                0.08706307               -0.01532311
               6.00011629                0.00110854                9.00958900                0.43964526               -0.02742695               -0.03399407                0.11709099               -0.00527902                0.05897569               -0.00182504
               6.99977130                0.00164898                9.00992420                1.00000000               -0.03474485               -0.03446118                0.11692583                0.00010493                0.01552955               -0.00315424
               7.99942139                0.00217669                9.01010903                1.00000000               -0.03500956               -0.03447073                0.11682714                0.00011451                0.00879450               -0.00034397
               8.99907111                0.00269290                9.01031093                0.99999999               -0.03508708               -0.03449609                0.11699527                0.00009264                0.00759351                0.00085746
               9.99871965                0.00319632                9.01047373                1.00000000               -0.03514646               -0.03456144                0.11721669                0.00068463                0.00561141                0.00514567
               0.00163782                1.00148173                9.00742408                1.00000000               -0.02515838               -0.02494217                0.08319827                0.00032965                0.00102152                0.00368066
               1.00138623                1.00110515                9.00735284                0.01000001               -0.02537101               -0.02536425                0.08451697                0.00001659                0.00268404               -0.00280611
               2.00113040                1.00073525                9.00731488                0.01000000               -0.02879043               -0.02918242                0.08583815               -0.00993130                0.01376191               -0.00337266
               3.00081042                1.00034974                9.00746409                0.01000000               -0.03325280               -0.02889072                0.09386115               -0.01050192                0.02726300               -0.01163300
               4.00046534                1.00022245                9.00778793                0.01000003               -0.03741280               -0.02957446                0.09991376               -0.00092211                0.04169928               -0.01584907
               5.00006217                1.00032937                9.00833562                0.01000000               -0.04466333               -0.02995333                0.10627938                0.01031402                0.06707091               -0.01964049
               5.99957207                1.00076860                9.00931377                0.01000000               -0.04119436               -0.03579356                0.11308305                0.01366179                0.04700218               -0.02728114
               6.99923828                1.00130437                9.00958195                1.00000000               -0.03357507               -0.03382963                0.11265644               -0.00013616                0.00642007               -0.00330460
               7.99890057                1.00183198                9.00974708                0.99999998               -0.03380295               -0.03385991                0.11276370                0.00011924                0.00125928               -0.00026970
               8.99856222                1.00234794                9.00991384                0.99999996               -0.03387475               -0.03389617                0.11300238                0.00010113                0.00079787                0.00035182
               9.99822308                1.00285071                9.01007161                1.00000000               -0.03391448               -0.03397223                0.11322990                0.00063677                0.00028831                0.00638842
               0.00201979                2.00122927                9.00741438                0.01000000               -0.02580578               -0.03817460                0.08528435               -0.02194129                0.00154609                0.01084820
               1.00176173                2.00084833                9.00730346                0.01000000               -0.03485005               -0.03148394                0.08659696               -0.02461570                0.00733673                0.00311434
               2.00132279                2.00040615                9.00730646                0.01000001               -0.04175628               -0.03297640                0.09147155               -0.02383856                0.01326373               -0.00632049
               3.00092661                2.00008251                9.00739326                0.01000000               -0.04191309               -0.02932510                0.09506098               -0.01117607                0.02089314               -0.01515957
               4.00048453                1.99994917                9.00762355                0.01000001               -0.04733175               -0.02854923                0.09936738                0.00628127                0.03081904               -0.02112637
               4.99997997                2.00006706                9.00802507                0.01000000               -0.05349984               -0.02842085                0.10360997                0.02403404                0.03620910               -0.02555515
               5.99941453                2.00039267                9.00849808                0.01000001               -0.06373849               -0.03368047                0.10700825                0.04257513                0.04756340               -0.04274010
               6.99870520                2.00097239                9.00923463                0.01000000               -0.05171666               -0.03850333                0.10837453                0.03753506                0.02445749               -0.02446953
               7.99838020                2.00149949                9.00938696                0.02522498               -0.03253973               -0.02949481                0.10866079                0.00098652               -0.00647443                0.03302675
               8.99805441                2.00201498                9.00950732                0.99999999               -0.03266710               -0.03270641                0.10910858                0.00012610               -0.00482650               -0.00227616
               9.99772685                2.00251688                9.00969518                0.99999999               -0.03275521               -0.03280032                0.10930510                0.00062278               -0.00153770                0.00639761
               0.00196088                3.00071824                9.00754086                0.01000000               -0.02438410               -0.04131707                0.09252481               -0.01999074               -0.00184944                0.02028928
               1.00171704                3.00047548                9.00740516                0.01000000               -0.02707190               -0.03979258                0.09261403               -0.02829162                0.00097345                0.00952292
               2.00141944                3.00007572                9.00730797                0.01000000               -0.03365771               -0.03774518                0.09381274               -0.02284163                0.00793995               -0.00574126
               3.00104388                2.99976324                9.00731482                0.01000003               -0.04065158               -0.03581743                0.09615776               -0.00448265                0.01677459               -0.01570787
               4.00060641                2.99965146                9.00745158                0.01000001               -0.04722687               -0.03371677                0.09895989                0.01863349                0.02479902               -0.02031889
               5.00009935                2.99976096                9.00771322                0.01000002               -0.05440778               -0.03369157                0.10206225                0.04236838                0.03155032               -0.02191998
               5.99951825                3.00009499                9.00810459                0.01000000               -0.06085920               -0.03521844                0.10481154                0.06089769                0.02945632               -0.01872139
               6.99888216                3.00053430                9.00847060                0.01000002               -0.08202740               -0.04144538                0.10881347                0.08667505                0.05879896               -0.02305139
               7.99787771                3.00124208                9.00969221                0.01000001               -0.06674041               -0.04498983                0.11545587                0.08098621               -0.00777014               -0.00176506
               8.99754735                3.00169382                9.00905934                0.01000000               -0.03229836               -0.05306373                0.10532250                0.06544060               -0.04498056                0.00748284
               9.99723174                3.00219470                9.00929440                0.07900473               -0.03156155               -0.08625201                0.10533256                0.07886103               -0.00166431                0.00346631
               0.00210550                4.00040293                9.00778273                0.01000003               -0.02670819               -0.02725830                0.09618575               -0.00949586               -0.00395699                0.03345180
               1.00183842                4.00005247                9.00755569                0.01000001               -0.02636553               -0.04295193                0.09513117               -0.01531910               -0.00144458                0.01124264
               2.00157819                3.99965125                9.00735635                0.01000001               -0.02886037               -0.04591778                0.09530849               -0.00867351                0.00598247               -0.00596664
               3.00126121                3.99936616                9.00726797                0.01000001               -0.03593526               -0.04369486                0.09643779                0.01061862                0.01694467               -0.01614388
               4.00085948                3.99927483                9.00732602                0.01000001               -0.04386991               -0.04143145                0.09880119                0.03348665                0.02741137               -0.01802381
               5.00038381                3.99939323                9.00753111                0.01000001               -0.05001709               -0.04085272                0.10178774                0.05495338                0.03478310               -0.01347188
               5.99985914                3.99968830                9.00784605                0.01000000               -0.05461007               -0.04429798                0.10520102                0.07572424                0.04018838               -0.00595258
               6.99929161                4.00014348                9.00828333                0.01000000               -0.05093681               -0.04896420                0.10872370                0.09212158                0.03199530                0.00770085
               7.99884040                4.00059969                9.00855130                0.01000001               -0.04405047               -0.06641416                0.11096275                0.11731427                0.02494497               -0.02300172
               8.99841060                4.00095371                9.00885020                0.01000000               -0.02690509               -0.07713400                0.11028140                0.08977060                0.01099184                0.01915537
               9.99830230                4.00079184                9.00886091                0.01000001               -0.01082973               -0.10993379                0.10809664                0.06859761                0.00184746                0.00061607
               0.00247187                5.00017307                9.00817326                0.01000002               -0.03095330               -0.01929207                0.10427989               -0.00524275               -0.00260146                0.05469501
               1.00216234                4.99961644                9.00779207                0.01000000               -0.02697932               -0.04539020                0.09841760               -0.00187324               -0.00068670                0.01822618
               2.00193228                4.99915736                9.00745444                0.01000000               -0.02648341               -0.05103499                0.09486993                0.00976197                0.00779117               -0.01028864
               3.00163267                4.99888935                9.00725638                0.01000002               -0.03416074               -0.05042678                0.09623840                0.02982782                0.02176285               -0.01857442
               4.00124907                4.99882283                9.00726598                0.01000001               -0.04238622               -0.04700624                0.09870445                0.04741394                0.03662194               -0.01662827
               5.00078495                4.99894390                9.00745821                0.01000001               -0.04832884               -0.04665700                0.10234324                0.06195229                0.04740536               -0.00762599
               6.00028249                4.99920903                9.00779389                0.01000000               -0.04858714               -0.05048971                0.10649896                0.07176934                0.05259880                0.00649367
               6.99981320                4.99955502                9.00819308                0.01000000               -0.04343654               -0.06090610                0.11050388                0.07878015                0.05238486                0.01961504
               7.99941376                4.99991380                9.00858692                0.01000000               -0.03312911               -0.07159484                0.11320089                0.07555878                0.04388565                0.03777334
               8.99915062                5.00015114                9.00883068                0.01000001               -0.02431669               -0.07843843                0.11408702                0.05706678                0.02702662                0.04161827
               9.99892743                4.99999603                9.00884276                0.01000001               -0.02231920               -0.06555062                0.11243464                0.02921562                0.01764442                0.03382145
               0.00311391                6.00001709                9.00888236                0.95198497               -0.02972540               -0.02340944                0.10282304               -0.01196116               -0.00372746                0.03726733
               1.00281666                5.99914467                9.00822410                0.01000000               -0.03066974               -0.03805428                0.09559401                0.00625902               -0.00478903                0.00764735
               2.00250052                5.99863055                9.00754645                0.01000001               -0.03121818               -0.05740138                0.09432209                0.03364643                0.00413304               -0.01941742
               3.00219230                5.99835762                9.00726295                0.01000000               -0.03736565               -0.05085773                0.09514654                0.04762554                0.03247563               -0.02254139
               4.00175321                5.99833471                9.00725837                0.01000000               -0.04778175               -0.04867960                0.09857317                0.05922775                0.05116839               -0.01726889
               5.00123666                5.99846009                9.00748322                0.01000000               -0.05348952               -0.04676756                0.10324946                0.06295062                0.06506178               -0.00421621
               6.00068341                5.99867851                9.00789143                0.01000000               -0.05371083               -0.05012634                0.10878070                0.05805082                0.07368287                0.01454154
               7.00016244                5.99892536                9.00840775                0.01000000               -0.04639770               -0.06101734                0.11438018                0.04705531                0.07466665                0.03794247
               7.99975546                5.99916780                9.00891655                0.01000000               -0.03463667               -0.07492297                0.11895019                0.03654550                0.06522374                0.06130133
               8.99946971                5.99938494                9.00926602                0.01000000               -0.02793127               -0.07767013                0.12095747                0.02292275                0.04104168                0.08037613
               9.99919684                5.99948083                9.00926467                0.01000003               -0.02728753               -0.04825158                0.11904670                0.01220578                0.02506132                0.08231371
               0.00397748                6.99970488                9.00914499                1.00000000               -0.03034234               -0.03148286                0.10481299                0.00028185               -0.00235566                0.01869076
               1.00367406                6.99885535                9.00839037                0.99999997               -0.02926118               -0.02925419                0.09748658               -0.00009687               -0.00585242               -0.00203458
               2.00339226                6.99800934                9.00756728                0.01000000               -0.03965198               -0.04470092                0.09036438                0.03698941                0.01772731               -0.02127881
               3.00288102                6.99787219                9.00728759                0.01000002               -0.05305510               -0.05026201                0.09397392                0.06167244                0.04782933               -0.02698465
               4.00233116                6.99784924                9.00727713                0.01000000               -0.05904304               -0.04696784                0.09815616                0.06923250                0.06739881               -0.02151824
               5.00170016                6.99800855                9.00757051                0.01000000               -0.06764554               -0.03845506                0.10408856                0.06319830                0.08629247               -0.00311730
               6.00097825                6.99820650                9.00811233                0.01000000               -0.07175693               -0.03896624                0.11149413                0.03995683                0.09902424                0.01963174
               7.00026502                6.99833467                9.00883667                0.01000000               -0.06465781               -0.04996782                0.11970877                0.00857016                0.10319913                0.04852936
               7.99968509                6.99841534                9.00960292                0.01000095               -0.04844872               -0.07070930                0.12719937               -0.01803963                0.09275122                0.09110226
               8.99929605                6.99859773                9.01019279                0.01000001               -0.03526601               -0.08419791                0.13170003               -0.02093286                0.05865404                0.12849697
               9.99897977                6.99903099                9.01028262                0.01000000               -0.03162760               -0.05454040                0.13013794               -0.01426189                0.03441600                0.15563646
               0.00481861                7.99938743                9.00948228                0.99999999               -0.03083451               -0.03201491                0.10654141                0.00022858               -0.00084966                0.02266198
               1.00451027                7.99855959                9.00863105                1.00000000               -0.02975731               -0.02982180                0.09927736               -0.00005004               -0.00039411                0.00254698
               2.00422347                7.99773653                9.00778994                0.01000000               -0.04622147               -0.02753457                0.09201195                0.02162321                0.01667362               -0.01512547
               3.00358584                7.99735238                9.00728348                0.01000000               -0.06109856               -0.06046663                0.09278064                0.07700355                0.04768066               -0.05320572
               4.00300150                7.99739535                9.00726844                0.01000001               -0.07212368               -0.03407752                0.09674574                0.08500292                0.08620915               -0.02475164
               5.00214336                7.99769099                9.00768662                0.01000000               -0.09225306               -0.02072959                0.10447105                0.06273532                0.10914972               -0.00250689
               6.00115643                7.99789918                9.00838428                0.01000000               -0.10091768               -0.02055483                0.11379435                0.02455638                0.12415906                0.01993594
               7.00012501                7.99792600                9.00936732                0.01000004               -0.10124149               -0.02723442                0.12497264               -0.02308585                0.14276715                0.04883634
               7.99913160                7.99775361                9.01066968                0.01000000               -0.08448054               -0.04664687                0.13844118               -0.07425804                0.13737262                0.09787478
               8.99843540                7.99770098                9.01172454                0.01000004               -0.05432644               -0.08454253                0.14755295               -0.10467858                0.09171135                0.23323325
               9.99804507                7.99839002                9.01219311                0.01000001               -0.03903249               -0.11589246                0.14907035               -0.07836435                0.06212988                0.23971261
               0.00563774                8.99906458                9.00982318                0.99999999               -0.03137815               -0.03254766                0.10827555                0.00024090                0.00231772                0.01815600
               1.00532396                8.99825891                9.00889043                0.99999996               -0.03029083               -0.03029880                0.10095596               -0.00002041                0.00130297                0.00212945
               2.00503193                8.99745865                9.00793801                0.99999999               -0.02808461               -0.02807196                0.09356990               -0.00003755               -0.00469162               -0.01114205
               3.00476227                8.99666286                9.00688856                0.01000000               -0.06696586               -0.04748536                0.08608143                0.08333074                0.06322473               -0.04418148
               4.00369261                8.99716769                9.00730057                0.01000000               -0.11556169               -0.00439945                0.09558996                0.08357959                0.12258416               -0.01919085
               5.00245103                8.99759396                9.00779673                0.01000001               -0.12291212               -0.00242305                0.10406826                0.04494198                0.12281513               -0.00042690
               6.00123437                8.99779541                9.00861238                0.01000000               -0.12510792               -0.00444938                0.11459968                0.01273534                0.14196550                0.01390703
               6.99994888                8.99778998                9.00982771                0.01000001               -0.14047085               -0.00682266                0.12820064               -0.02320059                0.17332167                0.03254650
               7.99842495                8.99748240                9.01156984                0.01000001               -0.16914048               -0.00835725                0.14617026               -0.07418606                0.26175435                0.07019222
               8.99656607                8.99690688                9.01486188                1.00000000               -0.11952702               -0.06628071                0.18018628               -0.12336533                0.16041024                0.15642050
               9.99603441                8.99671315                9.01492328                0.99999997               -0.05316580               -0.10930404                0.17349529               -0.11021331               -0.00098774                0.13395267
               0.00643477                9.99873648                9.01006897                1.00000000               -0.03189708               -0.03281071                0.10998519                0.00141604                0.01254965                0.01344915
               1.00611580                9.99795361                9.00912426                1.00000000               -0.03079986               -0.03053046                0.10266300                0.00111439                0.01576349                0.00075871
               2.00581877                9.99717509                9.00824451                1.00000000               -0.02861960               -0.02835561                0.09533064                0.00113797                0.01575774               -0.00345274
               3.00554341                9.99640268                9.00730325                0.01126239               -0.10383929               -0.02601815                0.08800247                0.08472744                0.06366346               -0.00410761
               4.00374199                9.99730736                9.00738792                0.01000000               -0.15644589                0.01396698                0.09446161                0.06693045                0.10113328               -0.00816736
               5.00241449                9.99764253                9.00787825                0.01000001               -0.12634332                0.00485708                0.10285732                0.02148705                0.11703183                0.00450338
               6.00121512                9.99781019                9.00868871                0.01000003               -0.12202424                0.00147868                0.11304769                0.00542618                0.14100488                0.01189241
               6.99997400                9.99778955                9.00996636                0.01000000               -0.13420694               -0.00004342                0.12680046               -0.00867375                0.19042912                0.02173847
               7.99853098                9.99758646                9.01203874                0.01000000               -0.16183260                0.01040610                0.14757057               -0.06010582                0.25546662                0.05551598
               8.99673735                9.99637537                9.01489324                0.99999997               -0.11513488               -0.05315165                0.17341133               -0.05199787                0.14089944                0.00124462
               9.99622828                9.99620394                9.01495462                1.00000000               -0.05090683               -0.05092086                0.16672221                0.00224456                0.00110990               -0.00111132
               0.00128943                0.00176837               10.00825376                1.00000000               -0.02460776               -0.02471230                0.08151159                0.00045216               -0.00365679                0.00341146
               1.00104336                0.00134965               10.00819349                1.00000000               -0.02477003               -0.02506356                0.08265030                0.00018616               -0.00407122               -0.00107883
               2.00079403                0.00093665               10.00812684                0.01000000               -0.01969970               -0.02541379                0.08379064                0.00189059                0.01184730               -0.00170613
               3.00064936                0.00056389               10.00838585                0.01000001               -0.01452144               -0.03021111                0.09268853               -0.00370057                0.03814679               -0.00833334
               4.00050360                0.00047767               10.00884093                0.01000000               -0.01652503               -0.03062029                0.10042483                0.00143535                0.06364312               -0.01139467
               5.00031886                0.00071520               10.00961257                0.01000001               -0.02462629               -0.03175121                0.10800902                0.01124819                0.09607656               -0.01578908
               6.00001108                0.00139804               10.01076153                0.42449984               -0.03272475               -0.03496409                0.11691768                0.00413521                0.06323714               -0.00094888
               6.99966437                0.00198042               10.01109292                1.00000000               -0.03482560               -0.03445927                0.11676714               -0.00014883                0.01497412               -0.00332486
               7.99931457                0.00255515               10.01127737                1.00000000               -0.03501696               -0.03446646                0.11680123                0.00008295                0.00861461               -0.00039000
               8.99896403                0.00311871               10.01148131                1.00000000               -0.03512025               -0.03453191                0.11705508                0.00007135                0.00761993                0.00087515
               9.99861216                0.00367000               10.01164624                1.00000000               -0.03518656               -0.03460423                0.11731083                0.00066204                0.00563786                0.00517693
               0.00171267                1.00152124               10.00825652                1.00000000               -0.02515968               -0.02497082                0.08328888                0.00028439                0.00101759                0.00367967
               1.00146108                1.00109901               10.00819754                0.01000000               -0.02534284               -0.02533722                0.08442986                0.00001909                0.00267796               -0.00280272
               2.00120582                1.00068251               10.00817179                0.01000000               -0.03096151               -0.02993887                0.08556819               -0.01125054                0.01716359               -0.00154525
               3.00084185                1.00026178               10.00840141                0.01000000               -0.03817575               -0.02813876                0.09361406               -0.00934717                0.03351471               -0.01132183
               4.00044230                1.00017146               10.00878719                0.01000002               -0.04353459               -0.02848402                0.09974674                0.00532753                0.04718936               -0.01602184
               4.99997115                1.00039769               10.00939468                0.01000000               -0.05112401               -0.02914624                0.10566127                0.02304746                0.07363328               -0.01979486
               5.99941982                1.00104840               10.01044714                0.01000000               -0.04434144               -0.04073644                0.11305390                0.02562817                0.05026873               -0.02931413
               6.99908433                1.00163583               10.01070898                1.00000000               -0.03367869               -0.03383884                0.11270027                0.00011489                0.00590158               -0.00352737
               7.99874625                1.00221048               10.01087561                0.99999998               -0.03385060               -0.03388505                0.11289666                0.00007786                0.00124234               -0.00030659
               8.99840731                1.00277340               10.01104482                0.99999996               -0.03393750               -0.03395149                0.11317872                0.00005647                0.00086252                0.00041023
               9.99806750                1.00332396               10.01120484                0.99999997               -0.03398162               -0.03403059                0.11344202                0.00060899                0.00033838                0.00643145
               0.00213958                2.00126895               10.00826612                0.01000000               -0.02571121               -0.03937198                0.08506540               -0.02425623                0.00154759                0.01321176
               1.00188247                2.00084290               10.00816752                0.01000000               -0.03666649               -0.03315551                0.08621098               -0.02738079                0.00915950                0.00503328
               2.00140625                2.00033787               10.00821927                0.01000001               -0.04545036               -0.03488755                0.09110292               -0.02512644                0.01678343               -0.00397387
               3.00097346                2.00000112               10.00834261                0.01000000               -0.04660046               -0.02987101                0.09479016               -0.00652551                0.02434076               -0.01481951
               4.00047424                1.99990799               10.00861669                0.01000001               -0.05352963               -0.02864364                0.09919080                0.01729306                0.03479477               -0.02119761
               4.99990287                2.00013228               10.00906152                0.01000001               -0.05943699               -0.03000933                0.10353568                0.03975871                0.03986197               -0.02544462
               5.99928550                2.00058331               10.00956849                0.01000001               -0.06991440               -0.04002033                0.10678788                0.05936997                0.05014007               -0.04424099
               6.99850458                2.00130364               10.01032030                0.01000000               -0.05534754               -0.04122054                0.10865772                0.04558355                0.02515576               -0.01852288
               7.99817855                2.00187744               10.01047539                0.02785822               -0.03264513               -0.03325352                0.10896853                0.00474949               -0.00629962                0.01495082
               8.99785168                2.00243968               10.01059965                0.99999999               -0.03276672               -0.03279591                0.10936162                0.00006670               -0.00465485               -0.00212732
               9.99752322                2.00298939               10.01078954                0.99999999               -0.03284617               -0.03288851                0.10960875                0.00059913               -0.00146684                0.00641878
               0.00207964                3.00073380               10.00845920                0.01000001               -0.02351013               -0.04323750                0.09172747               -0.02155007               -0.00107962                0.02522442
               1.00184454                3.00043590               10.00832684                0.01000000               -0.02672836               -0.04425725                0.09200421               -0.02925971                0.00216003                0.01221041
               2.00154508                2.99998476               10.00824420                0.01000000               -0.03516603               -0.04139942                0.09346116               -0.01931363                0.01020594               -0.00542265
               3.00114122                2.99966436               10.00827555                0.01000000               -0.04440368               -0.03859918                0.09595869                0.00478214                0.01985579               -0.01578961
               4.00065700                2.99959859               10.00844115                0.01000001               -0.05251097               -0.03595743                0.09893940                0.03349176                0.02846556               -0.02019833
               5.00009100                2.99979750               10.00873714                0.01000002               -0.06105728               -0.03691603                0.10218203                0.06134354                0.03487481               -0.02111682
               5.99943586                3.00024799               10.00914651                0.01000000               -0.06945678               -0.03918625                0.10521837                0.08117014                0.03749544               -0.01643508
               6.99870187                3.00081142               10.00963678                0.01000000               -0.08653305               -0.04699668                0.10953959                0.10366787                0.04746591               -0.02024011
               7.99770519                3.00154541               10.01037968                0.01000000               -0.07025798               -0.04741694                0.09154792                0.09592874               -0.00055723               -0.00010126
               8.99729671                3.00211748               10.01011384                0.01000000               -0.03625594               -0.05761230                0.10560955                0.08230336               -0.02662723                0.01140570
               9.99698008                3.00266619               10.01034954                0.12527719               -0.03166297               -0.09757119                0.10574673                0.09468578               -0.00166288                0.00675226
               0.00230439                4.00040420               10.00875120                0.01000003               -0.02580634               -0.02904390                0.09677209               -0.00735091               -0.00341705                0.03674002
               1.00204632                3.99995776               10.00850912                0.01000001               -0.02564316               -0.04925764                0.09525606               -0.00960458               -0.00026613                0.01206335
               2.00179152                3.99950988               10.00830824                0.01000001               -0.02955239               -0.05163977                0.09512286                0.00153055                0.00856933               -0.00679772
               3.00145527                3.99922913               10.00823262                0.01000001               -0.03902933               -0.04814136                0.09645481                0.02499777                0.02075235               -0.01695096
               4.00101094                3.99918884               10.00831518                0.01000000               -0.04874684               -0.04534923                0.09893083                0.05196714                0.03201907               -0.01780190
               5.00048034                3.99939396               10.00855042                0.01000000               -0.05579706               -0.04489592                0.10203706                0.07656108                0.04015548               -0.01186889
               5.99989500                3.99979959               10.00890422                0.01000001               -0.05999064               -0.04919402                0.10542287                0.09961497                0.04501605               -0.00228112
               6.99928053                4.00036371               10.00934962                0.01000001               -0.05519642               -0.05519186                0.10733239                0.11912368                0.04128152                0.00719397
               7.99879107                4.00092911               10.00973248                0.01000001               -0.04517760               -0.07069433                0.11130787                0.13857898                0.02743136               -0.00174131
               8.99837697                4.00128744               10.00994138                0.01000000               -0.02357744               -0.08693705                0.10877508                0.10598324                0.00786516                0.02742277
               9.99831952                4.00103796               10.00994322                0.01000001               -0.00574551               -0.12580306                0.10818742                0.08147618                0.00257772                0.00716310
               0.00282551                5.00015293               10.00919285                0.01000001               -0.02787400               -0.02541713                0.10100028                0.00311689               -0.00418239                0.05589993
               1.00254677                4.99945075               10.00877280                0.01000000               -0.02605979               -0.05219753                0.09754494                0.01127750                0.00079904                0.01628538
               2.00230431                4.99895196               10.00840708                0.01000001               -0.02922740               -0.05683250                0.09546540                0.02561670                0.01141763               -0.01213701
               3.00196222                4.99870153               10.00821900                0.01000002               -0.03863961               -0.05586164                0.09639925                0.04861926                0.02722259               -0.02000030
               4.00153152                4.99869161               10.00825506                0.01000000               -0.04753744               -0.05157593                0.09901709                0.06833014                0.04318350               -0.01647784
               5.00101147                4.99889958               10.00848378                0.01000001               -0.05365585               -0.05123306                0.10263239                0.08432665                0.05457510               -0.00545068
               6.00045840                4.99926411               10.00885963                0.01000000               -0.05283250               -0.05604567                0.10663675                0.09468702                0.06022556                0.01050441
               6.99995482                4.99970758               10.00930354                0.01000001               -0.04526793               -0.06808111                0.11060486                0.10032791                0.05853278                0.02654230
               7.99955304                5.00013152               10.00970908                0.01000000               -0.03236538               -0.08171990                0.11312460                0.09403941                0.04876336                0.04217095
               8.99930751                5.00037874               10.00997325                0.01000000               -0.02222466               -0.08787386                0.11407370                0.06851086                0.02998167                0.05115683
               9.99910855                5.00015012               10.00996674                0.01000000               -0.01989624               -0.07176147                0.11240176                0.03464737                0.01878913                0.04249735
               0.00377108                5.99989586               10.00991093                0.93931418               -0.02982420               -0.02846063                0.10288504               -0.00223779               -0.00372365                0.03708653
               1.00347284                5.99891381               10.00918265                0.01000000               -0.03590022               -0.04137800                0.09610618                0.01856424               -0.00189414                0.00580880
               2.00305307                5.99837323               10.00849273                0.01000001               -0.03924092               -0.06429084                0.09486488                0.05254366                0.00975851               -0.02315964
               3.00268802                5.99811190               10.00821680                0.01000000               -0.04367930               -0.05577336                0.09568930                0.06799441                0.03985260               -0.02449284
               4.00217949                5.99815732               10.00824636                0.01000001               -0.05468274               -0.05311519                0.09903467                0.08101508                0.06002599               -0.01734452
               5.00159436                5.99836930               10.00851789                0.01000000               -0.05993724               -0.05082908                0.10363073                0.08423053                0.07477778               -0.00196400
               6.00098074                5.99867867               10.00898120                0.01000000               -0.05873443               -0.05468824                0.10904644                0.07690695                0.08366986                0.01961454
               7.00041967                5.99900209               10.00955214                0.01000000               -0.04900227               -0.06739674                0.11452413                0.06204610                0.08422057                0.04580402
               8.00000070                5.99929471               10.01010879                0.01000000               -0.03455420               -0.08291569                0.11901244                0.04686308                0.07284481                0.07280510
               8.99972859                5.99952996               10.01047608                0.01000000               -0.02655039               -0.08502790                0.12102881                0.02850442                0.04532115                0.09324778
               9.99946969                5.99960273               10.01045726                0.01000000               -0.02589008               -0.05020796                0.11938607                0.01483441                0.02733002                0.09478301
               0.00474485                6.99958371               10.01019326                1.00000000               -0.03041733               -0.03145819                0.10483346                0.00028261               -0.00245896                0.01888844
               1.00444068                6.99862319               10.00936723                1.00000000               -0.02938792               -0.02936586                0.09789621               -0.00007461               -0.00586498               -0.00190599
               2.00415709                6.99766615               10.00847447                0.01000000               -0.04513288               -0.04911035                0.09112173                0.05050763                0.02296770               -0.02412187
               3.00353802                6.99758607               10.00822875                0.01000000               -0.06313340               -0.05479406                0.09462798                0.08156467                0.05790580               -0.02943119
               4.00289443                6.99762930               10.00826184                0.01000001               -0.06816479               -0.05113686                0.09880577                0.09071187                0.07863150               -0.02251853
               5.00217473                6.99788300               10.00861400                0.01000001               -0.07653372               -0.04045210                0.10461440                0.08280564                0.09855238               -0.00106664
               6.00136375                6.99817035               10.00922925                0.01000000               -0.07975075               -0.04080913                0.11184827                0.05423460                0.11221910                0.02473914
               7.00057971                6.99835964               10.01003495                0.01000000               -0.07006599               -0.05317012                0.11986970                0.01621534                0.11634626                0.05746649
               7.99996243                6.99847321               10.01087486                0.01000002               -0.05050668               -0.07603991                0.12722835               -0.01620118                0.10405063                0.10507601
               8.99956958                6.99867818               10.01151035                0.01000001               -0.03513679               -0.09012138                0.13176807               -0.02171708                0.06538071                0.14639537
               9.99925970                6.99914597               10.01158616                0.01000002               -0.03098813               -0.05540486                0.13051363               -0.01539619                0.03789482                0.17487070
               0.00569778                7.99926669               10.01054722                0.99999999               -0.03088677               -0.03196625                0.10645698                0.00024760               -0.00083718                0.02271323
               1.00538891                7.99832649               10.00962545                1.00000000               -0.02987145               -0.02991310                0.09962189               -0.00001317               -0.00038612                0.00257188
               2.00510035                7.99739102               10.00871373                0.01000000               -0.05163779               -0.02776420                0.09277623                0.02774227                0.02065559               -0.01524529
               3.00435615                7.99701602               10.00821634                0.01000000               -0.07017811               -0.06923182                0.09341230                0.09776118                0.05858566               -0.06039169
               4.00369679                7.99713458               10.00823862                0.01000002               -0.08233635               -0.03570690                0.09754340                0.10743137                0.09893702               -0.02578339
               5.00270943                7.99756025               10.00873501                0.01000000               -0.10539964               -0.01907143                0.10522335                0.08041537                0.12386712               -0.00107758
               6.00158879                7.99786249               10.00952491                0.01000000               -0.11341540               -0.01869319                0.11428567                0.03419857                0.14027543                0.02419028
               7.00044112                7.99793868               10.01061839                0.01000001               -0.11153280               -0.02618931                0.12520916               -0.02169455                0.16091188                0.05684535
               7.99935814                7.99777391               10.01205405                0.01000000               -0.09098133               -0.04737630                0.13839760               -0.08078658                0.15458410                0.11207919
               8.99862149                7.99772753               10.01319972                0.01000001               -0.05659734               -0.08787912                0.14746507               -0.11609849                0.10293668                0.26267014
               9.99822619                7.99849464               10.01368492                0.01000001               -0.03953017               -0.12200869                0.14925501               -0.08644532                0.06920758                0.26651691
               0.00663021                8.99894439               10.01090535                1.00000000               -0.03141260               -0.03249820                0.10816465                0.00025183                0.00231083                0.01820346
               1.00631608                8.99802493               10.00990164                1.00000000               -0.03038998               -0.03039122                0.10129175                0.00000195                0.00127032                0.00210729
               2.00602241                8.99711086               10.00887782                0.99999999               -0.02831985               -0.02830247                0.09438648               -0.00000375               -0.00478858               -0.01124885
               3.00574969                8.99620143               10.00775626                0.01000000               -0.07617966               -0.05393567                0.08742294                0.10467594                0.07138884               -0.04839458
               4.00449882                8.99691516               10.00826215                0.01000000               -0.13472828                0.00023233                0.09663156                0.10494066                0.13807005               -0.02026902
               5.00305512                8.99750157               10.00884239                0.01000000               -0.14147630                0.00271655                0.10502249                0.05667397                0.13839137                0.00035825
               6.00166929                8.99779649               10.00976237                0.01000000               -0.14103599                0.00024557                0.11533670                0.01766615                0.15980251                0.01634076
               7.00023440                8.99783586               10.01111218                0.01000001               -0.15557208               -0.00252680                0.12864173               -0.02406684                0.19486200                0.03736083
               7.99855785                8.99752568               10.01303202                0.01000001               -0.18537607               -0.00377600                0.14623537               -0.08111811                0.29360055                0.07974248
               8.99652688                8.99692060               10.01665993                0.99999997               -0.12806327               -0.06686006                0.17942527               -0.13597603                0.18037172                0.17575889
               9.99599658                8.99670579               10.01665806                0.99999999               -0.05302961               -0.11496472                0.17346316               -0.12221778               -0.00099219                0.14928535
               0.00754174                9.99861673               10.01116819                1.00000000               -0.03192616               -0.03276585                0.10985392                0.00134628                0.01258077                0.01348224
               1.00722247                9.99771867               10.01015249                1.00000000               -0.03089826               -0.03062610                0.10297931                0.00105136                0.01580037                0.00074306
               2.00692377                9.99682497               10.00920174                0.99999999               -0.02885520               -0.02858871                0.09610677                0.00106804                0.01580592               -0.00349180
               3.00664537                9.99593730               10.00818945                0.01000001               -0.12141587               -0.02641242                0.08922860                0.10528104                0.07053078               -0.00411927
               4.00449545                9.99713923               10.00833920                0.01000002               -0.18418931                0.02240641                0.09571737                0.08352765                0.11434422               -0.00902438
               5.00296158                9.99761458               10.00891328                0.01000001               -0.14438099                0.01130097                0.10404788                0.02705511                0.13153407                0.00503544
               6.00160783                9.99786740               10.00982507                0.01000000               -0.13655004                0.00709179                0.11412001                0.00753250                0.15802482                0.01327172
               7.00023058                9.99788815               10.01123898                0.01000001               -0.14783988                0.00522911                0.12763867               -0.00883247                0.21273176                0.02428696
               7.99865104                9.99769839               10.01351686                0.01000003               -0.17543596                0.01727055                0.14800428               -0.06557206                0.28402530                0.06194885
               8.99672186                9.99639033               10.01662751                0.99999999               -0.12197962               -0.05302632                0.17344629               -0.05565395                0.15686680                0.00124089
               9.99621144                9.99619534               10.01662568                0.99999999               -0.05104205               -0.05104498                0.16748451                0.00198691                0.00111454               -0.00110766
               0.00130745                0.00179082               11.00907085                0.99999257               -0.02470377               -0.02478557                0.08190598                0.00037870               -0.00365609                0.00341052
               1.00106042                0.00132593               11.00902113                0.99999995               -0.02484310               -0.02508639                0.08287865                0.00015895               -0.00407060               -0.00107661
               2.00081059                0.00086578               11.00896505                0.01000002               -0.01938619               -0.02538724                0.08385199                0.00275036                0.01571927               -0.00170327
               3.00067269                0.00046253               11.00931212                0.01000000               -0.01409240               -0.02959871                0.09251719               -0.00301418                0.04619654               -0.00789763
               4.00052874                0.00042025               11.00984339                0.01000000               -0.01759582               -0.02939941                0.10004166                0.00489096                0.07154028               -0.01146450
               5.00032078                0.00078612               11.01068948                0.01000001               -0.03140322               -0.03016005                0.10743030                0.02031549                0.10458574               -0.01601428
               5.99990068                0.00171834               11.01192735                0.41040466               -0.03829151               -0.03429894                0.11591476                0.01445722                0.06724817               -0.00123169
               6.99955495                0.00235034               11.01225955                1.00000000               -0.03476971               -0.03439069                0.11651517               -0.00000798                0.01475282               -0.00349231
               7.99920529                0.00297240               11.01244505                0.99999999               -0.03501553               -0.03445803                0.11672211                0.00008270                0.00852244               -0.00040738
               8.99885464                0.00358340               11.01265203                0.99999996               -0.03513702               -0.03455836                0.11708003                0.00007408                0.00764010                0.00088409
               9.99850255                0.00418267               11.01281994                1.00000000               -0.03520903               -0.03466320                0.11743830                0.00065274                0.00566424                0.00519793
               0.00177613                1.00154297               11.00908985                1.00000000               -0.02516041               -0.02499958                0.08337687                0.00023434                0.00101710                0.00367881
               1.00152453                1.00107507               11.00904143                0.01000000               -0.02531671               -0.02531231                0.08435005                0.00001462                0.00267754               -0.00280172
               2.00126980                1.00061191               11.00902624                0.01000000               -0.03296041               -0.03057632                0.08532303               -0.01178757                0.02065854                0.00037890
               3.00086532                1.00016655               11.00933638                0.01000000               -0.04269686               -0.02752769                0.09333488               -0.00711703                0.03987540               -0.01095440
               4.00041586                1.00012625               11.00978287                0.01000000               -0.04952175               -0.02744969                0.09935992                0.01253730                0.05280016               -0.01604427
               4.99987488                1.00048452               11.01044884                0.01000000               -0.05763586               -0.02852065                0.10519914                0.03768655                0.07980159               -0.01999791
               5.99926314                1.00137536               11.01157485                0.01000000               -0.04735226               -0.04549368                0.11217869                0.03898937                0.05348069               -0.03019794
               6.99892784                1.00200644               11.01183595                1.00000000               -0.03367781               -0.03381063                0.11264347               -0.00005344                0.00567667               -0.00365253
               7.99858959                1.00262782               11.01200501                0.99999998               -0.03387978               -0.03389834                0.11296177                0.00004736                0.00123708               -0.00032584
               8.99825024                1.00323781               11.01217741                0.99999996               -0.03398920               -0.03399941                0.11333435                0.00003704                0.00090096                0.00044659
               9.99790980                1.00383604               11.01234046                0.99999999               -0.03404409               -0.03410603                0.11369535                0.00058129                0.00036970                0.00645527
               0.00224794                2.00129083               11.00911569                0.01000000               -0.02561695               -0.04026622                0.08484754               -0.02572144                0.00154787                0.01573025
               1.00199177                2.00081969               11.00902768                0.01000000               -0.03822854               -0.03484956                0.08582217               -0.02929356                0.01108428                0.00713353
               2.00148337                2.00025426               11.00912851                0.01000001               -0.04878789               -0.03668067                0.09074775               -0.02513258                0.02053858               -0.00145764
               3.00101601                1.99991198               11.00928906                0.01000000               -0.05109254               -0.03045497                0.09446744               -0.00021326                0.02805846               -0.01434267
               4.00046151                1.99987125               11.00960737                0.01000002               -0.05953009               -0.02886247                0.09889286                0.03010008                0.03900375               -0.02106467
               4.99982541                2.00021571               11.01009578                0.01000001               -0.06514804               -0.03174010                0.10320116                0.05769039                0.04356866               -0.02533324
               5.99915855                2.00080847               11.01063384                0.01000007               -0.07619974               -0.04723963                0.10638932                0.07819001                0.05291978               -0.04434028
               6.99830141                2.00167413               11.01140778                0.01000001               -0.05918488               -0.04531293                0.10879385                0.05782198                0.02613615               -0.01979049
               7.99797486                2.00229443               11.01156633                0.03458771               -0.03271257               -0.03224226                0.10918563                0.00145961               -0.00619354                0.01948822
               8.99764716                2.00290341               11.01169455                0.99999999               -0.03285649               -0.03288106                0.10962366                0.00004085               -0.00455702               -0.00204083
               9.99731773                2.00350055               11.01188735                1.00000000               -0.03294348               -0.03299827                0.10997568                0.00057770               -0.00142728                0.00643132
               0.00220399                3.00073764               11.00937540                0.01000000               -0.02287590               -0.04433780                0.09145375               -0.02228782               -0.00032431                0.03026937
               1.00197523                3.00037808               11.00924525                0.01000000               -0.02645684               -0.04859511                0.09167018               -0.02875309                0.00338228                0.01520179
               2.00167485                2.99987830               11.00917719                0.01000000               -0.03655879               -0.04509196                0.09312950               -0.01389573                0.01267689               -0.00479109
               3.00124406                2.99955745               11.00923399                0.01000000               -0.04803613               -0.04141448                0.09570929                0.01620100                0.02326431               -0.01562530
               4.00071413                2.99954901               11.00943037                0.01000001               -0.05762901               -0.03831860                0.09876348                0.05064095                0.03223287               -0.01992277
               5.00009148                2.99984972               11.00975686                0.01000000               -0.06728045               -0.04032490                0.10198230                0.08270163                0.03941265               -0.02020972
               5.99936852                3.00043056               11.01020895                0.01000000               -0.07465801               -0.04394566                0.10514728                0.10260842                0.03934886               -0.01449046
               6.99859832                3.00110018               11.01066139                0.01000000               -0.09895108               -0.05267650                0.10495569                0.12699903                0.05396874               -0.01795720
               7.99738950                3.00198298               11.01152317                0.01000000               -0.07766844               -0.05294853                0.10426404                0.11512120               -0.00264982                0.00456344
               8.99704495                3.00258019               11.01117153                0.01000001               -0.03312106               -0.06303302                0.10595039                0.09515481               -0.03100551                0.01470998
               9.99672708                3.00317607               11.01140934                0.13885543               -0.03178674               -0.10913217                0.10623906                0.11121097               -0.00166407                0.00971782
               0.00252131                4.00040408               11.00971817                0.01000003               -0.02452568               -0.03031536                0.09640955               -0.00441237               -0.00302698                0.04082508
               1.00227605                3.99984779               11.00946081                0.01000000               -0.02476125               -0.05547309                0.09496307               -0.00314000                0.00097818                0.01327602
               2.00202608                3.99935242               11.00925881                0.01000001               -0.03033650               -0.05740795                0.09496177                0.01377430                0.01125093               -0.00710165
               3.00166932                3.99908369               11.00919707                0.01000001               -0.04220115               -0.05261475                0.09638728                0.04187750                0.02467699               -0.01740406
               4.00118206                3.99910488               11.00930463                0.01000001               -0.05357195               -0.04934559                0.09890459                0.07296746                0.03682779               -0.01748328
               5.00059788                3.99940921               11.00957185                0.01000000               -0.06108978               -0.04911517                0.10200183                0.10025355                0.04528541               -0.01017197
               5.99996026                3.99992956               11.00995450                0.01000008               -0.06544512               -0.05442123                0.10495072                0.12550581                0.05041228                0.00010620
               6.99928898                4.00062060               11.01042998                0.01000001               -0.05814994               -0.06084178                0.10699310                0.14210006                0.04336090                0.01391399
               7.99879727                4.00123546               11.01077746                0.01000001               -0.04659092               -0.08010347                0.10690936                0.16759796                0.03052736                0.00048491
               8.99835716                4.00164275               11.01102570                0.01000000               -0.02235387               -0.09703090                0.10835273                0.12650463                0.01108996                0.03466850
               9.99835019                4.00131790               11.01102466                0.01000000               -0.00069732               -0.14220709                0.10819815                0.09697386                0.00363232                0.01334472
               0.00322832                5.00013134               11.01019326                0.01000002               -0.02642331               -0.03228368                0.09973451                0.01246295               -0.00286122                0.05877696
               1.00296409                4.99926862               11.00974296                0.01000000               -0.02569440               -0.05906837                0.09685469                0.02598657                0.00220713                0.01532351
               2.00271444                4.99873014               11.00936375                0.01000001               -0.03174749               -0.06262273                0.09565413                0.04359935                0.01488603               -0.01366046
               3.00232914                4.99850515               11.00918437                0.01000000               -0.04332386               -0.06128354                0.09661785                0.06991736                0.03253599               -0.02104495
               4.00184796                4.99856209               11.00924632                0.01000000               -0.05286346               -0.05619230                0.09916830                0.09164207                0.04959918               -0.01615855
               5.00127187                4.99886742               11.00951086                0.01000001               -0.05903544               -0.05593087                0.10270913                0.10897713                0.06162165               -0.00342828
               6.00066725                4.99934214               11.00992662                0.01000001               -0.05687302               -0.06141852                0.10655599                0.11891138                0.06719850                0.01466981
               7.00013441                4.99988334               11.01040518                0.01000002               -0.04739690               -0.07552877                0.11009747                0.12345258                0.06548532                0.03244272
               7.99971931                5.00038091               11.01084942                0.01000000               -0.03209064               -0.08886731                0.11299928                0.11236890                0.05351278                0.05217795
               8.99949260                5.00063957               11.01111215                0.01000000               -0.02015332               -0.09649760                0.11372787                0.08107612                0.03197290                0.06073917
               9.99931625                5.00033193               11.01109080                0.01000002               -0.01763530               -0.07804200                0.11243265                0.04077980                0.01996598                0.05090419
               0.00449600                5.99975840               11.01094007                0.92649776               -0.02990235               -0.03424861                0.10290887                0.00840437               -0.00372589                0.03787279
               1.00419698                5.99866642               11.01014623                0.01000000               -0.04172344               -0.04470923                0.09657640                0.03265124                0.00077824                0.00471197
               2.00366154                5.99809996               11.00944375                0.01000007               -0.04806336               -0.07121188                0.09528494                0.07336279                0.01505247               -0.02670502
               3.00323571                5.99785802               11.00917673                0.01000000               -0.05044495               -0.06105628                0.09615637                0.09018489                0.04690940               -0.02595981
               4.00265264                5.99798104               11.00923906                0.01000130               -0.06191667               -0.05777402                0.09946001                0.10515761                0.06846699               -0.01714190
               5.00199738                5.99829059               11.00955583                0.01000001               -0.06650349               -0.05486597                0.10387119                0.10760400                0.08401617                0.00030502
               6.00132257                5.99870119               11.01007236                0.01000001               -0.06390584               -0.05922820                0.10912939                0.09769305                0.09330963                0.02439459
               7.00071926                5.99911003               11.01069823                0.01000000               -0.05170774               -0.07328016                0.11448573                0.07844235                0.09319406                0.05358622
               8.00028841                5.99945812               11.01129680                0.01000000               -0.03458014               -0.09046527                0.11885194                0.05870793                0.08009242                0.08289050
               9.00002766                5.99971280               11.01168660                0.01000000               -0.02536688               -0.09187895                0.12100063                0.03493559                0.04952157                0.10576567
               9.99978107                5.99975706               11.01165240                0.01000001               -0.02465863               -0.05155896                0.11959136                0.01791704                0.02948427                0.10699779
               0.00558038                6.99944636               11.01124166                1.00000000               -0.03048241               -0.03143976                0.10482573                0.00027722               -0.00259934                0.01903684
               1.00527556                6.99837443               11.01034830                1.00000000               -0.02951444               -0.02949023                0.09831354               -0.00007034               -0.00591835               -0.00182793
               2.00499009                6.99730590               11.00938971                0.01000001               -0.05118951               -0.05358476                0.09195150                0.06468703                0.02808268               -0.02677332
               3.00425176                6.99728403               11.00918014                0.01000000               -0.07357775               -0.06204910                0.09591435                0.10488277                0.06751416               -0.03113501
               4.00351854                6.99740661               11.00925324                0.01000001               -0.07739820               -0.05508299                0.09936669                0.11475006                0.08881705               -0.02290677
               5.00270380                6.99777010               11.00966280                0.01000001               -0.08584277               -0.04247746                0.10510206                0.10439985                0.11012410                0.00099661
               6.00180168                6.99815757               11.01034929                0.01000000               -0.08787362               -0.04256630                0.11208540                0.07018167                0.12475850                0.02962111
               7.00094633                6.99841774               11.01123406                0.01000000               -0.07554907               -0.05621772                0.11991717                0.02544365                0.12892556                0.06591350
               8.00029070                6.99857160               11.01214749                0.01000001               -0.05269826               -0.08100417                0.12717554               -0.01311005                0.11484633                0.11863369
               8.99989236                6.99880200               11.01282815                0.01000000               -0.03523237               -0.09539942                0.13174985               -0.02176241                0.07178214                0.16363699
               9.99958605                6.99930075               11.01289289                0.01000001               -0.03063117               -0.05543042                0.13078571               -0.01623630                0.04122404                0.19352313
               0.00664541                7.99912961               11.01161142                0.99999999               -0.03093732               -0.03193410                0.10638599                0.00025112               -0.00082993                0.02272993
               1.00633604                7.99807661               11.01062348                1.00000000               -0.02998642               -0.03002064                0.09999334               -0.00000004               -0.00038249                0.00258965
               2.00604568                7.99702827               11.00964546                0.01072097               -0.05516905               -0.02801241                0.09358688                0.03159308                0.02414749               -0.01531493
               3.00523266                7.99661704               11.00915172                0.01000004               -0.07920579               -0.07810815                0.09276400                0.12025333                0.06715282               -0.06432349
               4.00446157                7.99687938               11.00921931                0.01000001               -0.09491201               -0.03724393                0.09893384                0.13366741                0.11074825               -0.02683045
               5.00333442                7.99744105               11.00979109                0.01000000               -0.11915041               -0.01736235                0.10585572                0.09926600                0.13770664                0.00036220
               6.00207856                7.99784986               11.01066999                0.01000000               -0.12601534               -0.01677540                0.11469040                0.04517859                0.15559974                0.02826014
               7.00081411                7.99798567               11.01187150                0.01000000               -0.12183017               -0.02505636                0.12535943               -0.01908453                0.17826035                0.06451936
               7.99964196                7.99783803               11.01343763                0.01000000               -0.09754234               -0.04785820                0.13829472               -0.08611721                0.17106871                0.12566865
               8.99886326                7.99780481               11.01467384                0.01000000               -0.05915581               -0.09038605                0.14732207               -0.12672387                0.11370994                0.29104514
               9.99845884                7.99864846               11.01517821                0.01000000               -0.04044240               -0.12713289                0.14937793               -0.09402289                0.07602205                0.29252300
               0.00769139                8.99880768               11.01198647                1.00000000               -0.03144943               -0.03245821                0.10806093                0.00025265                0.00230960                0.01825185
               1.00737689                8.99777402               11.01091626                1.00000000               -0.03049301               -0.03049237                0.10163723                0.00000930                0.00125652                0.00210061
               2.00708153                8.99674565               11.00982574                0.99999999               -0.02855860               -0.02854256                0.09519355                0.00000461               -0.00484007               -0.01130849
               3.00680572                8.99572186               11.00863702                0.01000001               -0.08568263               -0.05815585                0.08870833                0.12499952                0.07918546               -0.05202374
               4.00536788                8.99666173               11.00923320                0.01000000               -0.15435431                0.00466969                0.09757410                0.12722256                0.15294406               -0.02120593
               5.00371864                8.99742285               11.00989718                0.01000000               -0.16036248                0.00802056                0.10587911                0.06926074                0.15329952                0.00106239
               6.00216063                8.99782207               11.01091911                0.01000000               -0.15710853                0.00501878                0.11594843                0.02325618                0.17687250                0.01869355
               7.00057647                8.99791661               11.01240054                0.01000000               -0.17057047                0.00180111                0.12898053               -0.02424491                0.21553036                0.04198446
               7.99874922                8.99761444               11.01449455                0.01000001               -0.20145009                0.00088607                0.14623812               -0.08706690                0.32423732                0.08892695
               8.99654746                8.99699427               11.01845039                0.99999997               -0.13654590               -0.06698973                0.17868202               -0.14768670                0.19956321                0.19436083
               9.99601830                8.99675809               11.01839254                1.00000000               -0.05291647               -0.12009560                0.17343181               -0.13384823               -0.00099425                0.16413325
               0.00871779                9.99848044               11.01226605                0.99999998               -0.03195340               -0.03272389                0.10971921                0.00127226                0.01261276                0.01351849
               1.00839825                9.99746677               11.01118384                1.00000000               -0.03099279               -0.03072538                0.10329369                0.00098461                0.01583625                0.00073937
               2.00809793                9.99645742               11.01016665                0.99999998               -0.02908441               -0.02882361                0.09687427                0.00099807                0.01584477               -0.00351282
               3.00781657                9.99545392               11.00908782                0.01000001               -0.13964503               -0.02679428                0.09044679                0.12685205                0.07713143               -0.00412683
               4.00530503                9.99697277               11.00930226                0.01000001               -0.21286328                0.03110363                0.09686095                0.10109235                0.12710399               -0.00967692
               5.00355930                9.99760146               11.00995921                0.01000000               -0.16275551                0.01786061                0.10506621                0.03293972                0.14558298                0.00555304
               6.00204992                9.99795024               11.01097111                0.01000000               -0.15112295                0.01281712                0.11500505                0.00994131                0.17445190                0.01459865
               7.00053684                9.99802169               11.01251914                0.01000000               -0.16134830                0.01050810                0.12831997               -0.00868653                0.23426072                0.02675946
               7.99882296                9.99785576               11.01499883                0.01000000               -0.18854836                0.02413185                0.14834672               -0.07046013                0.31166310                0.06816499
               8.99676587                9.99646501               11.01836216                1.00000000               -0.12843582               -0.05292604                0.17348215               -0.05861954                0.17229717                0.00123817
               9.99625424                9.99624654               11.01830431                0.99999999               -0.05116351               -0.05115484                0.16822803                0.00174697                0.00111072               -0.00111060
               0.00131575                0.00179856               12.00989188                1.00000000               -0.02480028               -0.02485882                0.08229972                0.00030528               -0.00365661                0.00340959
               1.00106774                0.00128751               12.00985107                1.00000000               -0.02491596               -0.02510832                0.08310726                0.00013145               -0.00407114               -0.00107697
               2.00081743                0.00078020               12.00980388                0.01000000               -0.01863960               -0.02535776                0.08391477                0.00415769                0.01953625               -0.00170368
               3.00069495                0.00035743               12.01023619                0.01000000               -0.01301901               -0.02916763                0.09227433               -0.00176179                0.05407608               -0.00743523
               4.00055705                0.00036941               12.01084176                0.01000000               -0.01841699               -0.02828156                0.09961795                0.00881787                0.07922975               -0.01148738
               5.00032661                0.00087620               12.01176117                0.01000000               -0.03855353               -0.02847696                0.10684322                0.03030914                0.11266190               -0.01629810
               5.99978598                0.00207841               12.01307982                0.39550880               -0.04424465               -0.03404581                0.11500654                0.02571253                0.07138701               -0.00106612
               6.99944172                0.00275776               12.01342322                1.00000000               -0.03467207               -0.03432156                0.11622528                0.00003166                0.01502656               -0.00358955
               7.99909254                0.00342709               12.01361181                0.99999999               -0.03498901               -0.03443978                0.11660626                0.00009325                0.00846883               -0.00042332
               8.99874194                0.00408563               12.01382291                0.99999999               -0.03514623               -0.03458247                0.11709333                0.00008744                0.00765750                0.00089129
               9.99838961                0.00473294               12.01399501                1.00000000               -0.03523283               -0.03472812                0.11758163                0.00064999                0.00568361                0.00521283
               0.00182986                1.00154998               12.00992406                1.00000000               -0.02516140               -0.02502806                0.08346376                0.00018541                0.00101681                0.00367811
               1.00157824                1.00103642               12.00988454                0.01000000               -0.02529055               -0.02528737                0.08427128                0.00001163                0.00267712               -0.00280168
               2.00132404                1.00052662               12.00987825                0.01000000               -0.03477582               -0.03112167                0.08507876               -0.01162276                0.02419935                0.00240616
               3.00088273                1.00006575               12.01026811                0.01000001               -0.04691024               -0.02703896                0.09298749               -0.00395955                0.04628792               -0.01049055
               4.00038584                1.00008660               12.01077438                0.01000000               -0.05537602               -0.02651117                0.09892544                0.02081139                0.05836725               -0.01602368
               4.99977520                1.00059143               12.01149866                0.01000000               -0.06417589               -0.02793052                0.10469263                0.05362565                0.08566859               -0.02014664
               5.99910232                1.00173795               12.01269071                0.01000000               -0.05037533               -0.05080043                0.11141501                0.05345210                0.05682659               -0.03114876
               6.99876770                1.00241454               12.01296185                1.00000000               -0.03363947               -0.03376833                0.11252122               -0.00010837                0.00594702               -0.00373504
               7.99842953                1.00308269               12.01313484                0.99999998               -0.03389049               -0.03390182                0.11298529                0.00003191                0.00123914               -0.00034080
               8.99808989                1.00373980               12.01331150                0.99999996               -0.03403648               -0.03404416                0.11348150                0.00002737                0.00092641                0.00046920
               9.99774880                1.00438565               12.01347874                0.99999999               -0.03410853               -0.03419031                0.11397189                0.00055815                0.00039051                0.00647396
               0.00234656                2.00129800               12.00996307                0.01000000               -0.02552246               -0.04066337                0.08462782               -0.02644339                0.00154810                0.01834576
               1.00209133                2.00078176               12.00988396                0.01000000               -0.03954557               -0.03648084                0.08543524               -0.03040410                0.01311096                0.00941042
               2.00155565                2.00015776               12.01003423                0.01000001               -0.05177756               -0.03839881                0.09037963               -0.02396442                0.02444092                0.00126370
               3.00105578                1.99981665               12.01023196                0.01000000               -0.05540249               -0.03109524                0.09408780                0.00760155                0.03189155               -0.01368226
               4.00044760                1.99983919               12.01059454                0.01000000               -0.06540056               -0.02918662                0.09849892                0.04469426                0.04323254               -0.02083921
               4.99974777                2.00031759               12.01112554                0.01000001               -0.07078457               -0.03370912                0.10275216                0.07743377                0.04726333               -0.02505391
               5.99903191                2.00106240               12.01169627                0.01000001               -0.08264769               -0.05502151                0.10603464                0.09903923                0.05577158               -0.04523309
               6.99809482                2.00208239               12.01249617                0.01000000               -0.06319962               -0.04922343                0.10884446                0.06929867                0.02724197               -0.01865856
               7.99776791                2.00274905               12.01265911                0.03918457               -0.03276483               -0.03285685                0.10935167                0.00174399               -0.00612973                0.01377853
               8.99743952                2.00340475               12.01279212                0.99999999               -0.03294204               -0.03296381                0.10989274                0.00003093               -0.00449590               -0.00198824
               9.99710907                2.00404913               12.01298905                1.00000000               -0.03304482               -0.03312113                0.11037905                0.00055755               -0.00140280                0.00644329
               0.00233347                3.00073671               12.01028827                0.01000001               -0.02230740               -0.04475795                0.09107554               -0.02238951                0.00041253                0.03555071
               1.00211040                3.00030681               12.01016025                0.01000001               -0.02618021               -0.05281002                0.09130220               -0.02720733                0.00466945                0.01854107
               2.00180987                2.99975864               12.01010679                0.01000000               -0.03785349               -0.04882380                0.09277854               -0.00691623                0.01524464               -0.00384623
               3.00135333                2.99944385               12.01018974                0.01000000               -0.05155423               -0.04429873                0.09539807                0.02957142                0.02672977               -0.01520330
               4.00077878                2.99950287               12.01041642                0.01000001               -0.06263304               -0.04079874                0.09845139                0.06992596                0.03615671               -0.01948106
               5.00010067                2.99991725               12.01077679                0.01000000               -0.07302405               -0.04405331                0.10169084                0.10615320                0.04296964               -0.01927389
               5.99931830                3.00063752               12.01124946                0.01000000               -0.08168219               -0.04891785                0.10423776                0.12630163                0.04301560               -0.01268008
               6.99846702                3.00143007               12.01173589                0.01000000               -0.10881220               -0.05920954                0.10606261                0.15089994                0.04875909               -0.01587368
               7.99714206                3.00242555               12.01246496                0.01000000               -0.08382988               -0.05682457                0.09909520                0.13442157               -0.00117124                0.00731606
               8.99679043                3.00308053               12.01223285                0.01000003               -0.03354370               -0.06822780                0.10632698                0.11048650               -0.02520377                0.01766016
               9.99647119                3.00372323               12.01247432                0.15512416               -0.03192419               -0.12128659                0.10677421                0.12852889               -0.00166619                0.01242377
               0.00275857                4.00040284               12.01067939                0.01000000               -0.02333172               -0.03150685                0.09587133               -0.00095815               -0.00243276                0.04478775
               1.00252525                3.99972556               12.01040839                0.01000000               -0.02391425               -0.06175022                0.09457719                0.00442323                0.00226592                0.01470616
               2.00228028                3.99918129               12.01020748                0.01000000               -0.03111322               -0.06324155                0.09474288                0.02779368                0.01395641               -0.00703780
               3.00190299                3.99893067               12.01016036                0.01000001               -0.04537845               -0.05714382                0.09623619                0.06094833                0.02857624               -0.01754008
               4.00137271                3.99902322               12.01029327                0.01000000               -0.05834047               -0.05344288                0.09875063                0.09620383                0.04147188               -0.01695067
               5.00073618                3.99943652               12.01059046                0.01000000               -0.06638023               -0.05351059                0.10173900                0.12618841                0.05019397               -0.00857079
               6.00004511                4.00008405               12.01100323                0.01000000               -0.07056953               -0.05989348                0.10459970                0.15257129                0.05432868                0.00351492
               6.99932479                4.00089820               12.01148948                0.01000001               -0.06196096               -0.06709494                0.10609762                0.17016104                0.04749788                0.01792735
               7.99880589                4.00161256               12.01187066                0.01000001               -0.04866089               -0.08849042                0.10804837                0.19581287                0.03273305                0.01378998
               8.99835157                4.00204019               12.01210844                0.01000000               -0.02058252               -0.10739515                0.10833145                0.14630008                0.01182868                0.04208315
               9.99839424                4.00162340               12.01210718                0.01000000                0.00426713               -0.15913783                0.10839299                0.11229064                0.00486311                0.01900381
               0.00366888                5.00010657               12.01118754                0.01000003               -0.02484583               -0.03989661                0.09921878                0.02280657               -0.00190817                0.06183202
               1.00342042                4.99907180               12.01070989                0.01000000               -0.02541245               -0.06614228                0.09660060                0.04233530                0.00407967                0.01490616
               2.00316063                4.99849381               12.01032016                0.01000001               -0.03450261               -0.06840580                0.09563247                0.06362491                0.01843273               -0.01475195
               3.00273037                4.99830097               12.01015136                0.01000000               -0.04818086               -0.06668737                0.09669350                0.09340509                0.03763290               -0.02180075
               4.00219701                4.99843401               12.01023842                0.01000000               -0.05833803               -0.06078271                0.09920302                0.11715399                0.05572603               -0.01562276
               5.00156361                4.99884704               12.01053796                0.01000000               -0.06444807               -0.06065342                0.10263629                0.13554265                0.06821884               -0.00126392
               6.00090805                4.99943965               12.01099075                0.01000001               -0.06109371               -0.06700753                0.10631456                0.14502808                0.07379924                0.01877355
               7.00034173                5.00008818               12.01150549                0.01000003               -0.04958610               -0.08266350                0.10978412                0.14752090                0.07102675                0.03937896
               7.99991633                5.00065574               12.01196907                0.01000000               -0.03180718               -0.09790548                0.11219253                0.13263709                0.05801111                0.06003290
               8.99970559                5.00093262               12.01224781                0.01000000               -0.01828738               -0.10554567                0.11353901                0.09482944                0.03477971                0.07028334
               9.99955058                5.00054048               12.01221539                0.01000000               -0.01550083               -0.08413993                0.11254659                0.04746183                0.02135297                0.05918260
               0.00528424                5.99960491               12.01196911                0.91357173               -0.02995196               -0.04067391                0.10285634                0.02031626               -0.00372924                0.03897731
               1.00498472                5.99840271               12.01111418                0.01000000               -0.04803104               -0.04812153                0.09697028                0.04810518                0.00319581                0.00401245
               2.00432362                5.99781317               12.01039843                0.01000001               -0.05769122               -0.07824241                0.09560636                0.09602405                0.01998032               -0.02967879
               3.00383089                5.99759693               12.01013993                0.01000000               -0.05769433               -0.06562963                0.09651272                0.11443973                0.05358682               -0.02668811
               4.00316973                5.99780756               12.01023556                0.01000000               -0.06947532               -0.06215440                0.09969393                0.13088129                0.07650932               -0.01673477
               5.00244139                5.99822345               12.01059531                0.01000001               -0.07325989               -0.05896802                0.10398882                0.13269417                0.09269740                0.00270446
               6.00170453                5.99874390               12.01116378                0.01000000               -0.06911352               -0.06372566                0.10908576                0.12005435                0.10235719                0.02919325
               7.00105912                5.99924493               12.01184185                0.01000000               -0.05451737               -0.07917660                0.11427963                0.09644249                0.10183981                0.06116838
               8.00061418                5.99965445               12.01248583                0.01000000               -0.03478451               -0.09753464                0.11869102                0.07166416                0.08701899                0.09356473
               9.00036343                5.99992928               12.01289609                0.01000000               -0.02432043               -0.09844769                0.12089782                0.04201887                0.05343041                0.11807446
              10.00012778                5.99994060               12.01284909                0.01000000               -0.02356502               -0.05249331                0.11975624                0.02133850                0.03158849                0.11900335
               0.00647960                6.99929309               12.01228978                1.00000000               -0.03053346               -0.03142135                0.10477584                0.00026878               -0.00274715                0.01918418
               1.00617426                6.99810937               12.01133350                1.00000000               -0.02963496               -0.02961991                0.09871914               -0.00008145               -0.00597824               -0.00174769
               2.00588690                6.99692896               12.01031350                0.01000000               -0.05747455               -0.05822377                0.09282476                0.08052245                0.03332096               -0.02916043
               3.00502477                6.99698838               12.01014704                0.01000000               -0.08493945               -0.06621282                0.09632519                0.12782160                0.07679426               -0.03313926
               4.00418811                6.99719092               12.01024917                0.01000001               -0.08718076               -0.05947715                0.09991835                0.13909750                0.09767944               -0.02230611
               5.00328116                6.99766767               12.01071604                0.01000003               -0.09502247               -0.04451698                0.10539931                0.12728540                0.12105635                0.00306929
               6.00228766                6.99816514               12.01147095                0.01000000               -0.09605640               -0.04430106                0.11220320                0.08764070                0.13663910                0.03440996
               7.00136003                6.99850464               12.01243329                0.01000000               -0.08111966               -0.05911713                0.11986837                0.03597393                0.14087363                0.07415527
               8.00066527                6.99870505               12.01341837                0.01000000               -0.05501064               -0.08571146                0.12702015               -0.00889920                0.12513886                0.13161492
               9.00025982                6.99896367               12.01414535                0.01000000               -0.03552815               -0.10015375                0.13166163               -0.02113775                0.07792884                0.18034228
               9.99995470                6.99949061               12.01420187                0.01000001               -0.03051121               -0.05475780                0.13098523               -0.01680036                0.04443306                0.21171059
               0.00765705                7.99897648               12.01267494                0.99999999               -0.03098361               -0.03191499                0.10632011                0.00024406               -0.00082348                0.02273950
               1.00734722                7.99781032               12.01162531                1.00000000               -0.03009965               -0.03013960                0.10037967               -0.00000535               -0.00037963                0.00260825
               2.00705506                7.99664870               12.01058546                0.01000000               -0.06109249               -0.02827282                0.09442668                0.03901516                0.02622845               -0.01537288
               3.00612537                7.99627267               12.01007162                0.01000181               -0.08913397               -0.08817630                0.09497177                0.14352451                0.07222844               -0.06519728
               4.00527238                7.99661802               12.01021730                0.01000000               -0.10562466               -0.03914165                0.09953713                0.15849365                0.12242174               -0.02791533
               5.00401287                7.99733311               12.01085213                0.01000000               -0.13260026               -0.01564849                0.10637595                0.11969463                0.15036888                0.00185706
               6.00262038                7.99785787               12.01181872                0.01000000               -0.13870952               -0.01479507                0.11497782                0.05725973                0.17022345                0.03223760
               7.00123868                7.99806259               12.01312558                0.01000000               -0.13216017               -0.02383652                0.12542229               -0.01540546                0.19483416                0.07193177
               7.99997717                7.99794022               12.01481994                0.01000000               -0.10417865               -0.04810110                0.13812690               -0.09044511                0.18684468                0.13879724
               8.99915511                7.99792620               12.01614617                0.01000000               -0.06196410               -0.09220892                0.14712347               -0.13672204                0.12403340                0.31845880
               9.99873789                7.99884544               12.01667248                0.01000000               -0.04172204               -0.13141256                0.14945268               -0.10119131                0.08260502                0.31781890
               0.00881682                8.99865479               12.01306657                0.99999998               -0.03148715               -0.03242747                0.10796136                0.00024658                0.00230974                0.01829546
               1.00850194                8.99750658               12.01193438                0.99999999               -0.03059837               -0.03060105                0.10198971                0.00000500                0.00124698                0.00209510
               2.00820485                8.99636351               12.01078169                1.00000000               -0.02880021               -0.02878972                0.09599596               -0.00000535               -0.00488122               -0.01135907
               3.00792594                8.99522485               12.00953043                0.01000000               -0.09536553               -0.06597520                0.08995886                0.14857981                0.08660157               -0.05422182
               4.00629754                8.99640809               12.01021363                0.01000000               -0.17453728                0.00947678                0.09857588                0.15118111                0.16713156               -0.02249147
               5.00443519                8.99735470               12.01095998                0.01000000               -0.17970786                0.01342403                0.10659178                0.08263373                0.16750165                0.00179696
               6.00270338                8.99786924               12.01208134                0.01000000               -0.17328101                0.00987552                0.11644227                0.02948881                0.19320056                0.02099492
               7.00096957                8.99802791               12.01369179                0.01000000               -0.18553142                0.00617818                0.12922396               -0.02384081                0.23537181                0.04646685
               7.99899275                8.99774303               12.01595678                0.01000001               -0.21747113                0.00564544                0.14618491               -0.09221608                0.35374719                0.09777927
               8.99662015                8.99711949               12.02023357                0.99999998               -0.14501797               -0.06673280                0.17796857               -0.15867284                0.21805719                0.21230738
               9.99609239                8.99686236               12.02012669                1.00000000               -0.05277586               -0.12479281                0.17339736               -0.14513991               -0.00099644                0.17853513
               0.00995841                9.99832794               12.01336257                1.00000000               -0.03198078               -0.03268587                0.10958562                0.00119558                0.01264035                0.01354951
               1.00963860                9.99719830               12.01221836                1.00000000               -0.03108640               -0.03082855                0.10361128                0.00091430                0.01586830                0.00073581
               2.00933668                9.99607290               12.01113923                0.99999998               -0.02931101               -0.02906053                0.09763963                0.00092703                0.01587940               -0.00353148
               3.00905238                9.99495317               12.00999838                0.01000001               -0.15852671               -0.02716854                0.09166182                0.14937698                0.08344785               -0.00413471
               4.00616615                9.99680755               12.01027642                0.01000004               -0.24239927                0.03994668                0.09792152                0.11928264                0.13933808               -0.01020531
               5.00420440                9.99760159               12.01101461                0.01000000               -0.18146027                0.02468901                0.10595965                0.03931189                0.15910703                0.00605620
               6.00253694                9.99805538               12.01212517                0.01000002               -0.16581596                0.01861458                0.11573441                0.01258420                0.19029274                0.01590221
               7.00088808                9.99818615               12.01380538                0.01000001               -0.17478360                0.01582390                0.12886730               -0.00826233                0.25508251                0.02917362
               7.99904127                9.99805313               12.01648380                0.01000000               -0.20128773                0.03101005                0.14861133               -0.07487837                0.33847963                0.07418949
               8.99686232                9.99659155               12.02009715                1.00000000               -0.13459556               -0.05279471                0.17351376               -0.06095978                0.18724637                0.00123549
               9.99634936                9.99634959               12.01999024                0.99999999               -0.05129635               -0.05127708                0.16894289                0.00150101                0.00110698               -0.00111360
               0.00131596                0.00179466               13.01071684                1.00000000               -0.02489632               -0.02493166                0.08269273                0.00023215               -0.00365633                0.00341003
               1.00106700                0.00123744               13.01068328                1.00000000               -0.02498860               -0.02513016                0.08333507                0.00010420               -0.00407079               -0.00107691
               2.00081619                0.00068298               13.01064334                0.01000000               -0.01753314               -0.02532885                0.08397740                0.00603081                0.02327158               -0.00170356
               3.00071633                0.00025000               13.01115761                0.01000000               -0.01139131               -0.02890298                0.09199294               -0.00002536                0.06172339               -0.00694154
               4.00058836                0.00032526               13.01183575                0.01000001               -0.01901894               -0.02722552                0.09915503                0.01318816                0.08667734               -0.01150984
               5.00033596                0.00098518               13.01282635                0.01000000               -0.04609941               -0.02679629                0.10624014                0.04109711                0.12059664               -0.01655725
               5.99966637                0.00247525               13.01422748                0.38066888               -0.05062320               -0.03393199                0.11445527                0.03781591                0.07558817               -0.00102160
               6.99932349                0.00320128               13.01458405                1.00000000               -0.03457020               -0.03425027                0.11592034                0.00004609                0.01534418               -0.00368195
               7.99897497                0.00391786               13.01477718                0.99999999               -0.03494522               -0.03441552                0.11645688                0.00011286                0.00842345               -0.00043276
               8.99862459                0.00462404               13.01499389                1.00000000               -0.03514709               -0.03460499                0.11709891                0.00010781                0.00767578                0.00089596
               9.99827203                0.00531945               13.01517158                1.00000000               -0.03525589               -0.03479827                0.11773940                0.00065117                0.00570129                0.00522701
               0.00187550                1.00154535               13.01075913                1.00000000               -0.02516216               -0.02505623                0.08355012                0.00013672                0.00101687                0.00367862
               1.00162388                1.00098614               13.01072686                0.01000001               -0.02526434               -0.02526241                0.08419221                0.00000859                0.00267726               -0.00280165
               2.00137022                1.00042969               13.01072781                0.01000000               -0.03644706               -0.03159950                0.08483450               -0.01085854                0.02775947                0.00451645
               3.00089494                0.99996097               13.01119613                0.01000001               -0.05087823               -0.02666454                0.09260025                0.00002522                0.05267809               -0.00993256
               4.00035265                1.00005300               13.01176138                0.01000000               -0.06115048               -0.02564086                0.09844983                0.03002356                0.06383963               -0.01595300
               4.99967193                1.00071722               13.01254269                0.01000000               -0.07080849               -0.02743371                0.10415660                0.07079561                0.09150431               -0.02027835
               5.99893648                1.00213593               13.01380315                0.01000000               -0.05346433               -0.05650938                0.11100386                0.06892706                0.06026598               -0.03210548
               6.99860264                1.00285878               13.01408638                1.00000000               -0.03358814               -0.03371822                0.11236216               -0.00011448                0.00625460               -0.00380645
               7.99826472                1.00357371               13.01426472                0.99999998               -0.03388867               -0.03389870                0.11297719                0.00002789                0.00123897               -0.00035008
               8.99792487                1.00427799               13.01444704                1.00000000               -0.03407947               -0.03408714                0.11362390                0.00002335                0.00094671                0.00048500
               9.99758313                1.00497147               13.01461989                0.99999999               -0.03417408               -0.03428082                0.11426630                0.00053617                0.00040680                0.00649064
               0.00243711                2.00129354               13.01080825                0.01000002               -0.02542814               -0.04065043                0.08440756               -0.02649535                0.00154823                0.02101422
               1.00218283                2.00073219               13.01073639                0.01000000               -0.04064608               -0.03808294                0.08504939               -0.03081676                0.01522158                0.01183601
               2.00162419                2.00005099               13.01093611                0.01000001               -0.05446507               -0.04007818                0.08998634               -0.02177211                0.02842974                0.00418314
               3.00109353                1.99971671               13.01117082                0.01000000               -0.05958016               -0.03179940                0.09366632                0.01677696                0.03574837               -0.01284315
               4.00043258                1.99981244               13.01157734                0.01000000               -0.07122920               -0.02961712                0.09804764                0.06086811                0.04741656               -0.02048209
               4.99966894                2.00043651               13.01215083                0.01000001               -0.07646148               -0.03589446                0.10230416                0.09892572                0.05085145               -0.02484683
               5.99890335                2.00134506               13.01275453                0.01000001               -0.08927601               -0.06329602                0.10567314                0.12118268                0.05867610               -0.04584836
               6.99788342                2.00252692               13.01358467                0.01000000               -0.06735183               -0.05346900                0.10883050                0.08250907                0.02848590               -0.01898885
               7.99755632                2.00323989               13.01375336                0.04477866               -0.03280639               -0.03279837                0.10948607                0.00098899               -0.00608348                0.01284371
               8.99722729                2.00394230               13.01389241                0.99999999               -0.03302597               -0.03304567                0.11016654                0.00002910               -0.00445277               -0.00195198
               9.99689580                2.00463383               13.01409493                0.99999999               -0.03314955               -0.03325231                0.11080759                0.00053743               -0.00138487                0.00645550
               0.00246829                3.00073234               13.01119692                0.01000001               -0.02181893               -0.04464869                0.09065403               -0.02190797                0.00117171                0.04083355
               1.00225010                3.00022448               13.01107129                0.01000001               -0.02590149               -0.05699636                0.09091000               -0.02468786                0.00598611                0.02213056
               2.00195026                2.99962812               13.01103276                0.01000000               -0.03905355               -0.05263455                0.09240739                0.00147755                0.01783099               -0.00260417
               3.00146903                2.99932498               13.01114195                0.01000000               -0.05500215               -0.04727205                0.09503713                0.04470318                0.03018832               -0.01452133
               4.00085022                2.99946066               13.01139940                0.01000001               -0.06756011               -0.04342885                0.09809135                0.09115840                0.03986371               -0.01887541
               5.00011783                2.99999933               13.01179068                0.01000000               -0.07902448               -0.04799451                0.10124456                0.13161037                0.04664849               -0.01827730
               5.99926973                3.00087001               13.01229371                0.01000001               -0.08799145               -0.05432486                0.10413187                0.15172661                0.04505751               -0.01096097
               6.99835800                3.00178940               13.01278265                0.01000000               -0.12003025               -0.06586814                0.10518720                0.17679086                0.04929097               -0.01412439
               7.99686912                3.00291774               13.01350507                0.01000001               -0.09132445               -0.06163662                0.10186988                0.15521640               -0.00118554                0.01006378
               8.99653151                3.00361708               13.01329807                0.01000000               -0.03291569               -0.07364244                0.10672608                0.12593030               -0.02420756                0.02039207
               9.99621081                3.00430642               13.01354482                0.17054496               -0.03207008               -0.13384602                0.10733874                0.14664274               -0.00166916                0.01493319
               0.00301466                4.00040056               13.01163560                0.01000000               -0.02213801               -0.03270395                0.09540280                0.00302832               -0.00185436                0.04878099
               1.00279328                3.99959226               13.01135236                0.01000000               -0.02307136               -0.06817656                0.09424691                0.01303476                0.00357458                0.01637824
               2.00255324                3.99899829               13.01115366                0.01000000               -0.03191139               -0.06919865                0.09450231                0.04351849                0.01663252               -0.00662591
               3.00215506                3.99877127               13.01112179                0.01000001               -0.04859164               -0.06177065                0.09602987                0.08200365                0.03234290               -0.01738372
               4.00158140                3.99894386               13.01127965                0.01000000               -0.06316272               -0.05766562                0.09851613                0.12155034                0.04589565               -0.01623768
               5.00089180                3.99947662               13.01160663                0.01000000               -0.07167936               -0.05810248                0.10146455                0.15403964                0.05464656               -0.00675177
               6.00014782                4.00025856               13.01204650                0.01000000               -0.07601478               -0.06564759                0.10423335                0.18194628                0.05818416                0.00649636
               6.99937151                4.00120956               13.01255193                0.01000000               -0.06574237               -0.07354251                0.10603830                0.19836154                0.04995705                0.02333794
               7.99883297                4.00200716               13.01293843                0.01000001               -0.05071438               -0.09756699                0.10732293                0.22639901                0.03513563                0.02096456
               8.99835722                4.00246945               13.01319233                0.01000000               -0.01915019               -0.11797458                0.10848254                0.16800598                0.01372444                0.04884607
               9.99844997                4.00195691               13.01319252                0.01000001                0.00927472               -0.17663738                0.10874799                0.12861350                0.00606966                0.02444604
               0.00414545                5.00007826               13.01217764                0.01000001               -0.02323900               -0.04824269                0.09883928                0.03410010               -0.00097238                0.06507707
               1.00391306                4.99886095               13.01167498                0.01000000               -0.02519137               -0.07346003                0.09645183                0.06020955                0.00587776                0.01491961
               2.00364163                4.99824415               13.01127640                0.01000001               -0.03747643               -0.07426228                0.09562764                0.08553873                0.02186684               -0.01546914
               3.00316353                4.99808957               13.01111824                0.01000000               -0.05328767               -0.07213438                0.09669790                0.11892275                0.04246860               -0.02221474
               4.00257587                4.99830735               13.01123038                0.01000000               -0.06398078               -0.06541342                0.09915966                0.14468738                0.06150070               -0.01494075
               5.00188392                4.99883728               13.01156359                0.01000000               -0.07000795               -0.06550048                0.10249166                0.16405067                0.07440786                0.00098117
               6.00117571                4.99955705               13.01205291                0.01000000               -0.06536427               -0.07268537                0.10609895                0.17283147                0.07982253                0.02303263
               7.00057663                5.00031855               13.01260086                0.01000000               -0.05192524               -0.09019839                0.10947907                0.17359288                0.07658285                0.04592989
               8.00013721                5.00096640               13.01309327                0.01000000               -0.03173818               -0.10635246                0.11223264                0.15403082                0.06227012                0.06902144
               8.99994187                5.00125759               13.01338293                0.01000000               -0.01645302               -0.11463496                0.11354305                0.10915323                0.03711817                0.07956064
               9.99980815                5.00077367               13.01334173                0.01000000               -0.01337218               -0.09031324                0.11277561                0.05445328                0.02268493                0.06722792
               0.00613128                5.99943571               13.01299719                0.90035126               -0.02997024               -0.04770191                0.10271269                0.03336275               -0.00373927                0.04029026
               1.00583158                5.99812306               13.01208563                0.01000000               -0.05479465               -0.05163027                0.09727207                0.06482735                0.00535825                0.00364651
               2.00503539                5.99751305               13.01135588                0.01000001               -0.06806329               -0.08542477                0.09590592                0.12034310                0.02449091               -0.03220922
               3.00447032                5.99732858               13.01110699                0.01000001               -0.06539759               -0.07000100                0.09679276                0.14054925                0.05985207               -0.02783020
               4.00372744                5.99763559               13.01123294                0.01000000               -0.07736049               -0.06642951                0.09981510                0.15826376                0.08405170               -0.01617216
               5.00292311                5.99816661               13.01163561                0.01000004               -0.08021317               -0.06313038                0.10403129                0.15942452                0.10097677                0.00509127
               6.00212318                5.99880485               13.01225408                0.01000001               -0.07445440               -0.06831074                0.10897854                0.14402395                0.11090798                0.03397157
               7.00143402                5.99940559               13.01298383                0.01000000               -0.05743129               -0.08507192                0.11409492                0.11575002                0.10989552                0.06876775
               8.00097455                5.99988011               13.01367062                0.01000000               -0.03505046               -0.10483083                0.11843504                0.08576861                0.09359255                0.10371309
               9.00073301                6.00017675               13.01410455                0.01000008               -0.02338475               -0.10494091                0.12082521                0.04980562                0.05728599                0.13008163
              10.00050685                6.00015065               13.01404752                0.01000002               -0.02261538               -0.05310507                0.11995286                0.02506569                0.03365313                0.13074819
               0.00743800                6.99912422               13.01333718                1.00000000               -0.03057291               -0.03140514                0.10469322                0.00025769               -0.00287853                0.01938361
               1.00713227                6.99782834               13.01232268                1.00000000               -0.02975142               -0.02975840                0.09911840               -0.00011122               -0.00601389               -0.00161014
               2.00684297                6.99653566               13.01124621                0.01000000               -0.06401475               -0.06302173                0.09374617                0.09748793                0.03753155               -0.03123052
               3.00585198                6.99668955               13.01110665                0.01000000               -0.09699261               -0.06994397                0.09644237                0.15090885                0.08525540               -0.03360562
               4.00490312                6.99697876               13.01125161                0.01000000               -0.09744138               -0.06394886                0.10037776                0.16435924                0.10711670               -0.02260030
               5.00390315                6.99757467               13.01177079                0.01000001               -0.10429536               -0.04661781                0.10557010                0.15146760                0.13141573                0.00525244
               6.00281721                6.99819084               13.01259336                0.01000000               -0.10433834               -0.04603136                0.11224478                0.10644170                0.14796113                0.03915547
               7.00181638                6.99861711               13.01363143                0.01000000               -0.08678965               -0.06198922                0.11975325                0.04772472                0.15225223                0.08220695
               8.00108142                6.99886978               13.01468789                0.01000000               -0.05744706               -0.09022695                0.12684022               -0.00373139                0.13495538                0.14433060
               9.00066744                6.99915877               13.01546139                0.01000000               -0.03598776               -0.10454914                0.13154027               -0.01999111                0.08378919                0.19656706
              10.00036166                6.99971157               13.01551259                0.01000000               -0.03057762               -0.05353183                0.13115394               -0.01714637                0.04753213                0.22944780
               0.00872819                7.99880761               13.01373782                0.99999999               -0.03102692               -0.03191315                0.10627071                0.00022702               -0.00081357                0.02276310
               1.00841792                7.99752790               13.01263108                1.00000000               -0.03021232               -0.03027338                0.10078753               -0.00002768               -0.00037632                0.00263398
               2.00812394                7.99625261               13.01153400                0.01000000               -0.06862642               -0.02854737                0.09529911                0.04733452                0.03063337               -0.01545085
               3.00704539                7.99592970               13.01105116                0.01000001               -0.09972220               -0.09894399                0.09760398                0.16789230                0.08022482               -0.06999211
               4.00612950                7.99635662               13.01121005                0.01000001               -0.11525095               -0.04129849                0.09973673                0.18411955                0.13201848               -0.02849240
               5.00474037                7.99723425               13.01191861                0.01000000               -0.14599646               -0.01391831                0.10678213                0.14127101                0.16302557                0.00340829
               6.00320957                7.99788423               13.01296955                0.01000000               -0.15154024               -0.01276626                0.11517754                0.07035800                0.18413614                0.03618870
               7.00170957                7.99816580               13.01437995                0.01000000               -0.14256521               -0.02254791                0.12541931               -0.01082915                0.21067836                0.07916241
               8.00035827                7.99807557               13.01620017                0.01000000               -0.11090857               -0.04818085                0.13791024               -0.09395335                0.20194101                0.15149049
               8.99949140                7.99808577               13.01761631                0.01000007               -0.06499742               -0.09346665                0.14689261               -0.14621490                0.13393436                0.34500255
               9.99905832                7.99908001               13.01816727                0.01000000               -0.04330793               -0.13502696                0.14949275               -0.10805300                0.08896857                0.34246461
               0.01000196                8.99848596               13.01414570                1.00000000               -0.03152525               -0.03240914                0.10786988                0.00023337                0.00230788                0.01832433
               1.00968671                8.99722288               13.01295606                0.99999999               -0.03070523               -0.03071882                0.10235004               -0.00001012                0.00123167                0.00207630
               2.00938786                8.99596471               13.01174566                0.99999999               -0.02904445               -0.02904465                0.09679686               -0.00003252               -0.00493531               -0.01143025
               3.00910582                8.99471067               13.01043620                0.01000000               -0.10534493               -0.07471915                0.09118698                0.17455092                0.09369680               -0.05877336
               4.00728096                8.99615279               13.01120471                0.01000000               -0.19524316                0.01432356                0.09955674                0.17658521                0.18053316               -0.02309456
               5.00520096                8.99729631               13.01202902                0.01000000               -0.19940693                0.01895315                0.10719437                0.09675222                0.18104751                0.00262121
               6.00329282                8.99793551               13.01324796                0.01000004               -0.18962498                0.01481991                0.11684187                0.03626415                0.20885625                0.02329834
               7.00140846                8.99816615               13.01498502                0.01000000               -0.20052156                0.01060961                0.12939084               -0.02295284                0.25443299                0.05084178
               7.99928239                8.99790617               13.01741825                0.01000001               -0.23348802                0.01049739                0.14608518               -0.09671063                0.38220666                0.10634854
               8.99673870                8.99728943               13.02200976                0.99999998               -0.15351377               -0.06616091                0.17727324               -0.16910843                0.23591860                0.22966223
               9.99621211                8.99701103               13.02186049                0.99999996               -0.05265837               -0.12914143                0.17336351               -0.15624564               -0.00100120                0.19252573
               0.01125902                9.99815942               13.01445776                1.00000000               -0.03200522               -0.03265323                0.10944578                0.00111532                0.01265820                0.01356541
               1.01093897                9.99691352               13.01325607                1.00000000               -0.03117597               -0.03093559                0.10392196                0.00084068                0.01589209                0.00072094
               2.01063550                9.99567172               13.01211944                0.99999998               -0.02953170               -0.02929862                0.09839194                0.00085420                0.01590920               -0.00356072
               3.01034833                9.99443532               13.01092106                0.01000000               -0.17799671               -0.02753512                0.09286058                0.17281958                0.08944242               -0.00414423
               4.00707557                9.99664309               13.01126069                0.01000002               -0.27278221                0.04903015                0.09891899                0.13836063                0.15100799               -0.01083485
               5.00489269                9.99761331               13.01207840                0.01000000               -0.20052798                0.03170083                0.10674991                0.04605012                0.17205340                0.00664571
               6.00306501                9.99818063               13.01328580                0.01000002               -0.18064145                0.02451108                0.11634095                0.01545271                0.20557752                0.01722628
               7.00127986                9.99837800               13.01509648                0.01000001               -0.18821167                0.02118422                0.12930913               -0.00761520                0.27525390                0.03154743
               7.99930077                9.99828552               13.01797106                0.01000000               -0.21377494                0.03793493                0.14881313               -0.07893391                0.36455988                0.08003944
               8.99700436                9.99676255               13.02183244                0.99999996               -0.14052826               -0.05268857                0.17354644               -0.06285012                0.20176462                0.00123193
               9.99649021                9.99649718               13.02168317                0.99999992               -0.05141536               -0.05138494                0.16963858                0.00127296                0.00111178               -0.00111018
               0.00130975                0.00178219               14.01154574                1.00000000               -0.02499265               -0.02500477                0.08308652                0.00015897               -0.00365626                0.00341033
               1.00105983                0.00117880               14.01151777                1.00000000               -0.02506135               -0.02515221                0.08356325                0.00007694               -0.00407079               -0.00107688
               2.00080853                0.00057718               14.01148343                0.01000000               -0.01614059               -0.02529981                0.08404000                0.00828182                0.02690983               -0.00170362
               3.00073702                0.00014156               14.01207605                0.01000000               -0.00933365               -0.02876694                0.09168568                0.00210960                0.06910643               -0.00642434
               4.00062185                0.00028796               14.01282486                0.01000001               -0.01951032               -0.02620155                0.09866529                0.01796120                0.09390076               -0.01152126
               5.00034681                0.00111236               14.01388597                0.01000002               -0.05409098               -0.02509790                0.10568507                0.05260529                0.12829344               -0.01683042
               5.99954003                0.00290664               14.01536893                0.36554830               -0.05739521               -0.03378515                0.11389724                0.05074760                0.07974159               -0.00099606
               6.99919891                0.00367947               14.01574163                1.00000000               -0.03444352               -0.03416701                0.11557671                0.00006761                0.01574010               -0.00377161
               7.99885116                0.00444336               14.01594094                0.99999999               -0.03489237               -0.03438555                0.11628378                0.00013791                0.00838621               -0.00044031
               8.99850106                0.00519725               14.01616489                1.00000000               -0.03514472               -0.03462610                0.11709774                0.00013316                0.00769601                0.00090038
               9.99814827                0.00594084               14.01634979                1.00000000               -0.03527882               -0.03487321                0.11791061                0.00065568                0.00572047                0.00524133
               0.00191473                1.00153214               14.01159506                1.00000000               -0.02516315               -0.02508452                0.08363682                0.00008804                0.00101696                0.00367888
               1.00166310                1.00092728               14.01156839                0.01000000               -0.02523829               -0.02523762                0.08411346                0.00000588                0.00267736               -0.00280171
               2.00140997                1.00032418               14.01157494                0.01000000               -0.03801884               -0.03203521                0.08459028               -0.00960537                0.03132306                0.00670078
               3.00090272                0.99985389               14.01212011                0.01000001               -0.05469511               -0.02637996                0.09218757                0.00471264                0.05900891               -0.00927347
               4.00031606                1.00002594               14.01274338                0.01000000               -0.06696031               -0.02482135                0.09794815                0.04007780                0.06922891               -0.01582045
               4.99956352                1.00086138               14.01358179                0.01000000               -0.07760540               -0.02698481                0.10365988                0.08918265                0.09722625               -0.02040005
               5.99876396                1.00256879               14.01491079                0.01000000               -0.05661471               -0.06258841                0.11058803                0.08539838                0.06370239               -0.03302497
               6.99843122                1.00333780               14.01520910                1.00000000               -0.03351532               -0.03365603                0.11216182               -0.00012453                0.00663482               -0.00387193
               7.99809365                1.00409950               14.01539439                0.99999998               -0.03387889               -0.03388959                0.11294563                0.00002688                0.00123925               -0.00035713
               8.99775365                1.00485099               14.01558398                1.00000000               -0.03412077               -0.03412899                0.11376287                0.00002241                0.00096569                0.00049872
               9.99741123                1.00559211               14.01576407                1.00000000               -0.03424112               -0.03437672                0.11457728                0.00051453                0.00042228                0.00650707
               0.00252124                2.00128050               14.01165122                0.01000000               -0.02533376               -0.04030579                0.08418718               -0.02597383                0.00154830                0.02373573
               1.00226790                2.00067405               14.01158495                0.01000000               -0.04157157               -0.03969145                0.08466363               -0.03064249                0.01740624                0.01441368
               2.00168981                1.99993648               14.01183395                0.01000001               -0.05691964               -0.04175910                0.08958416               -0.01871152                0.03247019                0.00729761
               3.00112951                1.99961396               14.01210529                0.01000000               -0.06369465               -0.03257224                0.09322234                0.02713942                0.03958630               -0.01180393
               4.00041592                1.99979153               14.01255550                0.01000000               -0.07709504               -0.03014427                0.09757658                0.07849847                0.05153263               -0.02001066
               4.99958761                2.00057266               14.01317163                0.01000001               -0.08221658               -0.03827397                0.10186223                0.12195767                0.05438823               -0.02455210
               5.99877159                2.00165488               14.01380974                0.01000001               -0.09609533               -0.07212262                0.10536662                0.14486073                0.06164040               -0.04661708
               6.99766570                2.00300635               14.01467278                0.01000001               -0.07165393               -0.05787356                0.10877101                0.09604732                0.02978156               -0.01885529
               7.99733851                2.00376557               14.01484883                0.04963482               -0.03284040               -0.03288690                0.10959576                0.00087987               -0.00604444                0.00963863
               8.99700890                2.00451467               14.01499545                0.99999999               -0.03310937               -0.03312734                0.11044365                0.00003124               -0.00441601               -0.00192214
               9.99667632                2.00525331               14.01520521                1.00000000               -0.03325764               -0.03339027                0.11125770                0.00051711               -0.00136915                0.00646810
               0.00260816                3.00072603               14.01210135                0.01000001               -0.02138845               -0.04413793                0.09024838               -0.02092132                0.00192861                0.04616944
               1.00239427                3.00013345               14.01197845                0.01000001               -0.02561657               -0.06123055                0.09053687               -0.02131262                0.00730572                0.02601220
               2.00209583                2.99948900               14.01195494                0.01000000               -0.04019061               -0.05656735                0.09203668                0.01113396                0.02039176               -0.00104274
               3.00159046                2.99920244               14.01209048                0.01000000               -0.05842491               -0.05036230                0.09466063                0.06142022                0.03355083               -0.01356328
               4.00092733                2.99942306               14.01237824                0.01000001               -0.07255682               -0.04620272                0.09769630                0.11416675                0.04347074               -0.01808076
               5.00013933                3.00009590               14.01280168                0.01000000               -0.08499202               -0.05220405                0.10090187                0.15889666                0.05000304               -0.01721570
               5.99922749                3.00112634               14.01333210                0.01000001               -0.09489227               -0.06000526                0.10373866                0.17881646                0.04769785               -0.00929300
               6.99824148                3.00218033               14.01383964                0.01000000               -0.13122833               -0.07298023                0.10564038                0.20408596                0.04730316               -0.01259254
               7.99660292                3.00344176               14.01450236                0.01000000               -0.09874763               -0.06609545                0.10017919                0.17689077               -0.00038402                0.01241569
               8.99626653                3.00418845               14.01436737                0.01000000               -0.03293091               -0.07912111                0.10713892                0.14228043               -0.02095247                0.02293904
               9.99594430                3.00492431               14.01462110                0.18323435               -0.03222238               -0.14689491                0.10792864                0.16553259               -0.00167169                0.01730064
               0.00328797                4.00039774               14.01258745                0.01000000               -0.02092917               -0.03397536                0.09500706                0.00749934               -0.00131788                0.05290354
               1.00307868                3.99944944               14.01229332                0.01000000               -0.02222364               -0.07482661                0.09398422                0.02261629                0.00481817                0.01837160
               2.00284350                3.99880513               14.01209752                0.01000000               -0.03274074               -0.07533916                0.09429083                0.06080760                0.01918136               -0.00583001
               3.00242386                3.99860671               14.01208096                0.01000001               -0.05188511               -0.06654819                0.09581623                0.10488194                0.03591614               -0.01689190
               4.00180579                3.99886747               14.01226359                0.01000000               -0.06808016               -0.06205768                0.09827366                0.14881099                0.05004454               -0.01528721
               5.00106226                3.99952858               14.01261975                0.01000001               -0.07711519               -0.06291122                0.10118390                0.18386034                0.05885029               -0.00488565
               6.00026349                4.00045477               14.01308790                0.01000000               -0.08151303               -0.07168061                0.10401961                0.21289464                0.06164702                0.00963399
               6.99943200                4.00154674               14.01361024                0.01000000               -0.06976433               -0.08027252                0.10583390                0.22902214                0.05292928                0.02783399
               7.99886820                4.00244366               14.01401712                0.01000002               -0.05300179               -0.10688931                0.10793089                0.25811242                0.03730011                0.03029918
               8.99837196                4.00293225               14.01427809                0.01000000               -0.01764777               -0.12884152                0.10875433                0.19023581                0.01499719                0.05530667
               9.99851525                4.00231541               14.01428214                0.01000002                0.01432856               -0.19471353                0.10920053                0.14543523                0.00727654                0.02955029
               0.00465475                5.00004652               14.01316432                0.01000000               -0.02155416               -0.05732837                0.09856159                0.04626989               -0.00013347                0.06849700
               1.00443921                4.99863692               14.01263893                0.01000000               -0.02500238               -0.08107482                0.09640175                0.07951099                0.00754452                0.01533977
               2.00415470                4.99798222               14.01223271                0.01000001               -0.04067270               -0.08029740                0.09567252                0.10915720                0.02506167               -0.01577221
               3.00362576                4.99787148               14.01208532                0.01000000               -0.05865131               -0.07774009                0.09672819                0.14633451                0.04696488               -0.02234003
               4.00298168                4.99818190               14.01222162                0.01000001               -0.06982600               -0.07022905                0.09910617                0.17412733                0.06688535               -0.01404542
               5.00222924                4.99883768               14.01258780                0.01000000               -0.07572282               -0.07052528                0.10235851                0.19441761                0.08017111                0.00334252
               6.00146722                4.99969273               14.01311273                0.01000000               -0.06981004               -0.07859439                0.10590401                0.20240895                0.08550677                0.02722822
               7.00083304                5.00057488               14.01369507                0.01000000               -0.05437801               -0.09785104                0.10934216                0.20098667                0.08164660                0.05246610
               8.00037966                5.00130398               14.01421372                0.01000000               -0.03167733               -0.11547840                0.11205499                0.17669222                0.06631485                0.07703262
               9.00019949                5.00161161               14.01451867                0.01000000               -0.01464876               -0.12398967                0.11363806                0.12431700                0.03949281                0.08845767
              10.00008669                5.00103004               14.01447090                0.01000000               -0.01128026               -0.09653555                0.11309700                0.06182484                0.02396895                0.07498098
               0.00703257                5.99925117               14.01402336                0.88648995               -0.02993719               -0.05531928                0.10246527                0.04749056               -0.00374077                0.04176960
               1.00673320                5.99782794               14.01305962                0.01000000               -0.06202459               -0.05525966                0.09747269                0.08268785                0.00732406                0.00359471
               2.00579208                5.99719918               14.01231654                0.01000001               -0.07911643               -0.09279936                0.09629843                0.14614124                0.02852855               -0.03420854
               3.00515087                5.99705191               14.01207579                0.01000001               -0.07349677               -0.07496925                0.09709632                0.16812155                0.06564212               -0.02855192
               4.00432214                5.99746289               14.01223186                0.01000000               -0.08555422               -0.07100484                0.09999997                0.18753963                0.09114566               -0.01552734
               5.00343979                5.99811808               14.01267594                0.01000000               -0.08738361               -0.06739788                0.10405101                0.18792384                0.10877693                0.00753580
               6.00257447                5.99888288               14.01334336                0.01000007               -0.07996520               -0.07299755                0.10888407                0.16953317                0.11895034                0.03874600
               7.00184048                5.99958972               14.01412375                0.01000000               -0.06045807               -0.09111080                0.11391826                0.13643566                0.11755397                0.07616873
               8.00136531                6.00013409               14.01485453                0.01000000               -0.03541181               -0.11209341                0.11830875                0.10087462                0.09983771                0.11371529
               9.00113225                6.00045246               14.01531260                0.01000002               -0.02252037               -0.11141817                0.12080091                0.05810089                0.06091570                0.14170907
              10.00091490                6.00038470               14.01524814                0.01000002               -0.02173429               -0.05351092                0.12019161                0.02903655                0.03564297                0.14217164
               0.00845103                6.99894013               14.01438364                1.00000000               -0.03060693               -0.03139727                0.10461321                0.00024427               -0.00296193                0.01968825
               1.00814496                6.99753173               14.01331586                1.00000000               -0.02987341               -0.02991621                0.09954327               -0.00017920               -0.00599886               -0.00135112
               2.00785356                6.99612623               14.01218842                0.01000001               -0.07102411               -0.06794782                0.09475210                0.11479699                0.04153135               -0.03298562
               3.00672448                6.99637210               14.01207588                0.01000000               -0.10936277               -0.07543180                0.09732830                0.17692579                0.09296090               -0.03477025
               4.00566630                6.99676180               14.01225673                0.01000002               -0.10783761               -0.06839135                0.10072063                0.19203895                0.11596908               -0.02279346
               5.00456772                6.99748972               14.01282744                0.01000000               -0.11400318               -0.04875148                0.10578169                0.17725366                0.14131371                0.00744460
               6.00338624                6.99823278               14.01371585                0.01000000               -0.11285912               -0.04779184                0.11226161                0.12651142                0.15869806                0.04387934
               7.00231054                6.99875266               14.01482836                0.01000000               -0.09259113               -0.06487397                0.11962904                0.06052401                0.16303829                0.09009754
               8.00153442                6.99906211               14.01595518                0.01000000               -0.05998234               -0.09472089                0.12663897                0.00224557                0.14429298                0.15663441
               9.00111090                6.99938325               14.01677615                0.01000000               -0.03657438               -0.10872899                0.13142079               -0.01839178                0.08939931                0.21229114
              10.00080293                6.99995982               14.01682495                0.01000001               -0.03079645               -0.05189302                0.13132379               -0.01732084                0.05052385                0.24671509
               0.00985427                7.99862323               14.01480035                0.99999999               -0.03107573               -0.03193976                0.10627257                0.00020013               -0.00079882                0.02281182
               1.00954352                7.99722962               14.01364107                1.00000000               -0.03033130               -0.03043044                0.10124052               -0.00006728               -0.00037705                0.00267074
               2.00924765                7.99584023               14.01249145                0.01000007               -0.07448524               -0.02883864                0.09621411                0.05430480                0.03400187               -0.01557750
               3.00805381                7.99554328               14.01202370                0.01000000               -0.11011756               -0.10963080                0.09738996                0.19355923                0.08903527               -0.07511413
               4.00704530                7.99609507               14.01221203                0.01000002               -0.12699628               -0.04331268                0.10061315                0.21244250                0.14206020               -0.02897406
               5.00551389                7.99714305               14.01298777                0.01000000               -0.16017688               -0.01211913                0.10713240                0.16385769                0.17498579                0.00505702
               6.00384176                7.99792705               14.01412227                0.01000000               -0.16461294               -0.01069104                0.11534673                0.08437275                0.19743786                0.04013606
               7.00222163                7.99829224               14.01563397                0.01000003               -0.15310649               -0.02122223                0.12537825               -0.00549849                0.22579682                0.08623047
               8.00077963                7.99823967               14.01757815                0.01000002               -0.11774629               -0.04814978                0.13767367               -0.09683168                0.21637258                0.16380092
               8.99986670                7.99827788               14.01908402                0.01000007               -0.06821387               -0.09433203                0.14664540               -0.15537224                0.14342005                0.37070790
               9.99941535                7.99934684               14.01966233                0.01000000               -0.04513498               -0.13814239                0.14951687               -0.11470472                0.09512926                0.36648530
               0.01124225                8.99830134               14.01522397                1.00000000               -0.03156378               -0.03240599                0.10779039                0.00021243                0.00230091                0.01832438
               1.01092662                8.99692312               14.01398138                0.99999999               -0.03081274               -0.03084622                0.10271702               -0.00003142                0.00120297                0.00202946
               2.01062600                8.99554946               14.01271763                1.00000000               -0.02928973               -0.02930509                0.09759663               -0.00007060               -0.00501664               -0.01154429
               3.01034082                8.99417948               14.01135417                0.01000002               -0.11553083               -0.08213577                0.09240170                0.19961293                0.10038845               -0.06235192
               4.00831538                8.99589555               14.01220476                0.01000000               -0.21639609                0.01919153                0.10037901                0.20257648                0.19325300               -0.02375476
               5.00601290                8.99724734               14.01310386                0.01000000               -0.21954402                0.02463484                0.10776977                0.11149400                0.19393303                0.00359851
               6.00392450                8.99801896               14.01441818                0.01000001               -0.20624763                0.01985937                0.11718220                0.04347658                0.22384009                0.02561103
               7.00188795                8.99832822               14.01627961                0.01000002               -0.21561761                0.01509699                0.12950692               -0.02167851                0.27273703                0.05513413
               7.99961215                8.99809911               14.01887849                0.01000001               -0.24958326                0.01543139                0.14595247               -0.10073605                0.40965500                0.11465201
               8.99689628                8.99749661               14.02377903                0.99999998               -0.16206191               -0.06535263                0.17658280               -0.17916726                0.25315779                0.24642194
               9.99637091                8.99719697               14.02359397                0.99999999               -0.05253705               -0.13324102                0.17333047               -0.16722500               -0.00100192                0.20612702
               0.01261497                9.99797511               14.01555149                1.00000000               -0.03201998               -0.03262301                0.10927917                0.00102996                0.01266287                0.01355521
               1.01229477                9.99661269               14.01429680                1.00000000               -0.03125476               -0.03104230                0.10420106                0.00076613                0.01590433                0.00068391
               2.01198987                9.99525412               14.01310707                0.99999998               -0.02973953               -0.02953341                0.09910654                0.00078084                0.01593165               -0.00361042
               3.01169998                9.99390056               14.01185559                0.01000000               -0.19804527               -0.02789194                0.09401601                0.19715437                0.09511625               -0.00415503
               4.00802897                9.99647890               14.01225480                0.01000003               -0.30398082                0.05833459                0.09986077                0.15811788                0.16204764               -0.01144229
               5.00562036                9.99763574               14.01314961                0.01000000               -0.21992775                0.03884070                0.10744897                0.05301309                0.18440439                0.00729977
               6.00363041                9.99832423               14.01445199                0.01000001               -0.19562316                0.03052771                0.11686509                0.01851305                0.22030549                0.01857461
               7.00170790                9.99859418               14.01639156                0.01000000               -0.20169498                0.02659666                0.12967869               -0.00680145                0.29481028                0.03389472
               7.99959651                9.99854830               14.01946006                0.01000000               -0.22611987                0.04491845                0.14896960               -0.08273142                0.38996870                0.08573343
               8.99718550                9.99697082               14.02356808                0.99999993               -0.14631901               -0.05257856                0.17358183               -0.06439195                0.21588732                0.00123312
               9.99667013                9.99668202               14.02338301                0.99999995               -0.05153682               -0.05149502                0.17032908                0.00104172                0.00111167               -0.00111180
               0.00129878                0.00176422               15.01237857                1.00000000               -0.02508888               -0.02507778                0.08348009                0.00008585               -0.00365633                0.00341052
               1.00104789                0.00111466               15.01235454                1.00000000               -0.02513406               -0.02517424                0.08379142                0.00004971               -0.00407081               -0.00107691
               2.00079610                0.00046589               15.01232414                0.01000035               -0.01454303               -0.02527082                0.08410270                0.01082169                0.03044051               -0.00170363
               3.00075703                0.00003339               15.01299132                0.01000000               -0.00698211               -0.02871244                0.09135791                0.00456001                0.07620941               -0.00588383
               4.00065646                0.00025779               15.01380905                0.01000001               -0.01996348               -0.02518347                0.09816718                0.02308685                0.10089456               -0.01152087
               5.00035776                0.00125694               15.01494005                0.01000000               -0.06254502               -0.02333693                0.10513058                0.06481974                0.13582542               -0.01712385
               5.99940556                0.00337161               15.01650543                0.35036074               -0.06457425               -0.03369899                0.11341128                0.06446585                0.08382723               -0.00096731
               6.99906628                0.00419091               15.01689559                1.00000000               -0.03430626               -0.03407257                0.11519308                0.00007468                0.01611314               -0.00386287
               7.99871943                0.00500217               15.01710286                0.99999999               -0.03483086               -0.03434881                0.11608580                0.00016692                0.00834955               -0.00044702
               8.99836966                0.00580387               15.01733585                1.00000000               -0.03514010               -0.03464606                0.11709139                0.00016224                0.00771867                0.00090485
               9.99801663                0.00659573               15.01752979                1.00000000               -0.03530299               -0.03495293                0.11809579                0.00066299                0.00574114                0.00525647
               0.00194920                1.00151344               15.01243187                1.00000000               -0.02516412               -0.02511278                0.08372350                0.00003938                0.00101700                0.00367915
               1.00169755                1.00086292               15.01240913                0.01000000               -0.02521225               -0.02521284                0.08403475                0.00000315                0.00267749               -0.00280176
               2.00144495                1.00021318               15.01241962                0.01000000               -0.03954390               -0.03244752                0.08434616               -0.00797481                0.03488024                0.00895999
               3.00090668                0.99974627               15.01303988                0.01000001               -0.05846996               -0.02615622                0.09176000                0.00997312                0.06526715               -0.00849970
               4.00027555                1.00000596               15.01372034                0.01000000               -0.07288125               -0.02402153                0.09743888                0.05088714                0.07452675               -0.01562367
               4.99944905                1.00102357               15.01461589                0.01000000               -0.08461618               -0.02656770                0.10316133                0.10866809                0.10290570               -0.02050515
               5.99858323                1.00303462               15.01601491                0.01000000               -0.05986557               -0.06901001                0.11024563                0.10280324                0.06710843               -0.03400287
               6.99825174                1.00385018               15.01632962                1.00000000               -0.03343035               -0.03358188                0.11192061               -0.00011225                0.00698997               -0.00393881
               7.99791462                1.00465868               15.01652363                0.99999999               -0.03386185               -0.03387402                0.11289142                0.00002781                0.00123858               -0.00036278
               8.99757450                1.00545741               15.01672230                1.00000000               -0.03416114               -0.03417008                0.11389969                0.00002247                0.00098528                0.00051198
               9.99723140                1.00624620               15.01691144                0.99999999               -0.03431048               -0.03447796                0.11490563                0.00049275                0.00043814                0.00652401
               0.00260061                2.00126196               15.01249199                0.01000001               -0.02523942               -0.03969709                0.08396691               -0.02498226                0.00154841                0.02652564
               1.00234822                2.00061040               15.01242966                0.01000000               -0.04236783               -0.04132836                0.08427800               -0.02999794                0.01966582                0.01715883
               2.00175326                1.99981694               15.01272779                0.01000001               -0.05922531               -0.04347386                0.08920409               -0.01495135                0.03652240                0.01060829
               3.00116371                1.99951027               15.01303526                0.01000000               -0.06781787               -0.03341104                0.09275593                0.03852462                0.04339406               -0.01054052
               4.00039690                1.99977736               15.01352888                0.01000000               -0.08306235               -0.03075057                0.09710109                0.09740982                0.05558616               -0.01938944
               4.99950246                2.00072558               15.01418807                0.01000001               -0.08809468               -0.04083357                0.10143286                0.14645126                0.05786618               -0.02422983
               5.99863500                2.00199141               15.01486187                0.01000000               -0.10312504               -0.08143146                0.10505004                0.16980913                0.06459630               -0.04740711
               6.99743996                2.00351927               15.01576009                0.01000003               -0.07611201               -0.06250467                0.10866949                0.11076719                0.03110036               -0.01881164
               7.99711276                2.00432469               15.01594528                0.05351778               -0.03286850               -0.03304619                0.10968507                0.00101402               -0.00600665                0.00676509
               8.99678259                2.00512046               15.01610128                0.99999999               -0.03319316               -0.03320931                0.11072348                0.00003455               -0.00438049               -0.00189399
               9.99644890                2.00590617               15.01632009                0.99999998               -0.03336928               -0.03353480                0.11172924                0.00049624               -0.00135356                0.00648111
               0.00275267                3.00071950               15.01300188                0.01000001               -0.02100442               -0.04331508                0.08987440               -0.01951781                0.00267051                0.05161541
               1.00254262                3.00003635               15.01288203                0.01000001               -0.02533027               -0.06555948                0.09019751               -0.01722239                0.00860692                0.03024663
               2.00224606                2.99934370               15.01287350                0.01000000               -0.04129411               -0.06065062                0.09167298                0.02188334                0.02289849                0.00088390
               3.00171674                2.99907804               15.01303516                0.01000000               -0.06188157               -0.05358367                0.09429031                0.07954231                0.03681316               -0.01228664
               4.00100843                2.99939095               15.01335332                0.01000001               -0.07763542               -0.04913097                0.09732096                0.13877291                0.04691619               -0.01707193
               5.00016403                3.00020690               15.01380872                0.01000000               -0.09113549               -0.05663991                0.10053154                0.18785383                0.05325857               -0.01606665
               5.99918572                3.00140599               15.01436848                0.01000000               -0.10151170               -0.06604006                0.10351588                0.20742244                0.05010881               -0.00766129
               6.99813380                3.00260009               15.01489545                0.01000000               -0.14260068               -0.08042324                0.10529567                0.23263375                0.04591744               -0.01119602
               7.99633371                3.00399776               15.01550866                0.01000007               -0.10700408               -0.07114570                0.10324965                0.19957467               -0.00045847                0.01491073
               8.99599372                3.00479322               15.01544085                0.01000000               -0.03318949               -0.08480923                0.10756154                0.15936454               -0.01803122                0.02538299
               9.99566992                3.00557550               15.01570340                0.19732774               -0.03237995               -0.16040260                0.10854336                0.18515270               -0.00167376                0.01953547
               0.00357655                4.00039566               15.01353574                0.01000000               -0.01969817               -0.03536096                0.09469228                0.01240062               -0.00084744                0.05726036
               1.00337957                3.99929922               15.01323204                0.01000000               -0.02136611               -0.08174518                0.09379703                0.03306009                0.00594683                0.02078259
               2.00314923                3.99860392               15.01303948                0.01000000               -0.03361292               -0.08170073                0.09413114                0.07948934                0.02154313               -0.00457582
               3.00270731                3.99843859               15.01303812                0.01000001               -0.05528615               -0.07150519                0.09563366                0.12940027                0.03924825               -0.01601326
               4.00204351                3.99879474               15.01324512                0.01000000               -0.07314047               -0.06663911                0.09804837                0.17784284                0.05391980               -0.01407710
               5.00124450                3.99959278               15.01363030                0.01000001               -0.08266234               -0.06794791                0.10093839                0.21540269                0.06275950               -0.00286665
               6.00039026                4.00067060               15.01412689                0.01000000               -0.08718173               -0.07799134                0.10378673                0.24554396                0.06493507                0.01269577
               6.99950087                4.00191081               15.01466861                0.01000007               -0.07395656               -0.08728605                0.10592019                0.26029754                0.05564276                0.03232084
               7.99891113                4.00290178               15.01509704                0.01000000               -0.05543620               -0.11640568                0.10779975                0.29098327                0.03947814                0.03864266
               8.99839214                4.00342428               15.01536742                0.01000000               -0.01618678               -0.14004946                0.10916925                0.21385821                0.01615623                0.06135642
               9.99858739                4.00269811               15.01537653                0.01000002                0.01952493               -0.21341062                0.10967574                0.16304098                0.00837957                0.03440383
               0.00519357                5.00001228               15.01414887                0.01000005               -0.01980091               -0.06719390                0.09845417                0.05928707                0.00059853                0.07209777
               1.00499556                4.99840145               15.01360301                0.01000000               -0.02485508               -0.08905962                0.09650278                0.10013587                0.00902363                0.01617162
               2.00469647                4.99770969               15.01318985                0.01000001               -0.04408190               -0.08653765                0.09581106                0.13435303                0.02793145               -0.01555253
               3.00411393                4.99764794               15.01305280                0.01000000               -0.06426879               -0.08358091                0.09680717                0.17545039                0.05107643               -0.02200226
               4.00341110                4.99805816               15.01321251                0.01000001               -0.07588508               -0.07524035                0.09909084                0.20533436                0.07184908               -0.01284576
               5.00259622                4.99884794               15.01361076                0.01000000               -0.08162590               -0.07575525                0.10224883                0.22653232                0.08552025                0.00584838
               6.00177858                4.99984616               15.01417099                0.01000001               -0.07438234               -0.08469729                0.10576291                0.23352735                0.09078857                0.03144266
               7.00110858                5.00085437               15.01478771                0.01000001               -0.05693395               -0.10575660                0.10919487                0.22982715                0.08646788                0.05876577
               8.00063990                5.00166965               15.01533437                0.01000000               -0.03170174               -0.12444106                0.11206967                0.20045948                0.07014329                0.08481230
               9.00047454                5.00199223               15.01565569                0.01000000               -0.01284160               -0.13354148                0.11376626                0.14016028                0.04172166                0.09696180
              10.00038307                5.00130729               15.01560367                0.01000000               -0.00914756               -0.10290412                0.11347782                0.06956712                0.02520304                0.08241617
               0.00798396                5.99905178               15.01504650                0.87023337               -0.02990751               -0.06356426                0.10233530                0.06266106               -0.00366410                0.04342296
               1.00768488                5.99751802               15.01403509                0.01000000               -0.06970802               -0.05907865                0.09780070                0.10166678                0.00914237                0.00386075
               2.00658980                5.99687317               15.01328184                0.01000003               -0.09085211               -0.10043218                0.09682390                0.17330295                0.03224850               -0.03554621
               3.00586784                5.99676697               15.01304891                0.01000000               -0.08197997               -0.08008575                0.09753956                0.19728633                0.07087711               -0.02875556
               4.00495020                5.99728994               15.01323294                0.01000000               -0.09403434               -0.07577234                0.10022584                0.21852743                0.09764331               -0.01456153
               5.00398715                5.99807768               15.01371663                0.01000001               -0.09479112               -0.07181001                0.10410134                0.21803997                0.11599297                0.01015791
               6.00305437                5.99897666               15.01443176                0.01000001               -0.08566140               -0.07783238                0.10881011                0.19648383                0.12647868                0.04350507
               7.00227392                5.99979567               15.01526219                0.01000000               -0.06359594               -0.09727635                0.11378250                0.15827680                0.12474068                0.08340988
               8.00178246                6.00041296               15.01603679                0.01000000               -0.03581096               -0.11953971                0.11817457                0.11686784                0.10575337                0.12334371
               9.00155771                6.00075345               15.01652057                0.01000001               -0.02169188               -0.11795307                0.12081340                0.06690925                0.06439649                0.15292584
              10.00134862                6.00064003               15.01645135                0.01000001               -0.02090874               -0.05378008                0.12046305                0.03323206                0.03757493                0.15323879
               0.00951432                6.99874100               15.01542944                0.99999999               -0.03068027               -0.03141322                0.10468261                0.00022963               -0.00295004                0.02019054
               1.00920751                6.99721988               15.01431354                1.00000000               -0.03003686               -0.03011141                0.10010027               -0.00027736               -0.00590880               -0.00087022
               2.00891358                6.99570104               15.01314125                0.01000000               -0.07823137               -0.07306574                0.09587741                0.13289493                0.04519975               -0.03443275
               3.00764289                6.99604623               15.01305321                0.01000000               -0.12213197               -0.08089202                0.09804493                0.20396743                0.10003044               -0.03540016
               4.00647094                6.99654272               15.01326602                0.01000007               -0.11862927               -0.07304179                0.10115803                0.22109761                0.12390534               -0.02245143
               5.00527030                6.99741174               15.01388642                0.01000001               -0.12403403               -0.05093535                0.10601623                0.20447471                0.15052131                0.00978503
               6.00399026                6.99828951               15.01483859                0.01000000               -0.12162419               -0.04960197                0.11229382                0.14774282                0.16878833                0.04858986
               7.00283782                6.99890884               15.01602401                0.01000000               -0.09853896               -0.06782577                0.11951086                0.07425200                0.17324359                0.09780236
               8.00201948                6.99927885               15.01722067                0.01000000               -0.06260833               -0.09923399                0.12646197                0.00887703                0.15316031                0.16856384
               9.00158565                6.99963317               15.01808980                0.01000000               -0.03724679               -0.11282010                0.13131734               -0.01646281                0.09474196                0.22749592
              10.00127454                7.00023169               15.01813907                0.01000001               -0.03111066               -0.04996636                0.13150673               -0.01736532                0.05340903                0.26349302
               0.01103079                7.99842352               15.01586327                0.99999999               -0.03115019               -0.03198438                0.10635492                0.00016924               -0.00078670                0.02289865
               1.01071929                7.99691579               15.01465589                1.00000000               -0.03047228               -0.03060730                0.10176098               -0.00010373               -0.00039421                0.00272812
               2.01042134                7.99541185               15.01345828                0.01000000               -0.08068877               -0.02914199                0.09717692                0.06172489                0.03678584               -0.01576796
               3.00910551                7.99514913               15.01299896                0.01000007               -0.12073528               -0.12072434                0.09789527                0.22004081                0.09548597               -0.07834791
               4.00800664                7.99582910               15.01322231                0.01000001               -0.13878300               -0.04538961                0.10132354                0.24176098                0.15121739               -0.02936245
               5.00632985                7.99705897               15.01406126                0.01000000               -0.17472558               -0.01026496                0.10755383                0.18757104                0.18612683                0.00682205
               6.00451213                7.99798462               15.01527648                0.01000000               -0.17801130               -0.00857480                0.11550166                0.09919007                0.21000987                0.04407674
               7.00276963                7.99843916               15.01688751                0.01000003               -0.16382287               -0.01987985                0.12532729                0.00043626                0.24019117                0.09314044
               8.00123567                7.99842828               15.01895364                0.01000002               -0.12470062               -0.04807794                0.13742896               -0.09927614                0.23014514                0.17571009
               9.00027561                7.99849705               15.02054922                0.01000001               -0.07156967               -0.09496798                0.14639910               -0.16434230                0.15249947                0.39557695
               9.99980428                7.99964071               15.02115760                0.01000000               -0.04713381               -0.14093958                0.14954162               -0.12125120                0.10109146                0.38987875
               0.01253315                8.99810131               15.01630151                1.00000000               -0.03160473               -0.03240183                0.10771991                0.00018541                0.00228909                0.01828738
               1.01221710                8.99660773               15.01501040                0.99999999               -0.03092066               -0.03097184                0.10308367               -0.00004575                0.00116004                0.00194888
               2.01191474                8.99511820               15.01369759                1.00000000               -0.02953231               -0.02956050                0.09839178               -0.00009964               -0.00512552               -0.01170290
               3.01162646                8.99363174               15.01228423                0.01000000               -0.12592082               -0.08998851                0.09361132                0.22570697                0.10661179               -0.06541978
               4.00939632                8.99563493               15.01321229                0.01000000               -0.23801275                0.02425370                0.10112264                0.22952827                0.20518567               -0.02439043
               5.00686620                8.99720644               15.01418442                0.01000000               -0.24012238                0.03044253                0.10831581                0.12684124                0.20612365                0.00459158
               6.00459387                8.99811802               15.01559160                0.01000001               -0.22316579                0.02499390                0.11749142                0.05109210                0.23811914                0.02794180
               7.00240289                8.99851124               15.01757516                0.01000002               -0.23089030                0.01964151                0.12959304               -0.02011796                0.29029328                0.05934359
               7.99997607                8.99831729               15.02033730                0.01000001               -0.26582559                0.02043804                0.14580329               -0.10447392                0.43611764                0.12269482
               8.99708638                8.99773381               15.02554142                0.99999998               -0.17069309               -0.06439700                0.17589575               -0.18904260                0.26979828                0.26260207
               9.99656221                8.99741290               15.02532710                0.99999999               -0.05241688               -0.13719243                0.17329567               -0.17817592               -0.00100355                0.21933797
               0.01402165                9.99777548               15.01664335                1.00000000               -0.03201764               -0.03258248                0.10905915                0.00093779                0.01265695                0.01351889
               1.01370148                9.99629636               15.01534009                1.00000000               -0.03131568               -0.03113713                0.10441759                0.00069548                0.01590756                0.00062381
               2.01339534                9.99482064               15.01410157                1.00000000               -0.02992750               -0.02975572                0.09975366                0.00071052                0.01594794               -0.00368148
               3.01310293                9.99334936               15.01280138                0.01000001               -0.21864177               -0.02823757                0.09509661                0.22232344                0.10046092               -0.00416646
               4.00902251                9.99631417               15.01325791                0.01000002               -0.33596709                0.06792484                0.10070633                0.17854127                0.17247144               -0.01191773
               5.00638359                9.99766782               15.01422738                0.01000000               -0.23966715                0.04613848                0.10807136                0.06025447                0.19617132                0.00795918
               6.00422916                9.99848450               15.01562310                0.01000001               -0.21077974                0.03664808                0.11733274                0.02173709                0.23447760                0.01993381
               7.00216799                9.99883199               15.01769006                0.01000000               -0.21527681                0.03207446                0.13000260               -0.00586265                0.31376978                0.03622024
               7.99992363                9.99883704               15.02095045                0.01000001               -0.23844162                0.05197439                0.14909826               -0.08638829                0.41474154                0.09127013
               8.99739916                9.99720911               15.02530408                0.99999999               -0.15205203               -0.05247010                0.17361746               -0.06573062                0.22963067                0.00123349
               9.99688259                9.99689686               15.02508975                0.99999998               -0.05165736               -0.05160383                0.17101738                0.00081273                0.00111267               -0.00111246
               0.00128469                0.00174382               16.01321534                1.00000000               -0.02518508               -0.02515076                0.08387346                0.00001276               -0.00365641                0.00341073
               1.00103284                0.00104809               16.01319359                1.00000000               -0.02520675               -0.02519627                0.08401948                0.00002250               -0.00407088               -0.00107691
               2.00078056                0.00035215               16.01316548                0.01000000               -0.01282734               -0.02524186                0.08416541                0.01356062                0.03385364               -0.00170364
               3.00077629               -0.00007323               16.01390321                0.01000000               -0.00447696               -0.02868171                0.09102612                0.00724576                0.08302143               -0.00531307
               4.00069102                0.00023496               16.01478821                0.01000001               -0.02046755               -0.02413195                0.09765756                0.02852828                0.10765948               -0.01150924
               5.00036694                0.00141820               16.01598859                0.01000000               -0.07149885               -0.02149431                0.10457062                0.07768027                0.14317812               -0.01743448
               5.99926104                0.00386833               16.01763715                0.33528591               -0.07216017               -0.03360344                0.11291452                0.07893394                0.08778733               -0.00095859
               6.99892374                0.00473415               16.01804549                1.00000000               -0.03415734               -0.03396348                0.11476130                0.00008357                0.01642130               -0.00395657
               7.99857789                0.00559287               16.01826266                0.99999999               -0.03476211               -0.03430475                0.11586218                0.00019936                0.00831256               -0.00045341
               8.99822850                0.00644245               16.01850672                1.00000000               -0.03513415               -0.03466484                0.11707981                0.00019465                0.00774301                0.00090942
               9.99787521                0.00728267               16.01871171                0.99999999               -0.03532868               -0.03503797                0.11829639                0.00067306                0.00576320                0.00527232
               0.00198055                1.00149231               16.01326953                1.00000000               -0.02516508               -0.02514101                0.08381008               -0.00000926                0.00101707                0.00367939
               1.00172890                1.00079613               16.01324908                0.01000000               -0.02518622               -0.02518807                0.08395608                0.00000042                0.00267764               -0.00280181
               2.00147682                1.00009974               16.01326186                0.01000000               -0.04107744               -0.03286939                0.08410222               -0.00610385                0.03842587                0.01131517
               3.00090735                0.99963995               16.01395531                0.01000001               -0.06231185               -0.02594534                0.09132249                0.01569601                0.07144325               -0.00762746
               4.00023059                0.99999364               16.01469216                0.01000000               -0.07901427               -0.02321029                0.09692577                0.06235590                0.07973123               -0.01535204
               4.99932706                1.00120325               16.01564502                0.01000000               -0.09190920               -0.02614786                0.10266035                0.12918271                0.10852601               -0.02059003
               5.99839240                1.00353230               16.01711570                0.01000001               -0.06323784               -0.07575848                0.10989392                0.12108596                0.07043224               -0.03503315
               6.99806231                1.00439452               16.01744751                1.00000000               -0.03333313               -0.03349393                0.11163497               -0.00009572                0.00727940               -0.00400742
               7.99772574                1.00524982               16.01765222                0.99999995               -0.03383816               -0.03385159                0.11281452                0.00002872                0.00123709               -0.00036759
               8.99738554                1.00609580               16.01786197                1.00000000               -0.03420111               -0.03421053                0.11403477                0.00002267                0.00100585                0.00052557
               9.99704172                1.00693229               16.01806218                0.99999998               -0.03438252               -0.03458498                0.11525290                0.00047040                0.00045480                0.00654129
               0.00267687                2.00124100               16.01333056                0.01000001               -0.02514511               -0.03888610                0.08374666               -0.02363025                0.00154851                0.02940032
               1.00242542                2.00054433               16.01327051                0.01000000               -0.04311094               -0.04300610                0.08389255               -0.02901627                0.02202141                0.02008970
               2.00181465                1.99969477               16.01361804                0.01000001               -0.06145572               -0.04523736                0.08886571               -0.01063137                0.04083330                0.01430792
               3.00119631                1.99940786               16.01396041                0.01000000               -0.07199106               -0.03430467                0.09228552                0.05077707                0.04719953               -0.00905415
               4.00037483                1.99977076               16.01449752                0.01000000               -0.08921809               -0.03141356                0.09664485                0.11744457                0.05957639               -0.01860666
               4.99941194                2.00089524               16.01520028                0.01000001               -0.09416688               -0.04354586                0.10100727                0.17223391                0.06126248               -0.02384130
               5.99849149                2.00235316               16.01591074                0.01000003               -0.11038233               -0.09121027                0.10473056                0.19597814                0.06749304               -0.04827906
               6.99720430                2.00406428               16.01684617                0.01000000               -0.08071548               -0.06733155                0.10852707                0.12600134                0.03242120               -0.01906600
               7.99687719                2.00491584               16.01704253                0.05796038               -0.03289095               -0.03308045                0.10975479                0.00082900               -0.00596791                0.00639986
               8.99654648                2.00575824               16.01720992                0.99999999               -0.03327765               -0.03329171                0.11100553                0.00003796               -0.00434438               -0.00186531
               9.99621163                2.00659097               16.01743979                1.00000000               -0.03348469               -0.03368623                0.11222331                0.00047475               -0.00133765                0.00649405
               0.00290128                3.00071459               16.01389884                0.01000002               -0.02064808               -0.04225160                0.08953944               -0.01778080                0.00339162                0.05721958
               1.00269480                2.99993600               16.01378240                0.01000001               -0.02503099               -0.07001100                0.08988795               -0.01255726                0.00985472                0.03487676
               2.00240066                2.99919499               16.01378840                0.01000000               -0.04239504               -0.06487540                0.09132208                0.03357412                0.02529203                0.00325134
               3.00184690                2.99895386               16.01397628                0.01000000               -0.06542809               -0.05695255                0.09395218                0.09886328                0.03997304               -0.01063653
               4.00109210                2.99936537               16.01432466                0.01000001               -0.08287807               -0.05220049                0.09696170                0.16478251                0.05021282               -0.01582827
               5.00018934                3.00033234               16.01481231                0.01000000               -0.09745845               -0.06130133                0.10019845                0.21832271                0.05635097               -0.01481887
               5.99914293                3.00170809               16.01540241                0.01000000               -0.10848414               -0.07234924                0.10325098                0.23739726                0.05216378               -0.00606447
               6.99801965                3.00304789               16.01594555                0.01000000               -0.15472873               -0.08816845                0.10519833                0.26252620                0.04627665               -0.00973562
               7.99604835                3.00458821               16.01656735                0.01000000               -0.11542445               -0.07625185                0.10544607                0.22319264               -0.00041892                0.01715131
               8.99571117                3.00542997               16.01651860                0.01000002               -0.03313068               -0.09068515                0.10799101                0.17697383               -0.01761675                0.02777802
               9.99538574                3.00625857               16.01679197                0.21165461               -0.03254242               -0.17438805                0.10918411                0.20550899               -0.00167606                0.02162024
               0.00387842                4.00039596               16.01448129                0.01000000               -0.01845488               -0.03684336                0.09446391                0.01767224               -0.00045465                0.06195227
               1.00369387                3.99914411               16.01416926                0.01000000               -0.02050703               -0.08893494                0.09369479                0.04425986                0.00693890                0.02369675
               2.00346828                3.99839726               16.01398015                0.01000000               -0.03453422               -0.08830915                0.09404651                0.09937938                0.02369192               -0.00279997
               3.00300319                3.99826881               16.01399363                0.01000001               -0.05881389               -0.07666096                0.09549566                0.15536099                0.04231752               -0.01470750
               4.00229200                3.99872675               16.01422456                0.01000000               -0.07837539               -0.07141021                0.09785472                0.20845056                0.05751101               -0.01257101
               5.00143568                3.99966921               16.01463851                0.01000000               -0.08840572               -0.07320073                0.10071676                0.24856243                0.06637698               -0.00071306
               6.00052389                4.00090618               16.01516363                0.01000000               -0.09304909               -0.08456886                0.10360241                0.27974024                0.06804948                0.01579374
               6.99957470                4.00230091               16.01572865                0.01000001               -0.07824652               -0.09456407                0.10597609                0.29319957                0.05793881                0.03692865
               7.99895896                4.00339080               16.01617312                0.01000000               -0.05795497               -0.12638699                0.10787003                0.32549080                0.04146591                0.04490372
               8.99841560                4.00394454               16.01646147                0.01000000               -0.01471759               -0.15161356                0.10958433                0.23829327                0.01756225                0.06718205
               9.99866461                4.00310321               16.01647565                0.01000000                0.02490071               -0.23275152                0.11017904                0.18132054                0.00930706                0.03896036
               0.00575844                4.99997772               16.01513341                0.01000000               -0.01797379               -0.07784521                0.09853855                0.07314303                0.00118170                0.07604662
               1.00557870                4.99815730               16.01456899                0.01000000               -0.02474473               -0.09747411                0.09674988                0.12189567                0.01026569                0.01758284
               2.00526354                4.99742881               16.01414893                0.01000001               -0.04770356               -0.09301981                0.09606883                0.16091370                0.03043653               -0.01474406
               3.00462463                4.99742064               16.01402146                0.01000000               -0.07014186               -0.08962115                0.09694659                0.20612458                0.05476495               -0.02117457
               4.00386071                4.99793717               16.01420343                0.01000000               -0.08217362               -0.08042994                0.09910910                0.23814882                0.07637123               -0.01131538
               5.00298116                4.99886832               16.01463277                0.01000000               -0.08773324               -0.08118217                0.10216864                0.26023458                0.09044474                0.00852603
               6.00210604                5.00001671               16.01522799                0.01000007               -0.07910686               -0.09103943                0.10564754                0.26614377                0.09568071                0.03567220
               7.00139902                5.00115661               16.01587897                0.01000004               -0.05957506               -0.11396445                0.10909909                0.25996595                0.09096035                0.06484292
               8.00091454                5.00206047               16.01645511                0.01000000               -0.03172005               -0.13380699                0.11206470                0.22520652                0.07377866                0.09253373
               9.00076462                5.00239770               16.01679400                0.01000000               -0.01098717               -0.14338341                0.11392987                0.15665420                0.04388237                0.10506532
              10.00069480                5.00160354               16.01674046                0.01000000               -0.00698217               -0.10945679                0.11389454                0.07759588                0.02647013                0.08956850
               0.00898211                5.99883906               16.01607007                0.84966687               -0.03014117               -0.07252753                0.10287609                0.07882591               -0.00353698                0.04540587
               1.00868070                5.99719462               16.01501563                0.01000000               -0.07794449               -0.06318926                0.09879571                0.12170409                0.01070270                0.00454949
               2.00742322                5.99653686               16.01425302                0.01000003               -0.10316909               -0.10838322                0.09743513                0.20180525                0.03548063               -0.03618233
               3.00661732                5.99647639               16.01402658                0.01000000               -0.09079625               -0.08532944                0.09800626                0.22784844                0.07553963               -0.02848108
               4.00560730                5.99711815               16.01423638                0.01000000               -0.10282453               -0.08068825                0.10047023                0.25098406                0.10352875               -0.01324152
               5.00456083                5.99804557               16.01475797                0.01000007               -0.10244080               -0.07637663                0.10417487                0.24958328                0.12263396                0.01296022
               6.00355848                5.99908539               16.01551956                0.01000002               -0.09152849               -0.08284329                0.10876120                0.22472124                0.13348191                0.04826129
               7.00273026                6.00002162               16.01639940                0.01000000               -0.06682403               -0.10366109                0.11367203                0.18117952                0.13149363                0.09048227
               8.00222200                6.00071466               16.01721802                0.01000000               -0.03623197               -0.12719686                0.11809160                0.13362725                0.11135161                0.13263923
               9.00200562                6.00107687               16.01772886                0.01000001               -0.02085811               -0.12465887                0.12086267                0.07610654                0.06770916                0.16373708
              10.00180484                6.00091408               16.01765741                0.01000001               -0.02007806               -0.05400573                0.12076778                0.03760992                0.03944348                0.16393471
               0.01062383                6.99852717               16.01647730                0.99999999               -0.03088477               -0.03149590                0.10513284                0.00019529               -0.00290562                0.02089879
               1.01031498                6.99689352               16.01531787                1.00000000               -0.03029704               -0.03036485                0.10093976               -0.00030489               -0.00578456               -0.00020215
               2.01001789                6.99526114               16.01410597                0.01000000               -0.08573334               -0.07841693                0.09711746                0.15188033                0.04838408               -0.03550922
               3.00860031                6.99571405               16.01403678                0.01000000               -0.13533402               -0.08655453                0.09870859                0.23222220                0.10618945               -0.03571832
               4.00731120                6.99632340               16.01427989                0.01000001               -0.12973639               -0.07783016                0.10160996                0.25133933                0.13113062               -0.02177791
               5.00600558                6.99734079               16.01494777                0.01000004               -0.13433928               -0.05320375                0.10625184                0.23289351                0.15902398                0.01230487
               6.00462442                6.99835985               16.01596173                0.01000000               -0.13061242               -0.05149105                0.11233691                0.16999082                0.17822508                0.05329422
               7.00339334                6.99908338               16.01721857                0.01000000               -0.10462927               -0.07088591                0.11941000                0.08873608                0.18286152                0.10530970
               8.00253183                6.99951654               16.01848442                0.01000000               -0.06530009               -0.10387086                0.12630089                0.01599807                0.16156402                0.18007991
               9.00208733                6.99990452               16.01940250                0.01000000               -0.03796290               -0.11695333                0.13123712               -0.01429990                0.09983139                0.24215770
              10.00177258                7.00052343               16.01945509                0.01000001               -0.03147577               -0.04788460                0.13170929               -0.01733056                0.05619092                0.27976252
               0.01225331                7.99820914               16.01692745                0.99999998               -0.03126863               -0.03200771                0.10651207                0.00013981               -0.00077704                0.02301461
               1.01194063                7.99658733               16.01567628                1.00000000               -0.03065087               -0.03078132                0.10234975               -0.00009328               -0.00042080                0.00280380
               2.01164030                7.99496852               16.01443498                0.01000000               -0.08705643               -0.02945161                0.09819120                0.06948677                0.03921536               -0.01598829
               3.01019950                7.99474530               16.01398161                0.01000000               -0.13164771               -0.13226958                0.09869283                0.24755324                0.10145691               -0.08127897
               4.00900734                7.99556155               16.01423850                0.01000000               -0.15086234               -0.04756290                0.10193553                0.27219543                0.15970384               -0.02942362
               5.00718225                7.99698149               16.01513884                0.01000000               -0.18958208               -0.00838717                0.10794618                0.21222501                0.19651086                0.00870942
               6.00521570                7.99805557               16.01643230                0.01000000               -0.19169815               -0.00643363                0.11565847                0.11470611                0.22185045                0.04801295
               7.00334829                7.99860390               16.01814052                0.01000003               -0.17474372               -0.01854200                0.12527506                0.00682314                0.25386125                0.09987756
               8.00172083                7.99863724               16.02032673                0.01000002               -0.13177790               -0.04801643                0.13719142               -0.10148412                0.24327196                0.18721007
               9.00071273                7.99873780               16.02201200                0.01000000               -0.07502066               -0.09553610                0.14616405               -0.17328735                0.16117930                0.41959899
              10.00022041                7.99995639               16.02265316                0.01000000               -0.04923183               -0.14359215                0.14957589               -0.12779656                0.10686054                0.41263329
               0.01387025                8.99788701               16.01737836                1.00000000               -0.03165203               -0.03236697                0.10765562                0.00015346                0.00227698                0.01823907
               1.01355373                8.99627789               16.01604305                0.99999999               -0.03102995               -0.03107699                0.10344466               -0.00004183                0.00111341                0.00185535
               2.01324965                8.99467211               16.01468547                1.00000000               -0.02976875               -0.02979940                0.09917824               -0.00009959               -0.00524453               -0.01187801
               3.01295835                8.99306866               16.01322639                0.01000000               -0.13653679               -0.09811797                0.09482151                0.25266978                0.11237765               -0.06816743
               4.01051892                8.99537215               16.01422722                0.01000000               -0.26011457                0.02938830                0.10186463                0.25747213                0.21631961               -0.02480650
               5.00775606                8.99717305               16.01527018                0.01000000               -0.26113888                0.03637503                0.10882520                0.14276881                0.21763362                0.00564803
               6.00529614                8.99823118               16.01676801                0.01000000               -0.24039717                0.03021749                0.11778042                0.05905437                0.25170288                0.03027329
               7.00294812                8.99871254               16.01887147                0.01000002               -0.24639445                0.02424490                0.12966421               -0.01836547                0.30711111                0.06346446
               8.00036825                8.99855621               16.02179455                0.01000001               -0.28228372                0.02550766                0.14564700               -0.10811243                0.46161332                0.13046811
               8.99730245                8.99799380               16.02729695                0.99999998               -0.17943863               -0.06338135                0.17521208               -0.19892734                0.28584812                0.27819962
               9.99677948                8.99765158               16.02705988                0.99999999               -0.05229695               -0.14109620                0.17325995               -0.18919042               -0.00100516                0.23215613
               0.01547463                9.99756180               16.01773267                0.99999999               -0.03199292               -0.03252124                0.10876799                0.00083615                0.01264932                0.01347762
               1.01515470                9.99596579               16.01638515                0.99999998               -0.03135429               -0.03121055                0.10455120                0.00063340                0.01591037                0.00055706
               2.01484754                9.99437254               16.01510214                1.00000000               -0.03009189               -0.02995730                0.10031405                0.00064639                0.01596496               -0.00376094
               3.01455286                9.99278294               16.01375753                0.01000001               -0.23975714               -0.02857208                0.09608197                0.24828921                0.10547126               -0.00417874
               4.01005240                9.99614931               16.01426892                0.01000004               -0.36871301                0.07771665                0.10147318                0.19965111                0.18230215               -0.01226287
               5.00717860                9.99770900               16.01531103                0.01000000               -0.25975536                0.05359492                0.10863952                0.06778377                0.20740015                0.00865340
               6.00485729                9.99865992               16.01679864                0.01000001               -0.22613259                0.04287411                0.11776136                0.02510531                0.24812662                0.02130004
               7.00265595                9.99908880               16.01899161                0.01000000               -0.22899821                0.03762521                0.13030038               -0.00484320                0.33215541                0.03851727
               8.00027733                9.99914740               16.02244203                0.01000002               -0.25085680                0.05911898                0.14921312               -0.09002339                0.43890513                0.09664923
               8.99763881                9.99747017               16.02704043                0.99999999               -0.15781457               -0.05236223                0.17365434               -0.06701027                0.24300756                0.00123407
               9.99712103                9.99713446               16.02680336                1.00000000               -0.05177765               -0.05171202                0.17170218                0.00058459                0.00111355               -0.00111339
               0.00126914                0.00172405               17.01405604                1.00000000               -0.02528124               -0.02522371                0.08426668               -0.00006023               -0.00365649                0.00341098
               1.00101633                0.00098215               17.01403493                1.00000000               -0.02527943               -0.02521828                0.08424743               -0.00000469               -0.00407108               -0.00107688
               2.00076355                0.00023906               17.01400745                0.01000000               -0.01107971               -0.02521292                0.08422799                0.01640689                0.03715492               -0.00170374
               3.00079474               -0.00017708               17.01481184                0.01000000               -0.00196417               -0.02864011                0.09069518                0.01008313                0.08953528               -0.00472787
               4.00072427                0.00021970               17.01576220                0.01000001               -0.02111797               -0.02300964                0.09713696                0.03424275                0.11417191               -0.01146565
               5.00037238                0.00159538               17.01703146                0.01000001               -0.08099345               -0.01953097                0.10398565                0.09114744                0.15032133               -0.01775923
               5.99910440                0.00439534               17.01876372                0.32047879               -0.08015919               -0.03349744                0.11237445                0.09411602                0.09158282               -0.00095763
               6.99876919                0.00530773               17.01919081                1.00000000               -0.03399752               -0.03383864                0.11427731                0.00009432                0.01664717               -0.00405006
               7.99842445                0.00621399               17.01942010                0.99999999               -0.03468617               -0.03425287                0.11561183                0.00023489                0.00827534               -0.00045973
               8.99807547                0.00711154               17.01967744                1.00000000               -0.03512721               -0.03468249                0.11706299                0.00023021                0.00776796                0.00091412
               9.99772191                0.00800023               17.01989572                0.99999999               -0.03535624               -0.03512865                0.11851333                0.00068592                0.00578583                0.00528840
               0.00201044                1.00147181               17.01410807                1.00000000               -0.02516605               -0.02516924                0.08389656               -0.00005786                0.00101717                0.00367955
               1.00175878                1.00072997               17.01408825                0.01014880               -0.02516020               -0.02516331                0.08387750               -0.00000231                0.00267794               -0.00280178
               2.00150724                0.99998693               17.01410166                0.01000000               -0.04267675               -0.03312511                0.08385855               -0.00384855                0.04195491                0.01378648
               3.00090524                0.99953652               17.01486633                0.01000001               -0.06633827               -0.02573555                0.09088116                0.02180824                0.07751317               -0.00662895
               4.00018047                0.99998961               17.01565886                0.01000000               -0.08546062               -0.02234889                0.09641161                0.07439124                0.08482073               -0.01497282
               4.99919603                1.00140007               17.01666910                0.01000000               -0.09955430               -0.02569553                0.10214123                0.15064385                0.11406190               -0.02064409
               5.99818938                1.00406037               17.01821279                0.01000001               -0.06676105               -0.08281164                0.10950117                0.14019254                0.07363436               -0.03610531
               6.99786081                1.00496935               17.01856231                1.00000000               -0.03322437               -0.03339131                0.11130251               -0.00007491                0.00748737               -0.00407640
               7.99752490                1.00587146               17.01877992                1.00000000               -0.03380785               -0.03382197                0.11271440                0.00002890                0.00123503               -0.00037206
               8.99718465                1.00676472               17.01900299                1.00000000               -0.03424092               -0.03425046                0.11416833                0.00002257                0.00102693                0.00053937
               9.99684008                1.00764894               17.01921650                1.00000000               -0.03445750               -0.03469817                0.11562021                0.00044739                0.00047188                0.00655867
               0.00275168                2.00122066               17.01416692                0.01000000               -0.02505081               -0.03793266                0.08352634               -0.02203086                0.00154858                0.03238213
               1.00250117                2.00047888               17.01410751                0.01000000               -0.04358244               -0.04474158                0.08350730               -0.02763652                0.02449316                0.02321763
               2.00188003                1.99957655               17.01450510                0.01000001               -0.06364729               -0.04701551                0.08806844               -0.00599447                0.04484986                0.01803721
               3.00122822                1.99930821               17.01488097                0.01000000               -0.07657392               -0.03522166                0.09194495                0.06354333                0.05082224               -0.00730152
               4.00034855                1.99977272               17.01546177                0.01000000               -0.09568643               -0.03211331                0.09618392                0.13847252                0.06347562               -0.01764837
               4.99931449                2.00108147               17.01620822                0.01000001               -0.10047870               -0.04638913                0.10058115                0.19918263                0.06456805               -0.02337467
               5.99833897                2.00273911               17.01695648                0.01000000               -0.11789475               -0.10142813                0.10440478                0.22324043                0.07033292               -0.04919725
               6.99695660                2.00463991               17.01793063                0.01000000               -0.08546565               -0.07232222                0.10834364                0.14160149                0.03370656               -0.01912474
               7.99662966                2.00553755               17.01814038                0.06240159               -0.03290775               -0.03306332                0.10980487                0.00070030               -0.00592838                0.00550782
               8.99629844                2.00642653               17.01832139                0.99999999               -0.03336292               -0.03337450                0.11128943                0.00004127               -0.00430752               -0.00183619
               9.99596240                2.00730626               17.01856455                1.00000000               -0.03360400               -0.03384498                0.11274101                0.00045284               -0.00132133                0.00650686
               0.00305338                3.00071316               17.01479267                0.01000000               -0.02032266               -0.04102622                0.08925391               -0.01581049                0.00407215                0.06302805
               1.00285016                2.99983513               17.01467979                0.01000001               -0.02476838               -0.07461596                0.08961462               -0.00741077                0.01103259                0.03995518
               2.00255802                2.99904662               17.01469994                0.01000000               -0.04351087               -0.06945822                0.09111681                0.04578139                0.02761397                0.00594466
               3.00197994                2.99883209               17.01491421                0.01000000               -0.06906759               -0.06044721                0.09362049                0.11908753                0.04297499               -0.00865836
               4.00117666                2.99934734               17.01529256                0.01000002               -0.08833197               -0.05540870                0.09662902                0.19202461                0.05333829               -0.01435552
               5.00021330                3.00047229               17.01581269                0.01000000               -0.10404555               -0.06617060                0.09987633                0.25014698                0.05928451               -0.01345972
               5.99909575                3.00203180               17.01643350                0.01000000               -0.11594523               -0.07891031                0.10301631                0.26863785                0.05431108               -0.00446658
               6.99789440                3.00352290               17.01699942                0.01000000               -0.16717370               -0.09619710                0.10538095                0.29359766                0.04634407               -0.00836249
               7.99575228                3.00521020               17.01761758                0.01000001               -0.12388143               -0.08127325                0.10451671                0.24761412               -0.00015092                0.01933348
               8.99541677                3.00609723               17.01760067                0.01000000               -0.03313054               -0.09670036                0.10842545                0.19521253               -0.01667384                0.03006172
               9.99508967                3.00697204               17.01788708                0.22628257               -0.03270987               -0.18887180                0.10985228                0.22661999               -0.00167808                0.02357000
               0.00419151                4.00040014               17.01542502                0.01000000               -0.01720203               -0.03843614                0.09433472                0.02327593               -0.00014222                0.06703818
               1.00401949                3.99898656               17.01510594                0.01000000               -0.01964065               -0.09641992                0.09368449                0.05612231                0.00781081                0.02714560
               2.00379870                3.99818739               17.01492041                0.01000000               -0.03551217               -0.09523445                0.09401515                0.12037086                0.02561113               -0.00046184
               3.00330925                3.99809927               17.01494803                0.01000002               -0.06249286               -0.08202919                0.09540693                0.18259731                0.04510208               -0.01298232
               4.00254884                3.99866455               17.01520221                0.01000000               -0.08381405               -0.07636523                0.09768504                0.24046647                0.06081370               -0.01077966
               5.00163297                3.99975806               17.01564464                0.01000000               -0.09438639               -0.07866408                0.10051935                0.28318067                0.06975063                0.00157574
               6.00066111                4.00116090               17.01619894                0.01000000               -0.09914049               -0.09140633                0.10346141                0.31540790                0.07097834                0.01888902
               6.99965016                4.00271597               17.01678813                0.01000001               -0.08267469               -0.10212132                0.10591564                0.32787263                0.06029455                0.04116529
               7.99900762                4.00391209               17.01725444                0.01000001               -0.06046547               -0.13673903                0.10823039                0.36123590                0.04336108                0.05123896
               8.99844085                4.00449252               17.01755910                0.01000000               -0.01312256               -0.16355404                0.10990120                0.26334091                0.01874137                0.07271387
               9.99874517                4.00352883               17.01758011                0.01000000                0.03043210               -0.25275675                0.11073705                0.20012445                0.01018997                0.04322779
               0.00634605                4.99994443               17.01611964                0.01000001               -0.01607015               -0.08920624                0.09880754                0.08775891                0.00159198                0.08073209
               1.00618535                4.99790674               17.01553801                0.01000000               -0.02466627               -0.10632179                0.09714047                0.14469916                0.01126528                0.01996171
               2.00585273                4.99714193               17.01511123                0.01000001               -0.05153137               -0.09974512                0.09644169                0.18872677                0.03256858               -0.01336352
               3.00515473                4.99719151               17.01499173                0.01000000               -0.07627615               -0.09586188                0.09713155                0.23820663                0.05800754               -0.01986337
               4.00432721                4.99782004               17.01519469                0.01000000               -0.08870812               -0.08579497                0.09915212                0.27240191                0.08046336               -0.00946714
               5.00338056                4.99889901               17.01565413                0.01000000               -0.09406018               -0.08680830                0.10210843                0.29536642                0.09497419                0.01135089
               6.00244600                5.00020368               17.01628394                0.01000001               -0.08399497               -0.09763755                0.10555049                0.30014692                0.10024428                0.03986192
               7.00170066                5.00148048               17.01696969                0.01000000               -0.06227813               -0.12251271                0.10905388                0.29134581                0.09516577                0.07072236
               8.00120044                5.00247542               17.01757566                0.01000000               -0.03169091               -0.14378256                0.11210429                0.25090341                0.07722406                0.09977491
               9.00106685                5.00282614               17.01793429                0.01000000               -0.00904453               -0.15364172                0.11415242                0.17365715                0.04596752                0.11277907
              10.00101955                5.00191691               17.01788156                0.01000000               -0.00472963               -0.11623646                0.11434358                0.08583799                0.02770745                0.09639497
               0.01002209                5.99861601               17.01710402                0.82733361               -0.03061067               -0.08214227                0.10400082                0.09586135               -0.00349924                0.04794626
               1.00971598                5.99686013               17.01601100                0.01000000               -0.08668116               -0.06757775                0.10034370                0.14271346                0.01170932                0.00587025
               2.00828847                5.99619249               17.01523055                0.01000000               -0.11603541               -0.11665159                0.09814040                0.23157622                0.03789641               -0.03609012
               3.00739527                5.99618203               17.01500904                0.01000000               -0.09995426               -0.09073385                0.09851051                0.25970979                0.07963553               -0.02775341
               4.00628938                5.99694865               17.01524234                0.01000000               -0.11193101               -0.08574990                0.10073090                0.28476105                0.10882968               -0.01161060
               5.00515665                5.99802189               17.01580012                0.01000001               -0.11033996               -0.08110241                0.10425967                0.28239409                0.12873699                0.01591395
               6.00408258                5.99920815               17.01660698                0.01000001               -0.09756593               -0.08805126                0.10872904                0.25408873                0.13999867                0.05298409
               7.00320534                6.00026571               17.01753563                0.01000000               -0.07012802               -0.11032791                0.11358991                0.20499892                0.13783781                0.09732971
               8.00268002                6.00103644               17.01839863                0.01000000               -0.03664170               -0.13518377                0.11804453                0.15101860                0.11665188                0.14158076
               9.00247250                6.00141969               17.01893782                0.01000000               -0.01998080               -0.13164789                0.12095202                0.08562132                0.07086779                0.17409630
              10.00228041                6.00120410               17.01886671                0.01000001               -0.01920963               -0.05428643                0.12111537                0.04212311                0.04125350                0.17422465
               0.01177505                6.99830159               17.01753210                0.99999999               -0.03119061               -0.03166362                0.10588908                0.00013376               -0.00300060                0.02154925
               1.01146315                6.99655518               17.01633234                1.00000000               -0.03063521               -0.03067206                0.10201864               -0.00026685               -0.00575175                0.00035721
               2.01116235                6.99480890               17.01508360                0.01000000               -0.09351957               -0.08399478                0.09847659                0.17167544                0.05103806               -0.03609041
               3.00959276                6.99537683               17.01502739                0.01000000               -0.14898918               -0.09240439                0.09944309                0.26159992                0.11153081               -0.03566959
               4.00818257                6.99610504               17.01529822                0.01000001               -0.14119061               -0.08276751                0.10206321                0.28271131                0.13770089               -0.02080766
               5.00676894                6.99727696               17.01601146                0.01000000               -0.14493056               -0.05555710                0.10648640                0.26236152                0.16688762                0.01497197
               6.00528396                6.99844265               17.01708533                0.01000000               -0.13982942               -0.05347767                0.11238488                0.19309223                0.18704514                0.05797138
               7.00397236                6.99927392               17.01841221                0.01000000               -0.11085610               -0.07409498                0.11932366                0.10380896                0.19192246                0.11259327
               8.00306683                6.99977174               17.01974669                0.01000000               -0.06803736               -0.10870483                0.12616642                0.02344350                0.16952773                0.19115324
               9.00261161                7.00019319               17.02071454                0.01000002               -0.03868210               -0.12125533                0.13118836               -0.01201514                0.10467887                0.25625059
              10.00229319                7.00083118               17.02077325                0.01000001               -0.03184177               -0.04577601                0.13193918               -0.01726321                0.05887588                0.29549281
               0.01351758                7.99798274               17.01799352                1.00000000               -0.03142428               -0.03203609                0.10675418                0.00010733               -0.00075553                0.02308844
               1.01320334                7.99624669               17.01670288                1.00000000               -0.03086270               -0.03096064                0.10300984               -0.00005141               -0.00042732                0.00286071
               2.01290033                7.99451259               17.01542210                0.01000000               -0.09361036               -0.02977046                0.09925935                0.07757074                0.04136431               -0.01616994
               3.01133113                7.99433394               17.01497281                0.01000001               -0.14284248               -0.14421774                0.09958063                0.27601076                0.10680571               -0.08373062
               4.01004348                7.99529330               17.01526102                0.01000001               -0.16324310               -0.04983311                0.10258129                0.30365834                0.16753543               -0.02921800
               5.00806627                7.99691075               17.01622018                0.01000000               -0.20480066               -0.00648740                0.10831893                0.23772186                0.20620287                0.01073437
               6.00594746                7.99813860               17.01758965                0.01000000               -0.20569218               -0.00427550                0.11581030                0.13078740                0.23299697                0.05193606
               7.00395243                7.99878381               17.01939302                0.01000000               -0.18589209               -0.01722415                0.12522714                0.01349735                0.26683053                0.10642290
               8.00222962                7.99886234               17.02169747                0.01000002               -0.13898321               -0.04801933                0.13696458               -0.10366012                0.25577326                0.19827563
               9.00117276                7.99899458               17.02347250                0.01000000               -0.07852324               -0.09619083                0.14594592               -0.18236787                0.16947511                0.44275393
              10.00065916                8.00028858               17.02414912                0.01000000               -0.05136038               -0.14626772                0.14962301               -0.13444803                0.11244200                0.43473049
               0.01524931                8.99766087               17.01845462                1.00000000               -0.03170421               -0.03231612                0.10760128                0.00011499                0.00226742                0.01822613
               1.01493227                8.99593597               17.01707929                0.99999999               -0.03114018               -0.03116921                0.10380316               -0.00002501                0.00107490                0.00178435
               2.01462651                8.99421349               17.01568116                1.00000000               -0.03000036               -0.03002546                0.09995788               -0.00007779               -0.00535125               -0.01203387
               3.01433226                8.99249247               17.01418067                0.01000001               -0.14737904               -0.10652094                0.09603234                0.28046628                0.11770699               -0.07060092
               4.01167893                8.99510838               17.01524959                0.01000000               -0.28270888                0.03461002                0.10261526                0.28631486                0.22668202               -0.02502701
               5.00867809                8.99714721               17.01636092                0.01000000               -0.28261439                0.04242163                0.10932449                0.15921837                0.22848658                0.00679710
               6.00602664                8.99835714               17.01794721                0.01000000               -0.25797619                0.03553139                0.11805954                0.06729385                0.26462008                0.03260818
               7.00351856                8.99892944               17.02016845                0.01000002               -0.26218899                0.02891194                0.12973051               -0.01652499                0.32321185                0.06748401
               8.00078286                8.99881135               17.02325024                0.01000001               -0.29902743                0.03063671                0.14549033               -0.11183891                0.48615936                0.13795860
               8.99753801                8.99826937               17.02904566                0.99999998               -0.18833110               -0.06238822                0.17453197               -0.20901570                0.30131288                0.29321060
               9.99701624                8.99790582               17.02879230                0.99999999               -0.05217745               -0.14504747                0.17322304               -0.20036237               -0.00100692                0.24457636
               0.01696968                9.99733642               17.01881871                0.99999999               -0.03194611               -0.03244481                0.10840851                0.00072508                0.01265067                0.01345364
               1.01665022                9.99562330               17.01743111                1.00000000               -0.03137067               -0.03126661                0.10460488                0.00057809                0.01592250                0.00050242
               2.01634227                9.99391208               17.01610785                0.99999999               -0.03023252               -0.03014043                0.10078973                0.00058692                0.01599063               -0.00383016
               3.01604557                9.99220352               17.01472302                0.01034489               -0.26136137               -0.02889493                0.09697381                0.27500156                0.11018029               -0.00419282
               4.01111504                9.99598550               17.01528737                0.01000001               -0.40218495                0.08771263                0.10221033                0.22139404                0.19159651               -0.01247741
               5.00800187                9.99775918               17.01640017                0.01000000               -0.28019621                0.06119721                0.10918762                0.07556469                0.21812938                0.00939775
               6.00551112                9.99884923               17.01797833                0.01000001               -0.24170778                0.04920832                0.11817658                0.02859102                0.26129085                0.02267612
               7.00316771                9.99936205               17.02029606                0.01000000               -0.24291026                0.04326152                0.13059084               -0.00379228                0.34999395                0.04078055
               8.00065291                9.99947507               17.02393471                0.01000000               -0.26348678                0.06637195                0.14932391               -0.09375662                0.46247712                0.10186431
               8.99789798                9.99774682               17.02877716                0.99999999               -0.16369534               -0.05225519                0.17369245               -0.06837562                0.25602519                0.00123468
               9.99737900                9.99738763               17.02852380                1.00000000               -0.05189754               -0.05181942                0.17238348                0.00035766                0.00111456               -0.00111436
               0.00125379                0.00170798               18.01490067                1.00000000               -0.02537756               -0.02529680                0.08465957               -0.00013353               -0.00365689                0.00341120
               1.00100001                0.00091991               18.01487854                1.00000000               -0.02535218               -0.02524015                0.08447527               -0.00003185               -0.00407133               -0.00107678
               2.00074674                0.00012965               18.01485004                0.01000000               -0.00938815               -0.02518404                0.08429071                0.01927680                0.04033921               -0.00170386
               3.00081225               -0.00027676               18.01571712                0.01000000                0.00040480               -0.02850020                0.09035478                0.01295196                0.09574252               -0.00411999
               4.00075484                0.00021235               18.01673095                0.01000001               -0.02201956               -0.02177284                0.09660737                0.04016386                0.12041379               -0.01139006
               5.00037186                0.00178774               18.01806830                0.01000000               -0.09107466               -0.01741221                0.10336549                0.10518552                0.15722237               -0.01809425
               5.99893334                0.00495103               18.01988464                0.30612480               -0.08857771               -0.03336045                0.11175312                0.10997340                0.09517938               -0.00096591
               6.99860030                0.00591015               18.02033103                1.00000000               -0.03382879               -0.03369761                0.11373990                0.00011216                0.01677783               -0.00414068
               7.99825677                0.00686404               18.02057490                0.99999999               -0.03460313               -0.03419297                0.11533430                0.00027344                0.00823843               -0.00046591
               8.99790824                0.00780963               18.02084798                1.00000000               -0.03511933               -0.03469895                0.11704084                0.00026884                0.00779238                0.00091878
               9.99755438                0.00874688               18.02108198                1.00000000               -0.03538567               -0.03522508                0.11874680                0.00070154                0.00580809                0.00530428
               0.00204052                1.00145502               18.01494746                1.00000000               -0.02516672               -0.02519760                0.08398299               -0.00010654                0.00101768                0.00367979
               1.00178886                1.00066751               18.01492663                0.01000000               -0.02513405               -0.02513841                0.08379884               -0.00000552                0.00267836               -0.00280173
               2.00153784                0.99987781               18.01493903                0.01000000               -0.04442188               -0.03362075                0.08361500               -0.00189116                0.04546913                0.01589393
               3.00090042                0.99943824               18.01577294                0.01000001               -0.07068073               -0.02546462                0.09046047                0.02803208                0.08347805               -0.00538571
               4.00012423                0.99999462               18.01662039                0.01000000               -0.09230265               -0.02141290                0.09588660                0.08688192                0.08978255               -0.01450863
               4.99905437                1.00161362               18.01768784                0.01000000               -0.10761782               -0.02517901                0.10159787                0.17297793                0.11948442               -0.02065292
               5.99797187                1.00461743               18.01930572                0.01000001               -0.07047220               -0.09012662                0.10903039                0.16009769                0.07668019               -0.03720930
               6.99764492                1.00557317               18.01967356                1.00000000               -0.03310560               -0.03327377                0.11092268               -0.00005472                0.00760245               -0.00414383
               7.99730976                1.00652211               18.01990650                1.00000000               -0.03377097               -0.03378503                0.11259090                0.00002812                0.00123252               -0.00037636
               8.99696950                1.00746264               18.02014534                1.00000000               -0.03428061               -0.03428986                0.11430040                0.00002195                0.00104777                0.00055302
               9.99662415                1.00839463               18.02037459                1.00000000               -0.03453549               -0.03481764                0.11600791                0.00042360                0.00048875                0.00657582
               0.00282667                2.00120403               18.01500109                0.01000000               -0.02495667               -0.03689822                0.08330637               -0.02029061                0.00154836                0.03549795
               1.00257710                2.00041714               18.01494066                0.01000000               -0.04442419               -0.04654134                0.08312183               -0.02637337                0.02660135                0.02656778
               2.00193819                1.99945724               18.01537941                0.01000001               -0.06605104               -0.04896186                0.08784732               -0.00112585                0.04870781                0.02189884
               3.00125608                1.99921395               18.01579931                0.01000000               -0.08105425               -0.03623030                0.09150170                0.07701050                0.05472008               -0.00528760
               4.00031710                1.99978409               18.01642120                0.01000000               -0.10237405               -0.03283987                0.09572684                0.16031811                0.06718860               -0.01650875
               4.99920860                2.00128416               18.01721191                0.01000001               -0.10706806               -0.04934473                0.10014382                0.22720645                0.06780124               -0.02281926
               5.99817574                2.00314850               18.01799883                0.01000000               -0.12570351               -0.11205657                0.10405175                0.25155311                0.07310349               -0.05009337
               6.99669453                2.00524467               18.01901305                0.01000000               -0.09039403               -0.07750168                0.10811934                0.15786846                0.03493665               -0.01916328
               7.99636786                2.00618834               18.01923863                0.06640428               -0.03291902               -0.03306461                0.10983577                0.00067437               -0.00588914                0.00401351
               8.99603615                2.00712384               18.01943571                0.99999999               -0.03344907               -0.03345781                0.11157526                0.00004410               -0.00427086               -0.00180743
               9.99569888                2.00805053               18.01969461                1.00000000               -0.03372728               -0.03401113                0.11328265                0.00043034               -0.00130498                0.00651952
               0.00320849                3.00071705               18.01568392                0.01000003               -0.02003088               -0.03971369                0.08901668               -0.01368335                0.00471262                0.06910313
               1.00300818                2.99973668               18.01557469                0.01000001               -0.02449877               -0.07941729                0.08940652               -0.00204421                0.01225666                0.04552773
               2.00271852                2.99889857               18.01561074                0.01000000               -0.04472029               -0.07402530                0.09084607                0.05885874                0.02984295                0.00943657
               3.00211378                2.99871363               18.01584869                0.01000000               -0.07290670               -0.06411557                0.09332980                0.14032947                0.04572070               -0.00643820
               4.00126038                2.99933782               18.01625724                0.01000000               -0.09398487               -0.05875333                0.09629600                0.22038265                0.05632540               -0.01263185
               5.00023408                3.00062672               18.01680983                0.01000000               -0.11089831               -0.07124346                0.09955859                0.28319237                0.06211459               -0.01199348
               5.99904242                3.00237630               18.01746274                0.01000001               -0.12358113               -0.08574934                0.10280406                0.30103224                0.05646404               -0.00286398
               6.99776246                3.00402314               18.01805317                0.01000000               -0.17991665               -0.10453652                0.10527883                0.32575330                0.04609147               -0.00711098
               7.99544408                3.00586081               18.01865768                0.01000001               -0.13271346               -0.08654175                0.10409463                0.27288483                0.00007243                0.02138639
               8.99510819                3.00679349               18.01868711                0.01000001               -0.03323586               -0.10293216                0.10886476                0.21411020               -0.01512876                0.03218879
               9.99477937                3.00771441               18.01898901                0.24158623               -0.03288220               -0.20386219                0.11054813                0.24846745               -0.00167974                0.02539375
               0.00451374                4.00040976               18.01636799                0.01000000               -0.01590474               -0.04018460                0.09430805                0.02915606                0.00008503                0.07261308
               1.00435470                3.99882880               18.01604295                0.01000000               -0.01876676               -0.10426042                0.09375150                0.06856027                0.00852416                0.03120696
               2.00413841                3.99797673               18.01586045                0.01000000               -0.03656348               -0.10235874                0.09404446                0.14227578                0.02728512                0.00237840
               3.00362343                3.99793164               18.01590177                0.01000000               -0.06633700               -0.08756359                0.09533741                0.21099151                0.04761493               -0.01080350
               4.00281167                3.99860902               18.01617826                0.01000000               -0.08947280               -0.08150617                0.09752941                0.27374220                0.06383913               -0.00871869
               5.00183397                3.99985929               18.01664890                0.01000000               -0.10058512               -0.08434329                0.10033187                0.31908998                0.07291398                0.00397898
               6.00079997                4.00143352               18.01723286                0.01000000               -0.10544441               -0.09851951                0.10331568                0.35238018                0.07376851                0.02190339
               6.99972508                4.00315394               18.01784696                0.01000001               -0.08723794               -0.10997946                0.10585636                0.36360720                0.06261108                0.04516676
               7.99905521                4.00445750               18.01833772                0.01000001               -0.06301618               -0.14745116                0.10835061                0.39807919                0.04521126                0.05761354
               8.99846476                4.00506519               18.01865950                0.01000000               -0.01144114               -0.17594660                0.11020194                0.28928329                0.01980497                0.07787457
               9.99882638                4.00397329               18.01869040                0.01000001                0.03616256               -0.27347826                0.11133082                0.21956139                0.01110187                0.04719897
               0.00695354                4.99991336               18.01710956                0.01000001               -0.01411228               -0.10121173                0.09926281                0.10303232                0.00181572                0.08625179
               1.00681242                4.99765147               18.01651179                0.01000000               -0.02461746               -0.11555488                0.09769637                0.16858511                0.01199349                0.02338447
               2.00646119                4.99685140               18.01607777                0.01000001               -0.05555493               -0.10670199                0.09688946                0.21777957                0.03427917               -0.01133048
               3.00570132                4.99696236               18.01596409                0.01000000               -0.08268060               -0.10229861                0.09735801                0.27155508                0.06077809               -0.01807170
               4.00480758                4.99770770               18.01618648                0.01000000               -0.09549658               -0.09133080                0.09920589                0.30793138                0.08413459               -0.00732320
               5.00379139                4.99893985               18.01667494                0.01000000               -0.10061064               -0.09263843                0.10205012                0.33175852                0.09914527                0.01428091
               6.00279537                5.00040591               18.01733900                0.01000001               -0.08903844               -0.10449149                0.10546072                0.33533376                0.10452798                0.04397171
               7.00201062                5.00182355               18.01806004                0.01000001               -0.06504737               -0.13141263                0.10901656                0.32380835                0.09918310                0.07635165
               8.00149442                5.00291179               18.01869720                0.01000000               -0.03162748               -0.15411239                0.11219954                0.27743226                0.08050726                0.10659232
               9.00137807                5.00327456               18.01907705                0.01000000               -0.00700047               -0.16433249                0.11441051                0.19115941                0.04793253                0.12010269
              10.00135441                5.00224484               18.01902733                0.01000000               -0.00236595               -0.12332046                0.11483562                0.09431656                0.02887667                0.10284630
               0.01109816                5.99838552               18.01815009                0.80451679               -0.03098052               -0.09223519                0.10506012                0.11370723               -0.00350381                0.05102107
               1.01078836                5.99651770               18.01702251                0.01000000               -0.09575264               -0.07213461                0.10180310                0.16465984                0.01216548                0.00786506
               2.00918311                5.99584269               18.01621583                0.01000000               -0.12950634               -0.12518120                0.09899597                0.26251886                0.03944994               -0.03521087
               3.00819823                5.99588567               18.01599679                0.01000001               -0.10951533               -0.09627390                0.09907264                0.29273495                0.08312583               -0.02655854
               4.00699280                5.99678241               18.01625100                0.01000000               -0.12136510               -0.09095631                0.10099868                0.31972124                0.11356396               -0.00969904
               5.00577093                5.99800652               18.01684316                0.01000001               -0.11849292               -0.08598415                0.10434006                0.31630619                0.13434282                0.01898086
               6.00462295                5.99934369               18.01769414                0.01000000               -0.10377809               -0.09346523                0.10869756                0.28441879                0.14608701                0.05762897
               7.00369537                6.00052569               18.01867120                0.01000000               -0.07350496               -0.11728416                0.11352909                0.22956875                0.14382191                0.10390713
               8.00315285                6.00137525               18.01957891                0.01000000               -0.03702374               -0.14355176                0.11803344                0.16892449                0.12168910                0.15009206
               9.00295489                6.00177854               18.02014791                0.01000000               -0.01903537               -0.13898520                0.12109059                0.09539495                0.07389019                0.18396489
              10.00277214                6.00150688               18.02007971                0.01000001               -0.01827539               -0.05469893                0.12150905                0.04674648                0.04300981                0.18406924
               0.01296334                6.99806866               18.01859508                0.99999999               -0.03148892               -0.03185654                0.10668061                0.00007786               -0.00319260                0.02212538
               1.01264845                6.99620878               18.01735824                1.00000000               -0.03098679               -0.03100540                0.10316501               -0.00028719               -0.00579513                0.00083673
               2.01234360                6.99434778               18.01607550                0.01000000               -0.10160713               -0.08975627                0.09996224                0.19213233                0.05314017               -0.03614202
               3.01061630                6.99503688               18.01602564                0.01000000               -0.16312247               -0.09841304                0.10018783                0.29196289                0.11604084               -0.03525529
               4.00908115                6.99588857               18.01632115                0.01000001               -0.15300366               -0.08782924                0.10253854                0.31505825                0.14362840               -0.01954917
               5.00755623                6.99722017               18.01707750                0.01000001               -0.15582902               -0.05798990                0.10671356                0.29273920                0.17415341                0.01775763
               6.00596457                6.99853660               18.01820942                0.01000000               -0.14929021               -0.05556411                0.11242846                0.21687785                0.19529792                0.06258829
               7.00457043                6.99947787               18.01960505                0.01000000               -0.11722575               -0.07747851                0.11924691                0.11929315                0.20047644                0.11961351
               8.00362006                7.00004076               18.02100775                0.01000000               -0.07080422               -0.11380226                0.12606000                0.03104724                0.17709136                0.20175002
               9.00315434                7.00049485               18.02202627                0.01000002               -0.03936921               -0.12583888                0.13117816               -0.00970989                0.10930927                0.26974213
              10.00283267                7.00115087               18.02209387                0.01000001               -0.03216713               -0.04374621                0.13220302               -0.01720503                0.06147466                0.31064889
               0.01481947                7.99774839               18.01906254                0.99999999               -0.03159761               -0.03211555                0.10709232                0.00006554               -0.00073655                0.02312084
               1.01450349                7.99589759               18.01773648                1.00000000               -0.03109085               -0.03117156                0.10374235               -0.00002925               -0.00042738                0.00290352
               2.01419765                7.99404757               18.01642017                0.01000001               -0.10033998               -0.03010467                0.10037670                0.08587334                0.04324000               -0.01630268
               3.01249669                7.99391741               18.01597322                0.01000001               -0.15434859               -0.15652266                0.10052174                0.30530078                0.11150089               -0.08562933
               4.01111068                7.99502582               18.01629013                0.01000001               -0.17595072               -0.05216583                0.10320756                0.33602333                0.17472576               -0.02875775
               5.00897768                7.99684672               18.01730522                0.01000000               -0.22039374               -0.00455866                0.10870068                0.26392611                0.21523425                0.01288980
               6.00670281                7.99823240               18.01874851                0.01000000               -0.22003006               -0.00209699                0.11595810                0.14729206                0.24349270                0.05582841
               7.00457708                7.99897612               18.02064506                0.01000000               -0.19730005               -0.01593456                0.12518232                0.02028548                0.27913852                0.11275074
               8.00275681                7.99909921               18.02306602                0.01000002               -0.14632474               -0.04813059                0.13675276               -0.10600923                0.26768337                0.20887839
               9.00165058                7.99926177               18.02493092                0.01000001               -0.08203974               -0.09707521                0.14575066               -0.19174768                0.17740792                0.46501776
              10.00111601                8.00063195               18.02564562                0.01000000               -0.05345732               -0.14912147                0.14968759               -0.14131189                0.11784385                0.45615129
               0.01666625                8.99742635               18.01953039                1.00000000               -0.03175632               -0.03228493                0.10756027                0.00006838                0.00226264                0.01824564
               1.01634869                8.99558535               18.01811912                0.99999999               -0.03124999               -0.03126993                0.10416507               -0.00000775                0.00104914                0.00174039
               2.01604125                8.99374568               18.01668462                1.00000000               -0.03023119               -0.03025123                0.10073606               -0.00005637               -0.00543403               -0.01215330
               3.01574406                8.99190643               18.01514704                0.01000001               -0.15844751               -0.11515180                0.09724053                0.30899105                0.12262016               -0.07270773
               4.01287230                8.99484525               18.01627952                0.01000000               -0.30579473                0.03991849                0.10338442                0.31595309                0.23628736               -0.02505205
               5.00962817                8.99712900               18.01745667                0.01000000               -0.30456447                0.04858619                0.10983375                0.17609812                0.23870382                0.00804148
               6.00678101                8.99849466               18.01912920                0.01000000               -0.27594188                0.04094024                0.11834317                0.07572925                0.27689755                0.03494077
               7.00410933                8.99915918               18.02146608                0.01000002               -0.27833937                0.03365252                0.12979966               -0.01470786                0.33862129                0.07138781
               8.00121422                8.99907814               18.02470436                0.01000001               -0.31613452                0.03582645                0.14533773               -0.11584316                0.50977492                0.14514921
               8.99778664                8.99855335               18.03078759                0.99999998               -0.19740831               -0.06149543                0.17385559               -0.21950309                0.31619586                0.30762812
               9.99726606                8.99816844               18.03052434                0.99999999               -0.05205837               -0.14913881                0.17318487               -0.21178872               -0.00100881                0.25659205
               0.01850283                9.99710269               18.01990084                1.00000000               -0.03188269               -0.03236509                0.10799930                0.00060744                0.01266592                0.01345477
               1.01818400                9.99527219               18.01847725                1.00000000               -0.03136920               -0.03131581                0.10459976                0.00052368                0.01594858                0.00046715
               2.01787544                9.99344254               18.01711793                1.00000000               -0.03035289               -0.03031412                0.10120007                0.00052816                0.01602737               -0.00388183
               3.01757694                9.99161437               18.01569700                0.01000000               -0.28341341               -0.02920620                0.09779273                0.30237039                0.11462637               -0.00420789
               4.01220718                9.99582419               18.01631313                0.01000001               -0.43633556                0.09789364                0.10295128                0.24369126                0.20043016               -0.01256481
               5.00885023                9.99781845               18.01749479                0.01000000               -0.30099810                0.06894465                0.10975664                0.08355715                0.22839650                0.01018931
               6.00618721                9.99905121               18.01916217                0.01000001               -0.25753951                0.05565440                0.11861001                0.03215651                0.27399801                0.02406066
               7.00369944                9.99964917               18.02160343                0.01000014               -0.25707219                0.04899948                0.13089253               -0.00276262                0.36730490                0.04300323
               8.00104577                9.99981574               18.02542851                0.01000000               -0.27646066                0.07375924                0.14943945               -0.09771109                0.48546696                0.10691003
               8.99817023                9.99803186               18.03051428                0.99999999               -0.16978555               -0.05214906                0.17373188               -0.06996923                0.26868636                0.00123544
               9.99765006                9.99764918               18.03025103                1.00000000               -0.05201699               -0.05192595                0.17306113                0.00013205                0.00111554               -0.00111546
               0.00124027                0.00169869               19.01574923                1.00000000               -0.02547313               -0.02536959                0.08505118               -0.00020627               -0.00365690                0.00341332
               1.00098553                0.00086444               19.01572444                1.00000000               -0.02542497               -0.02526191                0.08470295               -0.00006014               -0.00407131               -0.00107762
               2.00073177                0.00002700               19.01569327                0.01000000               -0.00784252               -0.02515571                0.08435536                0.02207678                0.04340357               -0.00170428
               3.00082868               -0.00037112               19.01661894                0.01000000                0.00247980               -0.02822607                0.09002345                0.01577673                0.10163326               -0.00345510
               4.00078136                0.00021301               19.01769435                0.01000001               -0.02327780               -0.02038267                0.09607832                0.04626140                0.12637036               -0.01130991
               5.00036313                0.00199440               19.01909877                0.01000001               -0.10180533               -0.01509994                0.10271575                0.11976865                0.16382341               -0.01843801
               5.99874526                0.00553386               19.02099878                0.29228277               -0.09743175               -0.03318732                0.11103883                0.12647516                0.09854410               -0.00097461
               6.99841449                0.00653987               19.02146561                0.99999999               -0.03364899               -0.03354118                0.11315100                0.00013847                0.01683408               -0.00422541
               7.99807228                0.00754146               19.02172679                0.99999999               -0.03451276               -0.03412530                0.11502994                0.00031490                0.00820307               -0.00047198
               8.99772424                0.00853519               19.02201826                1.00000000               -0.03511029               -0.03471427                0.11701323                0.00031046                0.00781529                0.00092329
               9.99737007                0.00952109               19.02227065                1.00000000               -0.03541679               -0.03532707                0.11899619                0.00071982                0.00582924                0.00531949
               0.00207246                1.00144500               19.01578773                1.00000000               -0.02516798               -0.02522612                0.08406937               -0.00015622                0.00101669                0.00368165
               1.00182078                1.00061182               19.01576423                0.01000000               -0.02510728               -0.02511283                0.08371901               -0.00001060                0.00268007               -0.00280241
               2.00157031                0.99977544               19.01577396                0.01000000               -0.04636659               -0.03420869                0.08337182               -0.00007147                0.04898621                0.01869296
               3.00089345                0.99934662               19.01667554                0.01000001               -0.07545493               -0.02510880                0.09006375                0.03429447                0.08936671               -0.00414759
               4.00006121                1.00000918               19.01757659                0.01000000               -0.09965288               -0.02036564                0.09536548                0.09975711                0.09460613               -0.01395414
               4.99890039                1.00184340               19.01870106                0.01000000               -0.11619699               -0.02456550                0.10103797                0.19612781                0.12473457               -0.02062111
               5.99773727                1.00520199               19.02039340                0.01000001               -0.07441555               -0.09768195                0.10847080                0.18078506                0.07953366               -0.03831480
               6.99741208                1.00620446               19.02078077                1.00000000               -0.03297546               -0.03314194                0.11049710               -0.00003668                0.00764566               -0.00420741
               7.99707777                1.00720021               19.02103174                0.99999999               -0.03372758               -0.03374097                0.11244458                0.00002653                0.00122989               -0.00038062
               8.99673753                1.00818805               19.02128900                0.99999999               -0.03432012               -0.03432877                0.11443094                0.00002083                0.00106759                0.00056614
               9.99639136                1.00916782               19.02153665                1.00000000               -0.03461636               -0.03494319                0.11641543                0.00039900                0.00050486                0.00659234
               0.00290350                2.00119417               19.01583305                0.01000001               -0.02486236               -0.03583380                0.08308994               -0.01851726                0.00154878                0.03876963
               1.00265487                2.00036218               19.01576995                0.01000000               -0.04539812               -0.04842123                0.08273436               -0.02518241                0.02940196                0.03017900
               2.00199554                1.99934283               19.01626205                0.01000001               -0.06870205               -0.05105694                0.08793879                0.00375411                0.05297317                0.02626128
               3.00128083                1.99912670               19.01671101                0.01000000               -0.08579084               -0.03728792                0.09102288                0.09086359                0.05815417               -0.00302128
               4.00027972                1.99980570               19.01737631                0.01000000               -0.10939769               -0.03357722                0.09528035                0.18286044                0.07093978               -0.01519967
               4.99909288                2.00150309               19.01821109                0.01000001               -0.11399076               -0.05239910                0.09970180                0.25621156                0.07092319               -0.02217695
               5.99799990                2.00358022               19.01903751                0.01000000               -0.13386700               -0.12307445                0.10367470                0.28091805                0.07577150               -0.05096870
               6.99641554                2.00587703               19.02009302                0.01000000               -0.09553427               -0.08288440                0.10785535                0.17478115                0.03609450               -0.01925289
               7.99608922                2.00686664               19.02033709                0.06992364               -0.03292497               -0.03306908                0.10984819                0.00068029               -0.00585150                0.00251430
               8.99575704                2.00784861               19.02055289                0.99999999               -0.03353614               -0.03354170                0.11186313                0.00004639               -0.00423552               -0.00177979
               9.99541850                2.00882223               19.02083021                1.00000000               -0.03385446               -0.03418451                0.11384765                0.00040721               -0.00128916                0.00653178
               0.00336609                3.00072832               19.01657301                0.01000001               -0.01976196               -0.03837045                0.08882520               -0.01150372                0.00535406                0.07550477
               1.00316847                2.99964339               19.01646792                0.01000001               -0.02426102               -0.08442905                0.08924830                0.00343118                0.01331471                0.05163741
               2.00288087                2.99875430               19.01651686                0.01000000               -0.04603122               -0.07874500                0.09055581                0.07237591                0.03194643                0.01296573
               3.00224785                2.99860086               19.01678080                0.01000000               -0.07694193               -0.06794502                0.09306895                0.16231197                0.04848547               -0.00369217
               4.00134203                2.99933764               19.01721848                0.01000004               -0.09988762               -0.06223769                0.09597215                0.24966685                0.05916597               -0.01069683
               5.00025010                3.00079542               19.01780386                0.01000000               -0.11801671               -0.07652829                0.09925070                0.31733142                0.06484105               -0.01043517
               5.99898170                3.00274050               19.01848958                0.01000001               -0.13144069               -0.09287566                0.10256094                0.33449348                0.05850624               -0.00127439
               6.99762128                3.00454677               19.01910500                0.01000000               -0.19309551               -0.11323008                0.10513453                0.35901520                0.04574376               -0.00593588
               7.99511979                3.00653883               19.01969947                0.01000001               -0.14192077               -0.09208989                0.10440648                0.29902674                0.00025816                0.02331854
               8.99478287                3.00751721               19.01977797                0.01000002               -0.03337577               -0.10942670                0.10930923                0.23362713               -0.01358058                0.03417849
               9.99445227                3.00848413               19.02009804                0.25754187               -0.03305932               -0.21938710                0.11127109                0.27103784               -0.00168115                0.02708731
               0.00484328                4.00042676               19.01731118                0.01000000               -0.01457651               -0.04204742                0.09436759                0.03527419                0.00020616                0.07877772
               1.00469751                3.99867360               19.01698097                0.01000000               -0.01788458               -0.11242603                0.09388638                0.08148543                0.00907092                0.03596455
               2.00448559                3.99776793               19.01680130                0.01000000               -0.03768874               -0.10971837                0.09411640                0.16496746                0.02868922                0.00595393
               3.00394374                3.99776780               19.01685478                0.01000004               -0.07035462               -0.09329026                0.09528100                0.24033737                0.04982335               -0.00820588
               4.00307849                3.99856094               19.01715280                0.01000000               -0.09535451               -0.08684032                0.09737886                0.30808684                0.06661689               -0.00640577
               5.00203665                3.99997253               19.01765128                0.01000001               -0.10700341               -0.09025288                0.10014423                0.35613069                0.07587892                0.00644520
               6.00093843                4.00172271               19.01826525                0.01000000               -0.11195659               -0.10593331                0.10316845                0.39048324                0.07641673                0.02484586
               6.99979752                4.00361243               19.01890526                0.01000001               -0.09195576               -0.11817476                0.10582982                0.40034904                0.06480167                0.04902760
               7.99909931                4.00502484               19.01942146                0.01000001               -0.06566196               -0.15863749                0.10845961                0.43607214                0.04699061                0.06377270
               8.99848428                4.00566008               19.01976314                0.01000000               -0.00969502               -0.18887107                0.11057594                0.31610711                0.02086263                0.08272569
               9.99890541                4.00443449               19.01980673                0.01000001                0.04211335               -0.29498088                0.11196411                0.23965298                0.01202288                0.05085981
               0.00757790                4.99988737               19.01810490                0.01000001               -0.01208843               -0.11379209                0.09981532                0.11894469                0.00184260                0.09251921
               1.00745701                4.99739487               19.01749194                0.01000000               -0.02459408               -0.12513092                0.09833552                0.19343006                0.01239245                0.02775744
               2.00708602                4.99655994               19.01704902                0.01000001               -0.05977178               -0.11386952                0.09739086                0.24788913                0.03549820               -0.00859596
               3.00626158                4.99673505               19.01693889                0.01000000               -0.08934858               -0.10892480                0.09759615                0.30598906                0.06305902               -0.01578250
               4.00529904                4.99760083               19.01717881                0.01000001               -0.10253173               -0.09704744                0.09924212                0.34455509                0.08739283               -0.00493847
               5.00421094                4.99899036               19.01769513                0.01000000               -0.10737914               -0.09867861                0.10197457                0.36923618                0.10299381                0.01725823
               6.00315146                5.00062183               19.01839316                0.01000002               -0.09424080               -0.11161998                0.10537055                0.37153852                0.10857483                0.04796108
               7.00232613                5.00218327               19.01915002                0.01000001               -0.06789406               -0.14067892                0.10899290                0.35718653                0.10302697                0.08172846
               8.00179358                5.00336608               19.01981965                0.01000000               -0.03153816               -0.16485560                0.11231145                0.30471502                0.08366601                0.11307992
               9.00169536                5.00373979               19.02022250                0.01000000               -0.00485331               -0.17551565                0.11471679                0.20918317                0.04982875                0.12704731
              10.00169651                5.00258452               19.02017827                0.01000000                0.00011500               -0.13077718                0.11539312                0.10305124                0.03001822                0.10892049
               0.01220717                5.99815092               19.01920522                0.77948243               -0.03136225               -0.10278613                0.10615465                0.13235483               -0.00345464                0.05459886
               1.01189355                5.99617098               19.01804706                0.01000000               -0.10519921               -0.07684651                0.10330046                0.18747130                0.01219568                0.01050332
               2.01010319                5.99549054               19.01721047                0.01000000               -0.14354620               -0.13391108                0.09992304                0.29450320                0.04024763               -0.03349041
               3.00902262                5.99558931               19.01699049                0.01000001               -0.11944500               -0.10198833                0.09965940                0.32679015                0.08594378               -0.02492941
               4.00771429                5.99661999               19.01726232                0.01000000               -0.13111264               -0.09629544                0.10124180                0.35569432                0.11771107               -0.00752914
               5.00640037                5.99799896               19.01788693                0.01000002               -0.12690000               -0.09101587                0.10437903                0.35115574                0.13950390                0.02209555
               6.00517629                5.99949031               19.01878093                0.01000001               -0.11016841               -0.09908923                0.10865016                0.31553980                0.15181252                0.06214285
               7.00419700                6.00079885               19.01980621                0.01000000               -0.07695956               -0.12454737                0.11348285                0.25474288                0.14952161                0.11018148
               8.00363709                6.00172773               19.02075930                0.01000000               -0.03737504               -0.15232222                0.11806915                0.18723872                0.12651834                0.15816614
               9.00344950                6.00214977               19.02135964                0.01000001               -0.01800547               -0.14673873                0.12129223                0.10537586                0.07680432                0.19333560
              10.00327699                6.00181894               19.02129689                0.01000001               -0.01725166               -0.05531353                0.12196306                0.05146615                0.04472514                0.19344723
               0.01418487                6.99783165               19.01966571                0.99999999               -0.03180491               -0.03205365                0.10752378                0.00001870               -0.00338601                0.02280146
               1.01386682                6.99585794               19.01839564                0.99999999               -0.03135582               -0.03135489                0.10436629               -0.00031623               -0.00585244                0.00142640
               2.01355775                6.99388172               19.01708284                0.01000000               -0.10994492               -0.09565605                0.10152071                0.21312746                0.05463880               -0.03568812
               3.01166792                6.99469529               19.01703114                0.01000000               -0.17772356               -0.10446738                0.10104588                0.32308883                0.11958569               -0.03448742
               4.01000328                6.99567492               19.01734899                0.01000000               -0.16520896               -0.09301080                0.10300008                0.34832317                0.14899588               -0.01809856
               5.00836374                6.99717005               19.01814573                0.01000001               -0.16704597               -0.06047923                0.10690412                0.32386644                0.18084536                0.02064896
               6.00666236                6.99864005               19.01933390                0.01000000               -0.15900903               -0.05774586                0.11244232                0.24117390                0.20306629                0.06709317
               7.00518356                6.99969233               19.02079715                0.01000000               -0.12374618               -0.08105294                0.11917854                0.13501337                0.20859897                0.12633134
               8.00418744                7.00031963               19.02226789                0.01000000               -0.07359466               -0.11922195                0.12598991                0.03865119                0.18431513                0.21183549
               9.00371167                7.00080502               19.02333811                0.01000002               -0.03999796               -0.13080726                0.13122118               -0.00747878                0.11375752                0.28260459
              10.00338748                7.00147824               19.02341731                0.01000000               -0.03241892               -0.04189043                0.13251490               -0.01719521                0.06400403                0.32520521
               0.01615496                7.99750984               19.02013536                1.00000000               -0.03178021               -0.03220879                0.10747600                0.00001577               -0.00073312                0.02314330
               1.01583716                7.99554388               19.01877773                1.00000000               -0.03132845               -0.03139672                0.10451564               -0.00001158               -0.00044167                0.00295227
               2.01552839                7.99357742               19.01742964                0.01000001               -0.10729818               -0.03045286                0.10153212                0.09441146                0.04482443               -0.01640805
               3.01369119                7.99349996               19.01698325                0.01000001               -0.16611990               -0.16903755                0.10133688                0.33521055                0.11613864               -0.08767045
               4.01220599                7.99475978               19.01732517                0.01000066               -0.18893085               -0.05452954                0.10391006                0.36905875                0.18128393               -0.02793756
               5.00991257                7.99678937               19.01839420                0.01000000               -0.23642533               -0.00257859                0.10906942                0.29071781                0.22363022                0.01516034
               6.00747748                7.99833539               19.01990881                0.01000000               -0.23474445                0.00011221                0.11608448                0.16406182                0.25338076                0.05966146
               7.00521769                7.99917779               19.02189666                0.01000000               -0.20900271               -0.01467537                0.12514033                0.02700807                0.29084648                0.11883132
               8.00329743                7.99934329               19.02443253                0.01000002               -0.15381858               -0.04838901                0.13656328               -0.10873777                0.27905070                0.21898795
               9.00214131                7.99953362               19.02638751                0.01000001               -0.08554031               -0.09832224                0.14558778               -0.20159381                0.18500527                0.48636068
              10.00158662                8.00098114               19.02714287                0.01000000               -0.05546908               -0.15229914                0.14977848               -0.14849477                0.12307639                0.47687406
               0.01811711                8.99718747               19.02060582                1.00000000               -0.03180919               -0.03226175                0.10752993                0.00001475                0.00226242                0.01827546
               1.01779902                8.99523001               19.01916259                0.99999999               -0.03136025               -0.03137516                0.10453176                0.00000655                0.00103484                0.00171139
               2.01748991                8.99327266               19.01769588                1.00000000               -0.03046243               -0.03047933                0.10151411               -0.00003980               -0.00549148               -0.01223729
               3.01718977                8.99131454               19.01612548                0.01000002               -0.16974299               -0.12402585                0.09844501                0.33816915                0.12713924               -0.07447935
               4.01409505                8.99458433               19.01731728                0.01000000               -0.32936422                0.04536045                0.10417776                0.34619027                0.24513542               -0.02483277
               5.01060249                8.99711848               19.01855759                0.01000000               -0.32699337                0.05486807                0.11036779                0.19330702                0.24830022                0.00937210
               6.00755518                8.99864229               19.02031407                0.01000000               -0.29433311                0.04645463                0.11863713                0.08426463                0.28856312                0.03725285
               7.00471582                8.99939882               19.02276444                0.01000002               -0.29491619                0.03848133                0.12987813               -0.01303228                0.35337171                0.07516011
               8.00165685                8.99935185               19.02615699                0.01000001               -0.33369365                0.04108459                0.14519581               -0.12031397                0.53248060                0.15202181
               8.99804195                8.99883857               19.03252277                0.99999998               -0.20671503               -0.06077419                0.17318330               -0.23058610                0.33049856                0.32144289
               9.99752255                8.99843226               19.03225599                0.99999999               -0.05193963               -0.15345960                0.17314528               -0.22357110               -0.00101079                0.26819336
               0.02007018                9.99686461               19.02097869                1.00000000               -0.03180830               -0.03228627                0.10755974                0.00048422                0.01269423                0.01347596
               1.01975210                9.99491638               19.01952311                1.00000000               -0.03135604               -0.03136280                0.10455935                0.00046913                0.01598775                0.00044831
               2.01944306                9.99296783               19.01813185                0.99999998               -0.03046001               -0.03048298                0.10156985                0.00046886                0.01607283               -0.00391801
               3.01914290                9.99101944               19.01667888                0.01000000               -0.30586023               -0.02950950                0.09856591                0.33027096                0.11884861               -0.00422248
               4.01332586                9.99566699               19.01734640                0.01000001               -0.47110721                0.10826543                0.10374791                0.26644572                0.20889388               -0.01252738
               5.00972076                9.99788673               19.01859530                0.01000000               -0.32217130                0.07682572                0.11039465                0.09170190                0.23823955                0.01102490
               6.00688243                9.99926449               19.02035053                0.01000001               -0.27366376                0.06221924                0.11909278                0.03575966                0.28626487                0.02544500
               7.00424748                9.99994742               19.02291392                0.01000002               -0.27155166                0.05485986                0.13122207               -0.00180929                0.38409456                0.04517781
               8.00145140               10.00016499               19.02692350                0.01000000               -0.28991488                0.08131324                0.14956706               -0.10200964                0.50787583                0.11178202
               8.99844918                9.99831814               19.03225180                0.99999999               -0.17617896               -0.05204340                0.17377276               -0.07192879                0.28098957                0.00123580
               9.99792782                9.99791194               19.03198502                1.00000000               -0.05213634               -0.05203179                0.17373479               -0.00009274                0.00111712               -0.00111636
               0.00123024                0.00169926               20.01660170                1.00000000               -0.02556915               -0.02544324                0.08543573               -0.00028733               -0.00366378                0.00341576
               1.00097455                0.00081877               20.01657260                1.00000000               -0.02549666               -0.02528263                0.08492944               -0.00008784               -0.00406562               -0.00108144
               2.00072031               -0.00006583               20.01653715                0.01000001               -0.00653627               -0.02512826                0.08442827                0.02470329                0.04636253               -0.00169845
               3.00084383               -0.00045906               20.01751758                0.01000000                0.00410515               -0.02777260                0.08972163                0.01850582                0.10720627               -0.00274589
               4.00080241                0.00022168               20.01865251                0.01000001               -0.02499654               -0.01880990                0.09557852                0.05251504                0.13200222               -0.01121189
               5.00034390                0.00221441               20.02012261                0.01000079               -0.11325132               -0.01255371                0.10204950                0.13486701                0.17006035               -0.01878863
               5.99853739                0.00614231               20.02210542                0.27903352               -0.10674587               -0.03299064                0.11024896                0.14359069                0.10164691               -0.00098540
               6.99820898                0.00719533               20.02259405                1.00000000               -0.03346033               -0.03337080                0.11251479                0.00017093                0.01681758               -0.00430311
               7.99786818                0.00824469               20.02287550                0.99999999               -0.03441505               -0.03405035                0.11469991                0.00035919                0.00816985               -0.00047770
               8.99752068                0.00928662               20.02318824                1.00000000               -0.03509982               -0.03472849                0.11698022                0.00035497                0.00783619                0.00092754
               9.99716618                0.01032127               20.02346190                1.00000000               -0.03544933               -0.03543426                0.11926034                0.00074057                0.00584872                0.00533368
               0.00210786                1.00144483               20.01662885                1.00000000               -0.02516377               -0.02525586                0.08416050               -0.00020771                0.00102201                0.00369134
               1.00185622                1.00056595               20.01660101                0.01000000               -0.02508003               -0.02508717                0.08363710               -0.00001769                0.00267493               -0.00281100
               2.00160626                0.99968289               20.01660647                0.01000000               -0.04855450               -0.03473000                0.08312776                0.00167744                0.05251393                0.02144614
               3.00088513                0.99926322               20.01757421                0.01000001               -0.08077128               -0.02463439                0.08969147                0.04058858                0.09517243               -0.00272254
               3.99999083                1.00003358               20.01852770                0.01000000               -0.10764411               -0.01917349                0.09488737                0.11295248                0.09926676               -0.01333785
               4.99873225                1.00208887               20.01970860                0.01000000               -0.12539994               -0.02382961                0.10048046                0.22003972                0.12975240               -0.02054881
               5.99748283                1.00581240               20.02147514                0.01000001               -0.07863766               -0.10546835                0.10783953                0.20223048                0.08215973               -0.03939848
               6.99715950                1.00686162               20.02188350                1.00000000               -0.03283541               -0.03299697                0.11002898               -0.00001742                0.00761858               -0.00426610
               7.99682613                1.00790419               20.02215540                0.99999999               -0.03367789               -0.03369027                0.11227660                0.00002448                0.00122721               -0.00038470
               8.99648594                1.00893933               20.02243396                0.99999999               -0.03435930               -0.03436720                0.11455995                0.00001937                0.00108592                0.00057843
               9.99613894                1.00996693               20.02270290                1.00000000               -0.03469984               -0.03507445                0.11684153                0.00037367                0.00051980                0.00660788
               0.00298385                2.00119415               20.01666288                0.01000001               -0.02477109               -0.03479060                0.08288273               -0.01681680                0.00154844                0.04222585
               1.00273614                2.00031703               20.01659534                0.01000000               -0.04636329               -0.05037682                0.08233790               -0.02400867                0.03216589                0.03405882
               2.00205659                1.99923957               20.01713818                0.01000001               -0.07156180               -0.05321228                0.08742270                0.00847638                0.05734918                0.03097385
               3.00130491                1.99904826               20.01761976                0.01000000               -0.09103885               -0.03835988                0.09069602                0.10476885                0.06173622               -0.00050180
               4.00023581                1.99983821               20.01832680                0.01000000               -0.11695218               -0.03430927                0.09487711                0.20596867                0.07455733               -0.01374202
               4.99896586                2.00173781               20.01920594                0.01000001               -0.12132822               -0.05555176                0.09928995                0.28611418                0.07391921               -0.02146095
               5.99780925                2.00403294               20.02007233                0.01000000               -0.14245102               -0.13446650                0.10330041                0.31130720                0.07828269               -0.05180743
               6.99611684                2.00653539               20.02117015                0.01000000               -0.10091469               -0.08847176                0.10755384                0.19229478                0.03715907               -0.01932793
               7.99579095                2.00757089               20.02143559                0.07294619               -0.03292588               -0.03306851                0.10984316                0.00070209               -0.00581634                0.00116083
               8.99545833                2.00859928               20.02167297                0.99999999               -0.03362405               -0.03362615                0.11215306                0.00004830               -0.00420242               -0.00175390
               9.99511847                2.00961978               20.02197156                1.00000000               -0.03398533               -0.03436472                0.11443480                0.00038346               -0.00127431                0.00654340
               0.00352575                3.00074902               20.01746042                0.01000000               -0.01951267               -0.03703620                0.08867238               -0.00933864                0.00598365                0.08226245
               1.00333063                2.99955841               20.01735966                0.01000001               -0.02405961               -0.08964819                0.08910857                0.00897357                0.01437736                0.05832181
               2.00304456                2.99861864               20.01742185                0.01000000               -0.04743773               -0.08379583                0.09040584                0.08597001                0.03396531                0.01714538
               3.00238187                2.99849602               20.01771007                0.01000000               -0.08119559               -0.07194127                0.09283209                0.18461177                0.05109053               -0.00065011
               4.00142065                2.99934739               20.01817669                0.01000001               -0.10610373               -0.06588148                0.09570427                0.27967549                0.06187875               -0.00857817
               5.00025980                3.00097783               20.01879485                0.01000000               -0.12546215               -0.08204467                0.09897740                0.35244595                0.06742837               -0.00883137
               5.99891140                3.00312307               20.01951396                0.01000001               -0.13961750               -0.10030414                0.10234811                0.36897116                0.06042952                0.00029189
               6.99746745                3.00509218               20.02015586                0.01000001               -0.20675633               -0.12229572                0.10509217                0.39339064                0.04543785               -0.00479018
               7.99477628                3.00724282               20.02074581                0.01000001               -0.15147183               -0.09790558                0.10494212                0.32604050                0.00039891                0.02518454
               8.99443801                3.00826681               20.02087330                0.01000000               -0.03353401               -0.11620517                0.10975906                0.25376140               -0.01218121                0.03607485
               9.99410560                3.00927963               20.02121443                0.27416353               -0.03324112               -0.23547651                0.11201991                0.29434176               -0.00168238                0.02866364
               0.00517830                4.00045342               20.01825534                0.01000000               -0.01323018               -0.04396582                0.09447951                0.04159253                0.00022236                0.08552716
               1.00504599                3.99852407               20.01792068                0.01000000               -0.01699581               -0.12089433                0.09407743                0.09478745                0.00941373                0.04140513
               2.00483838                3.99756365               20.01774278                0.01000000               -0.03888011               -0.11741620                0.09422169                0.18825010                0.02979250                0.01009686
               3.00426839                3.99760943               20.01780739                0.01000000               -0.07454357               -0.09925107                0.09525868                0.27038815                0.05173838               -0.00523900
               4.00334751                3.99852058               20.01812584                0.01000000               -0.10146451               -0.09239883                0.09724135                0.34330200                0.06914249               -0.00396195
               5.00223910                4.00009692               20.01865179                0.01000001               -0.11365933               -0.09642319                0.09997665                0.39417001                0.07866266                0.00889264
               6.00107432                4.00202686               20.01929623                0.01000001               -0.11870956               -0.11368113                0.10305884                0.42965596                0.07894639                0.02768212
               6.99986491                4.00408947               20.01996356                0.01000001               -0.09685932               -0.12675107                0.10588844                0.43815674                0.06690043                0.05272578
               7.99913713                4.00561277               20.02050692                0.01000001               -0.06840854               -0.17036337                0.10870611                0.47523390                0.04871121                0.06960097
               8.99849674                4.00627517               20.02087102                0.01000000               -0.00787348               -0.20239014                0.11106025                0.34377439                0.02189613                0.08731957
               9.99897967                4.00491025               20.02092968                0.01000001                0.04829263               -0.31732685                0.11267650                0.26038954                0.01292105                0.05423619
               0.00821631                4.99986970               20.01910587                0.01000001               -0.01001671               -0.12683686                0.10041237                0.13543690                0.00167511                0.09966722
               1.00811614                4.99714053               20.01847850                0.01000000               -0.02460571               -0.13500030                0.09901183                0.21908234                0.01247471                0.03321692
               2.00772420                4.99627032               20.01802559                0.01000001               -0.06417177               -0.12122961                0.09791836                0.27883644                0.03621298               -0.00519878
               3.00683271                4.99651100               20.01791601                0.01000000               -0.09624997               -0.11573011                0.09779081                0.34129816                0.06482057               -0.01313055
               4.00579920                4.99749941               20.01817132                0.01000001               -0.10978981               -0.10294687                0.09922508                0.38207271                0.09027077               -0.00245544
               5.00463691                4.99904937               20.01871443                0.01000001               -0.11436128               -0.10495447                0.10187254                0.40766633                0.10659464                0.02014899
               6.00351197                5.00084945               20.01944641                0.01000000               -0.09961244               -0.11905272                0.10529742                0.40866886                0.11245512                0.05175811
               7.00264466                5.00255716               20.02023990                0.01000000               -0.07083580               -0.15036397                0.10902366                0.39143138                0.10674701                0.08682548
               8.00209526                5.00383555               20.02094343                0.01000000               -0.03143213               -0.17612169                0.11250602                0.33272523                0.08674218                0.11923654
               9.00201602                5.00421901               20.02137138                0.01000000               -0.00260121               -0.18727598                0.11512434                0.22770959                0.05169346                0.13361936
              10.00204323                5.00293310               20.02133519                0.01000000                0.00272107               -0.13867348                0.11605845                0.11203215                0.03115541                0.11463074
               0.01334539                5.99791668               20.02027318                0.75344730               -0.03183613               -0.11375790                0.10741637                0.15171012               -0.00340947                0.05877207
               1.01302703                5.99582406               20.01908852                0.01000000               -0.11503775               -0.08169415                0.10496493                0.21102489                0.01165692                0.01385596
               2.01104463                5.99513906               20.01821429                0.01000000               -0.15808854               -0.14277367                0.10084466                0.32737217                0.04014055               -0.03095061
               3.00986526                5.99529483               20.01798997                0.01000001               -0.12970211               -0.10783093                0.10014421                0.36158685                0.08809372               -0.02280443
               4.00845059                5.99646164               20.01827583                0.01000001               -0.14114320               -0.10178357                0.10135287                0.39251429                0.12133778               -0.00524138
               5.00704239                5.99799783               20.01893074                0.01000008               -0.13553419               -0.09617445                0.10432664                0.38677432                0.14431817                0.02512810
               6.00573991                5.99964580               20.01986714                0.01000005               -0.11674780               -0.10494321                0.10858106                0.34734331                0.15730786                0.06642672
               7.00470744                6.00108219               20.02094085                0.01000000               -0.08050574               -0.13215575                0.11347288                0.28041448                0.15503375                0.11611839
               8.00412979                6.00209034               20.02194029                0.01000000               -0.03770250               -0.16156592                0.11817810                0.20588012                0.13120888                0.16580005
               9.00395339                6.00252965               20.02257375                0.01000001               -0.01688287               -0.15499720                0.12159219                0.11552408                0.07965152                0.20220779
              10.00379214                6.00213678               20.02251897                0.01000001               -0.01612511               -0.05620555                0.12251979                0.05626792                0.04641972                0.20234745
               0.01543576                6.99759454               20.02074555                0.99999999               -0.03214931               -0.03227680                0.10844048               -0.00005601               -0.00364803                0.02345572
               1.01511427                6.99550664               20.01944557                1.00000000               -0.03174441               -0.03171888                0.10562425               -0.00031718               -0.00597154                0.00198404
               2.01480087                6.99341484               20.01810592                0.01000000               -0.11862004               -0.10163449                0.10310572                0.23458651                0.05562667               -0.03468287
               3.01274187                6.99435438               20.01804656                0.01000001               -0.19271958               -0.11125828                0.10192660                0.35537876                0.12222206               -0.03330455
               4.01094648                6.99546374               20.01838115                0.01000000               -0.17768169               -0.09814255                0.10330677                0.38231604                0.15357062               -0.01629714
               5.00918823                6.99712588               20.01921558                0.01000128               -0.17860021               -0.06298841                0.10695206                0.35555472                0.18707422                0.02350263
               6.00737448                6.99875059               20.02045827                0.01000000               -0.16899083               -0.06001748                0.11240271                0.26581067                0.21047174                0.07141082
               7.00580842                6.99991405               20.02198862                0.01000000               -0.13045390               -0.08483687                0.11913091                0.15082526                0.21641219                0.13270376
               8.00476540                7.00060423               20.02352754                0.01000000               -0.07641769               -0.12502398                0.12598424                0.04610964                0.19127581                0.22138560
               9.00428006                7.00111906               20.02465069                0.01000002               -0.04055326               -0.13626677                0.13134735               -0.00541451                0.11806425                0.29481524
              10.00395433                7.00180898               20.02474417                0.01000000               -0.03257291               -0.04030126                0.13290779               -0.01727382                0.06648177                0.33913724
               0.01752007                7.99727115               20.02121205                1.00000000               -0.03196876               -0.03230106                0.10786935               -0.00003652               -0.00073121                0.02312304
               1.01720039                7.99518968               20.01982679                0.99999995               -0.03157244               -0.03162213                0.10530271                0.00001412               -0.00045548                0.00298878
               2.01688862                7.99310637               20.01845081                0.01007897               -0.11382272               -0.03080608                0.10270614                0.10238227                0.04596555               -0.01647649
               3.01492393                7.99306966               20.01799996                0.01000001               -0.17816063               -0.18165824                0.10242868                0.36580014                0.11965911               -0.08858379
               4.01332541                7.99449879               20.01836833                0.01000000               -0.20286435               -0.05681844                0.10461901                0.40324047                0.18717703               -0.02689344
               5.01086664                7.99673806               20.01948661                0.01000000               -0.25287280               -0.00052749                0.10932557                0.31779042                0.23135947                0.01748263
               6.00826796                7.99844545               20.02107020                0.01000000               -0.24981749                0.00237117                0.11615771                0.18091721                0.26278900                0.06338906
               7.00587029                7.99938546               20.02314786                0.01000000               -0.22104942               -0.01344607                0.12511445                0.03349206                0.30205831                0.12463249
               8.00384697                7.99958986               20.02579728                0.01000002               -0.16149754               -0.04883115                0.13641620               -0.11205154                0.28993805                0.22857477
               9.00264034                7.99980432               20.02784267                0.01000007               -0.08900740               -0.10005719                0.14547742               -0.21207797                0.19229808                0.50674865
              10.00206682                8.00133076               20.02864119                0.01000000               -0.05735244               -0.15594120                0.14991184               -0.15610325                0.12815127                0.49686808
               0.01959796                8.99694852               20.02168099                1.00000000               -0.03186314               -0.03223384                0.10750104               -0.00004183                0.00226448                0.01832316
               1.01927933                8.99487420               20.02020975                0.99999999               -0.03147115               -0.03147787                0.10489945                0.00002041                0.00103051                0.00170014
               2.01896854                8.99279872               20.01871491                1.00000000               -0.03069388               -0.03070698                0.10229171               -0.00002370               -0.00552407               -0.01228939
               3.01866545                8.99072122               20.01711594                0.01000001               -0.18128235               -0.13232716                0.09964777                0.36720464                0.13127952               -0.07575595
               4.01534289                8.99432737               20.01836308                0.01000000               -0.35340389                0.05083042                0.10500461                0.37686642                0.25331757               -0.02446980
               5.01159737                8.99711533               20.01966403                0.01000000               -0.34987311                0.06127293                0.11091292                0.21074431                0.25731790                0.01075219
               6.00834543                8.99879801               20.02150194                0.01000000               -0.31317617                0.05208749                0.11893682                0.09278696                0.29967695                0.03953085
               7.00533385                8.99964513               20.02406364                0.01000002               -0.31199610                0.04341598                0.12997836               -0.01161660                0.36751508                0.07878764
               8.00210551                8.99962761               20.02760828                0.01000001               -0.35181208                0.04642488                0.14507847               -0.12543848                0.55430086                0.15855980
               8.99829761                8.99911792               20.03425125                0.99999998               -0.21630574               -0.06029029                0.17251414               -0.24246454                0.34421739                0.33463528
               9.99777939                8.99869016               20.03398725                0.99999999               -0.05182173               -0.15809768                0.17310454               -0.23581871               -0.00101317                0.27936547
               0.02166788                9.99662647               20.02205204                1.00000000               -0.03172878               -0.03220510                0.10710520                0.00035768                0.01273377                0.01351079
               1.02135060                9.99456013               20.02056844                1.00000000               -0.03133753               -0.03140731                0.10450289                0.00041450                0.01603793                0.00044216
               2.02104113                9.99249223               20.01914933                1.00000000               -0.03056127               -0.03064909                0.10192150                0.00040921                0.01612486               -0.00393926
               3.02073937                9.99042312               20.01766832                0.01000000               -0.32862544               -0.02980959                0.09931938                0.35855014                0.12290822               -0.00423652
               4.01446862                9.99551540               20.01838809                0.01000002               -0.50642377                0.11880217                0.10469430                0.28959341                0.21708597               -0.01236707
               5.01061090                9.99796352               20.01970268                0.01000000               -0.34373618                0.08481905                0.11116418                0.09994253                0.24768510                0.01187879
               6.00759390                9.99948720               20.02154403                0.01000001               -0.29012669                0.06891956                0.11964638                0.03935985                0.29808315                0.02682180
               7.00480836               10.00025378               20.02422787                0.01000004               -0.28642495                0.06086500                0.13159266               -0.00099122                0.40036148                0.04730339
               8.00186540               10.00051836               20.02841985                0.01000001               -0.30399300                0.08907497                0.14971428               -0.10677369                0.52969890                0.11647454
               8.99872850                9.99859851               20.03398974                0.99999999               -0.18297182               -0.05194094                0.17381523               -0.07438865                0.29293263                0.00123871
               9.99820597                9.99816880               20.03372572                0.99999999               -0.05225360               -0.05213586                0.17440486               -0.00031362                0.00111598               -0.00111869
               0.00122518                0.00171270               21.01745795                1.00000000               -0.02564112               -0.02550626                0.08583765               -0.00033136               -0.00366746                0.00344644
               1.00096877                0.00078599               21.01742302                1.00000000               -0.02555729               -0.02531331                0.08514226               -0.00012612               -0.00408181               -0.00111257
               2.00071403               -0.00014561               21.01738183                0.01000000               -0.00556607               -0.02510593                0.08448559                0.02707145                0.04924952               -0.00169408
               3.00085745               -0.00053930               21.01841337                0.01000000                0.00511708               -0.02707155                0.08947155                0.02102156                0.11247403               -0.00197524
               4.00081638                0.00023839               21.01960592                0.01000001               -0.02730095               -0.01702589                0.09514916                0.05887544                0.13727481               -0.01108513
               5.00031143                0.00244665               21.02113976                0.01000000               -0.12548106               -0.00975513                0.10141093                0.15047293                0.17585878               -0.01912134
               5.99830676                0.00677471               21.02320376                0.26643208               -0.11653315               -0.03276042                0.10937491                0.16129475                0.10444663               -0.00099828
               6.99798077                0.00787491               21.02371591                0.99999999               -0.03326356               -0.03318772                0.11183549                0.00021241                0.01673643               -0.00437309
               7.99764148                0.00897211               21.02402078                0.99999999               -0.03431043               -0.03396876                0.11434616                0.00040618                0.00813929               -0.00048296
               8.99729456                0.01006230               21.02435787                1.00000000               -0.03508784               -0.03474169                0.11694199                0.00040220                0.00785483                0.00093145
               9.99693973                0.01114578               21.02465586                1.00000000               -0.03548303               -0.03554615                0.11953778                0.00076360                0.00586625                0.00534661
               0.00214858                1.00145764               21.01747094                1.00000000               -0.02519176               -0.02527913                0.08422946               -0.00025986                0.00098387                0.00372002
               1.00189666                1.00053285               21.01743697                0.01000000               -0.02505933               -0.02506380                0.08355507               -0.00000872                0.00270348               -0.00284345
               2.00164739                0.99960334               21.01743652                0.01000000               -0.05104983               -0.03537374                0.08292814                0.00306006                0.05601434                0.02429967
               3.00087566                0.99918999               21.01846937                0.01000001               -0.08676167               -0.02399493                0.08937406                0.04671446                0.10089681               -0.00117668
               3.99991216                1.00006814               21.01947433                0.01000000               -0.11638320               -0.01782618                0.09449622                0.12637100                0.10372196               -0.01263022
               4.99854800                1.00234910               21.02071067                0.01000000               -0.13532925               -0.02295106                0.09996841                0.24466411                0.13445168               -0.02041901
               5.99720557                1.00644711               21.02255019                0.01000001               -0.08319036               -0.11347303                0.10712834                0.22442626                0.08450801               -0.04041200
               6.99688419                1.00754303               21.02298135                1.00000000               -0.03268611               -0.03284003                0.10952195                0.00000030                0.00752929               -0.00431921
               7.99655185                1.00863242               21.02327727                0.99999999               -0.03362235               -0.03363348                0.11208865                0.00002215                0.00122462               -0.00038849
               8.99621175                1.00971489               21.02358020                0.99999999               -0.03439809               -0.03440518                0.11468741                0.00001769                0.00110249                0.00058974
               9.99586389                1.01079032               21.02387349                1.00000000               -0.03478567               -0.03521090                0.11728455                0.00034767                0.00053333                0.00662215
               0.00306955                2.00120712               21.01749071                0.01000000               -0.02466502               -0.03382605                0.08270814               -0.01530448                0.00157540                0.04589620
               1.00282290                2.00028471               21.01741671                0.01000000               -0.04757221               -0.05241814                0.08191819               -0.02311337                0.03504215                0.03816785
               2.00211810                1.99914692               21.01801051                0.01000001               -0.07479795               -0.05553596                0.08708098                0.01292319                0.06201094                0.03608988
               3.00132694                1.99898081               21.01852493                0.01000000               -0.09667079               -0.03948795                0.09043305                0.11870563                0.06528930                0.00222246
               4.00018469                1.99988187               21.01927385                0.01000000               -0.12505991               -0.03505470                0.09460504                0.22947495                0.07803122               -0.01215083
               4.99882574                2.00198763               21.02019689                0.01000001               -0.12916700               -0.05880747                0.09895051                0.31683856                0.07670818               -0.02066751
               5.99760135                2.00450525               21.02110352                0.01000000               -0.15151395               -0.14623362                0.10297072                0.34270924                0.08057281               -0.05254557
               6.99579546                2.00721811               21.02224409                0.01000000               -0.10656352               -0.09427362                0.10721779                0.21040892                0.03809048               -0.01931809
               7.99547008                2.00829944               21.02253395                0.07550936               -0.03292214               -0.03306152                0.10982203                0.00072854               -0.00578418                0.00003973
               8.99513702                2.00937420               21.02279596                0.99999999               -0.03371276               -0.03371116                0.11244502                0.00004995               -0.00417210               -0.00173013
               9.99479582                2.01044156               21.02311890                0.99999999               -0.03411962               -0.03455121                0.11504234                0.00035913               -0.00126068                0.00655416
               0.00368730                3.00078111               21.01834645                0.01000001               -0.01927073               -0.03576280                0.08853296               -0.00728768                0.00661549                0.08937982
               1.00349459                2.99948449               21.01825009                0.01000001               -0.02387677               -0.09509293                0.08899855                0.01434771                0.01540643                0.06557036
               2.00320976                2.99849262               21.01832498                0.01000000               -0.04898819               -0.08903940                0.09028881                0.09961825                0.03585366                0.02177414
               3.00251482                2.99840023               21.01863745                0.01000000               -0.08574639               -0.07618613                0.09271562                0.20714681                0.05355576                0.00266529
               4.00149483                2.99936704               21.01913256                0.01000006               -0.11267176               -0.06973997                0.09554720                0.31024912                0.06440047               -0.00638151
               5.00026139                3.00117295               21.01978341                0.01000000               -0.13327782               -0.08784177                0.09880480                0.38845825                0.06984335               -0.00722372
               5.99882928                3.00352244               21.02053655                0.01000001               -0.14816030               -0.10806769                0.10221409                0.40444241                0.06223573                0.00183437
               6.99729818                3.00565756               21.02120684                0.01000001               -0.22094718               -0.13176032                0.10518701                0.42890664                0.04529506               -0.00361192
               7.99441033                3.00797119               21.02179831                0.01000001               -0.16137800               -0.10400949                0.10566031                0.35395510                0.00046764                0.02703337
               8.99407062                3.00904066               21.02197315                0.01000004               -0.03369913               -0.12329083                0.11021440                0.27452610               -0.01101803                0.03793424
               9.99373635                3.01009929               21.02233844                0.29149515               -0.03342735               -0.25215543                0.11279269                0.31839728               -0.00168347                0.03015933
               0.00551704                4.00049186               21.01920077                0.01000000               -0.01186898               -0.04591201                0.09462187                0.04804064                0.00013708                0.09285530
               1.00539835                3.99838285               21.01886251                0.01000000               -0.01611549               -0.12965582                0.09431853                0.10832359                0.00956474                0.04751307
               2.00519473                3.99736613               21.01868573                0.01000000               -0.04014507               -0.12540842                0.09441055                0.21186187                0.03057915                0.01474480
               3.00459545                3.99745708               21.01875995                0.01000006               -0.07888902               -0.10551854                0.09529598                0.30091854                0.05330659               -0.00210961
               4.00361695                3.99848707               21.01909763                0.01000000               -0.10779689               -0.09826578                0.09717291                0.37924586                0.07141051               -0.00156880
               5.00243951                4.00023079               21.01965081                0.01000001               -0.12056827               -0.10292807                0.09988942                0.43315901                0.08128783                0.01119275
               6.00120558                4.00234390               21.02032643                0.01000001               -0.12573358               -0.12181770                0.10305268                0.46989659                0.08140323                0.03035208
               6.99992484                4.00458290               21.02102303                0.01000004               -0.10197529               -0.13575372                0.10608471                0.47706098                0.06894962                0.05623349
               7.99916608                4.00621925               21.02159558                0.01000004               -0.07127000               -0.18268799                0.10913609                0.51560439                0.05037333                0.07499177
               8.99849944                4.00690838               21.02198435                0.01000000               -0.00597847               -0.21656097                0.11168632                0.37230236                0.02286687                0.09171053
               9.99904651                4.00539845               21.02206026                0.01000001                0.05470699               -0.34057296                0.11350761                0.28178944                0.01376170                0.05739112
               0.00886612                4.99986287               21.02011314                0.01000000               -0.00793336               -0.14025935                0.10104133                0.15241347                0.00131198                0.10763830
               1.00878679                4.99689138               21.01947217                0.01000000               -0.02466771               -0.14509088                0.09972838                0.24543995                0.01219570                0.03967903
               2.00837277                4.99598445               21.01900739                0.01000001               -0.06872663               -0.12874690                0.09843975                0.31041477                0.03633023               -0.00128471
               3.00741226                4.99628986               21.01889471                0.01000000               -0.10333644               -0.12272064                0.09795216                0.37723939                0.06604176               -0.01041867
               4.00630604                4.99740173               21.01916331                0.01000001               -0.11722562               -0.10908699                0.09915090                0.42039286                0.09285613               -0.00023170
               5.00506774                4.99911439               21.01973258                0.01000001               -0.12154703               -0.11152104                0.10178267                0.44701369                0.11008108                0.02271890
               6.00387510                5.00108608               21.02049911                0.01000001               -0.10518454               -0.12684554                0.10530312                0.44674237                0.11628428                0.05524587
               7.00296405                5.00294249               21.02133049                0.01000001               -0.07390778               -0.16052016                0.10917502                0.42655192                0.11042190                0.09159212
               8.00239694                5.00431743               21.02206977                0.01000000               -0.03132916               -0.18798157                0.11283746                0.36146277                0.08977088                0.12504542
               9.00233747                5.00470944               21.02252499                0.01000000               -0.00024703               -0.19968850                0.11568474                0.24674075                0.05353172                0.13983161
              10.00239200                5.00328783               21.02249944                0.01000000                0.00545328               -0.14707666                0.11689218                0.12126011                0.03228661                0.12000520
               0.01450831                5.99768667               21.02135355                0.72641630               -0.03227318               -0.12504936                0.10863444                0.17172403               -0.00338386                0.06349308
               1.01418557                5.99548104               21.02014636                0.01000001               -0.12518831               -0.08660152                0.10658340                0.23523800                0.01059581                0.01790175
               2.01200454                5.99479119               21.01922736                0.01000000               -0.17313091               -0.15164554                0.10171576                0.36090814                0.03910332               -0.02767853
               3.01072296                5.99500267               21.01899338                0.01000001               -0.14021322               -0.11353229                0.10028391                0.39695041                0.08955770               -0.02073058
               4.00920027                5.99630533               21.01928937                0.01000001               -0.15137644               -0.10726203                0.10120244                0.42986711                0.12467984               -0.00331080
               5.00769543                5.99800037               21.01997346                0.01000001               -0.14439720               -0.10150801                0.10416913                0.42310130                0.14909659                0.02773286
               6.00631233                5.99980699               21.02095255                0.01000002               -0.12354500               -0.11104367                0.10853322                0.37978941                0.16279848                0.07033167
               7.00522453                6.00137250               21.02207567                0.01000000               -0.08419773               -0.14015485                0.11356297                0.30655552                0.16048727                0.12167324
               8.00462838                6.00245962               21.02312286                0.01000000               -0.03803382               -0.17135392                0.11842539                0.22480252                0.13582458                0.17299063
               9.00446385                6.00291461               21.02379148                0.01000001               -0.01567231               -0.16385239                0.12204912                0.12580803                0.08246087                0.21058909
              10.00431493                6.00245692               21.02374728                0.01000001               -0.01489202               -0.05745318                0.12324730                0.06113858                0.04810364                0.21076744
               0.01671188                6.99736189               21.02183452                0.99999999               -0.03248498               -0.03249019                0.10933676               -0.00012676               -0.00396617                0.02413099
               1.01638703                6.99515934               21.02050813                1.00000000               -0.03212908               -0.03207807                0.10687375               -0.00033181               -0.00613323                0.00255695
               2.01606929                6.99295154               21.01914496                0.01000000               -0.12749508               -0.10761494                0.10469525                0.25649324                0.05599522               -0.03311190
               3.01383712                6.99401921               21.01906967                0.01000001               -0.20818086               -0.11718833                0.10218675                0.38744257                0.12407581               -0.03154588
               4.01190568                6.99525649               21.01941513                0.01000004               -0.19045059               -0.10326717                0.10312808                0.41638091                0.15776073               -0.01464677
               5.01002811                6.99708423               21.02028477                0.01000001               -0.19034596               -0.06548988                0.10675480                0.38755962                0.19327784                0.02601276
               6.00809876                6.99886521               21.02158195                0.01000000               -0.17927906               -0.06237420                0.11232786                0.29074211                0.21786135                0.07541818
               7.00644253                7.00013939               21.02317977                0.01000000               -0.13739385               -0.08885435                0.11916271                0.16661914                0.22408638                0.13869628
               8.00535088                7.00089035               21.02478757                0.01000000               -0.07931013               -0.13127812                0.12610207                0.05330050                0.19805538                0.23038864
               9.00485633                7.00143240               21.02596505                0.01000002               -0.04103596               -0.14232895                0.13161285               -0.00360338                0.12226388                0.30635869
              10.00453016                7.00213877               21.02607547                0.01000000               -0.03261674               -0.03907488                0.13344170               -0.01747867                0.06892483                0.35241423
               0.01891085                7.99703687               21.02229275                1.00000000               -0.03215670               -0.03239670                0.10826249               -0.00008967               -0.00073462                0.02307905
               1.01858929                7.99483947               21.02088378                0.99999999               -0.03181596               -0.03184891                0.10609004                0.00003554               -0.00047135                0.00302160
               2.01827454                7.99263889               21.01948376                0.01000000               -0.12112150               -0.03115915                0.10388038                0.11116861                0.04708354               -0.01650809
               3.01616686                7.99265890               21.01903182                0.01000001               -0.19058290               -0.19440786                0.10377841                0.39655803                0.12155720               -0.08801787
               4.01446288                7.99423999               21.01941755                0.01000004               -0.21644808               -0.05906533                0.10474677                0.43696535                0.19215385               -0.02590908
               5.01183790                7.99669058               21.02058071                0.01000000               -0.26954333                0.00166110                0.10928189                0.34506913                0.23895866                0.01970084
               6.00907201                7.99855950               21.02223197                0.01000000               -0.26530653                0.00469349                0.11621866                0.19775891                0.27201460                0.06697621
               7.00653177                7.99959541               21.02439895                0.01000000               -0.23353149               -0.01224127                0.12514770                0.03959040                0.31293373                0.13013844
               8.00440138                7.99983406               21.02716085                0.01000002               -0.16941998               -0.04949332                0.13636398               -0.11614985                0.30041316                0.23761473
               9.00314337                8.00006803               21.02929706                0.01000007               -0.09243861               -0.10240904                0.14545187               -0.22338176                0.19931154                0.52612988
              10.00255261                8.00167542               21.03014111                0.01000000               -0.05907567               -0.16018639                0.15011879               -0.16425422                0.13307108                0.51608534
               0.02110487                8.99671395               21.02275584                1.00000000               -0.03191616               -0.03220702                0.10746804               -0.00009841                0.00227045                0.01838729
               1.02078571                8.99452237               21.02126058                0.99999999               -0.03158180               -0.03158105                0.10526591                0.00003397                0.00103783                0.00170641
               2.02047324                8.99232835               21.01974171                1.00000000               -0.03092599               -0.03093491                0.10307023               -0.00000845               -0.00553154               -0.01230865
               3.02016719                8.99013106               21.01811843                0.01000002               -0.19299623               -0.14144761                0.10085228                0.39711375                0.13506198               -0.07695807
               4.01661331                8.99407518               21.01941737                0.01000000               -0.37786055                0.05648169                0.10589577                0.40783675                0.26092355               -0.02401358
               5.01260998                8.99711745               21.02077585                0.01000000               -0.37321070                0.06782113                0.11141963                0.22822599                0.26587194                0.01212173
               6.00914910                8.99895908               21.02269281                0.01000001               -0.33250964                0.05786188                0.11925557                0.10120034                0.31036290                0.04179936
               7.00595979                8.99989457               21.02536401                0.01000002               -0.32969167                0.04848084                0.13013541               -0.01057323                0.38113259                0.08226793
               8.00255526                8.99990049               21.02905856                0.01000002               -0.37062292                0.05186399                0.14501241               -0.13141096                0.57524769                0.16473685
               8.99854733                8.99938422               21.03597305                0.99999998               -0.22624806               -0.06010459                0.17185466               -0.25534261                0.35734365                0.34719480
               9.99803030                8.99893504               21.03571808                0.99999993               -0.05170256               -0.16314040                0.17306036               -0.24863957               -0.00101375                0.29008000
               0.02329206                9.99639273               21.02312080                1.00000000               -0.03164926               -0.03212247                0.10664886                0.00023108                0.01278258                0.01356197
               1.02297557                9.99420785               21.02161317                1.00000000               -0.03131910               -0.03145139                0.10444688                0.00035894                0.01609756                0.00045023
               2.02266568                9.99202020               21.02017028                1.00000000               -0.03066297               -0.03081572                0.10227502                0.00034898                0.01618268               -0.00394619
               3.02236231                9.98982995               21.01866526                0.01000000               -0.35162296               -0.03011045                0.10007677                0.38698287                0.12691360               -0.00425013
               4.01563322                9.99536962               21.01944028                0.01000000               -0.54218953                0.12944432                0.10592877                0.31284293                0.22513352               -0.01221308
               5.01151852                9.99804700               21.02081859                0.01000000               -0.36571573                0.09295480                0.11209812                0.10820955                0.25666464                0.01273751
               6.00831890                9.99971674               21.02274345                0.01000001               -0.30698119                0.07576628                0.12027281                0.04288211                0.30940218                0.02820754
               7.00537889               10.00056503               21.02554577                0.01000000               -0.30176953                0.06704658                0.13200960               -0.00035978                0.41610852                0.04938442
               8.00228351               10.00087134               21.02991778                0.01000002               -0.31884673                0.09708490                0.14989866               -0.11212968                0.55093802                0.12098148
               8.99900196                9.99886594               21.03572810                0.99999999               -0.19026744               -0.05182729                0.17385902               -0.07747323                0.30449655                0.00122811
               9.99847816                9.99841261               21.03547312                0.99999999               -0.05237944               -0.05224291                0.17506840               -0.00054690                0.00112996               -0.00111477
               0.00122674                0.00174221               22.01831845                1.00000000               -0.02577089               -0.02557412                0.08617210               -0.00048495               -0.00372664                0.00332957
               1.00096903                0.00076863               22.01827545                1.00000000               -0.02558941               -0.02532359                0.08537492                0.00000222               -0.00391754               -0.00113090
               2.00071495               -0.00020909               22.01822686                0.01000000               -0.00499082               -0.02507039                0.08453576                0.02896026                0.05216634               -0.00151872
               3.00086922               -0.00061055               22.01930702                0.01000000                0.00532832               -0.02613233                0.08933838                0.02321546                0.11750139               -0.00120303
               4.00082152                0.00026315               22.02055549                0.01000001               -0.03029913               -0.01501049                0.09484571                0.06528130                0.14215727               -0.01090442
               5.00026323                0.00269017               22.02215083                0.01000000               -0.13856732               -0.00668142                0.10084665                0.16653663                0.18109110               -0.01939998
               5.99805017                0.00742949               22.02429292                0.25447225               -0.12682756               -0.03250849                0.10843773                0.17955433                0.10687650               -0.00100842
               6.99772668                0.00857698               22.02483076                0.99999999               -0.03305832               -0.03299358                0.11111812                0.00026047                0.01660624               -0.00443510
               7.99738901                0.00972206               22.02516242                0.99999999               -0.03419925               -0.03388121                0.11397084                0.00045567                0.00811169               -0.00048773
               8.99704270                0.01086058               22.02552708                1.00000000               -0.03507431               -0.03475391                0.11689887                0.00045193                0.00787115                0.00093502
               9.99668752                0.01199295               22.02585266                1.00000000               -0.03551765               -0.03566223                0.11982699                0.00078869                0.00588174                0.00535810
               0.00219547                1.00148647               22.01831344                1.00000000               -0.02507646               -0.02528304                0.08435519               -0.00027636                0.00104530                0.00387362
               1.00194471                1.00051540               22.01827211                0.01014438               -0.02506623               -0.02506828                0.08347125                0.00009432                0.00244650               -0.00304007
               2.00169415                0.99954020               22.01826503                0.01000000               -0.05397278               -0.03589996                0.08275099                0.00431797                0.05960988                0.02730459
               3.00086525                0.99912813               22.01936169                0.01000001               -0.09350876               -0.02324123                0.08920202                0.05254832                0.10654246                0.00051247
               3.99982397                1.00011304               22.02041762                0.01000000               -0.12599111               -0.01630923                0.09424820                0.13990909                0.10791295               -0.01179782
               4.99834543                1.00262336               22.02170797                0.01000000               -0.14608307               -0.02192247                0.09954470                0.26992430                0.13868345               -0.02018961
               5.99690231                1.00710440               22.02361770                0.01000001               -0.08812150               -0.12169070                0.10635803                0.24735093                0.08650706               -0.04128726
               6.99658300                1.00824705               22.02407394                1.00000000               -0.03252730               -0.03267250                0.10898015                0.00001924                0.00739274               -0.00436647
               7.99625176                1.00938325               22.02439717                0.99999999               -0.03356141               -0.03357121                0.11188254                0.00001979                0.00122224               -0.00039192
               8.99591177                1.01051304               22.02472771                0.99999999               -0.03443644               -0.03444270                0.11481335                0.00001591                0.00111722                0.00060001
               9.99556304                1.01163633               22.02504859                1.00000000               -0.03487353               -0.03535199                0.11774269                0.00032106                0.00054539                0.00663492
               0.00316336                2.00123655               22.01831705                0.01000001               -0.02461769               -0.03299608                0.08254071               -0.01416253                0.00167915                0.04996168
               1.00291719                2.00026727               22.01823371                0.01000000               -0.04873904               -0.05456939                0.08146342               -0.02240604                0.03833393                0.04249146
               2.00218858                1.99907291               22.01887980                0.01000001               -0.07849206               -0.05806557                0.08663386                0.01687429                0.06645751                0.04115815
               3.00134735                1.99892463               22.01942842                0.01000000               -0.10320558               -0.04069119                0.09045344                0.13220998                0.06869577                0.00519491
               4.00012447                1.99993696               22.02021890                0.01000000               -0.13384933               -0.03585290                0.09448950                0.25329096                0.08124801               -0.01041260
               4.99867036                2.00225172               22.02118495                0.01000001               -0.13754848               -0.06219569                0.09874525                0.34829802                0.07920839               -0.01975720
               5.99737350                2.00499567               22.02213174                0.01000000               -0.16110699               -0.15837745                0.10272245                0.37510930                0.08254100               -0.05310003
               6.99544822                2.00792353               22.02331451                0.01000000               -0.11250466               -0.10030162                0.10685035                0.22917720                0.03883078               -0.01912531
               7.99512341                2.00905064               22.02363203                0.07761089               -0.03291420               -0.03306942                0.10978638                0.00078757               -0.00575518               -0.00074062
               8.99478994                2.01017172               22.02392187                0.99999998               -0.03380217               -0.03379672                0.11273898                0.00005136               -0.00414475               -0.00170848
               9.99444737                2.01128591               22.02427241                0.99999999               -0.03425699               -0.03474332                0.11566818                0.00033415               -0.00124843                0.00656379
               0.00385079                3.00082655               22.01923108                0.01000001               -0.01905605               -0.03463579                0.08841226               -0.00554487                0.00727468                0.09680324
               1.00366023                2.99942401               22.01913963                0.01000001               -0.02382578               -0.10075121                0.08897821                0.01937393                0.01640142                0.07343760
               2.00337428                2.99837889               22.01922763                0.01000000               -0.05074157               -0.09483852                0.09041635                0.11271170                0.03766781                0.02675355
               3.00264540                2.99831430               22.01956439                0.01000000               -0.09057900               -0.08073253                0.09277603                0.22961858                0.05576862                0.00609884
               4.00156270                2.99939598               22.02008763                0.01000001               -0.11963600               -0.07392542                0.09559342                0.34127642                0.06666441               -0.00414125
               5.00025268                3.00137944               22.02077094                0.01000000               -0.14150046               -0.09400596                0.09881413                0.42532850                0.07201306               -0.00560880
               5.99873269                3.00393685               22.02155824                0.01000001               -0.15705502               -0.11621659                0.10223088                0.44091200                0.06389089                0.00339179
               6.99711158                3.00624101               22.02225960                0.01000001               -0.23566815               -0.14165213                0.10532813                0.46557700                0.04527144               -0.00229043
               7.99401932                3.00872186               22.02285902                0.01000001               -0.17170274               -0.11047416                0.10713816                0.38279816                0.00028454                0.02898064
               8.99367752                3.00983711               22.02307758                0.01000000               -0.03389876               -0.13070915                0.11067537                0.29595313               -0.01019947                0.03983269
               9.99334135                3.01094146               22.02347029                0.30949964               -0.03361760               -0.26944204                0.11358695                0.34322098               -0.00168445                0.03162881
               0.00585755                4.00054384               22.02014778                0.01000000               -0.01052252               -0.04784308                0.09478616                0.05452574               -0.00006936                0.10074453
               1.00575232                3.99825224               22.01980705                0.01000000               -0.01525126               -0.13868758                0.09463147                0.12189439                0.00951186                0.05422768
               2.00555252                3.99717614               22.01963099                0.01000000               -0.04148481               -0.13379480                0.09469907                0.23558606                0.03100738                0.01974754
               3.00492263                3.99730998               22.01971331                0.01000003               -0.08338317               -0.11225505                0.09549838                0.33172675                0.05450551                0.00101473
               4.00388486                3.99845845               22.02006929                0.01000000               -0.11432838               -0.10464733                0.09728588                0.41586905                0.07340738                0.00058930
               5.00263606                4.00037160               22.02064957                0.01000001               -0.12773448               -0.10991715                0.10000383                0.47314729                0.08374939                0.01325718
               6.00133017                4.00267134               22.02135728                0.01000001               -0.13306545               -0.13043050                0.10324068                0.51129733                0.08377986                0.03286201
               6.99997475                4.00509049               22.02208525                0.01000001               -0.10734452               -0.14523283                0.10649735                0.51703356                0.07095177                0.05957345
               7.99918328                4.00684115               22.02268964                0.01000001               -0.07426773               -0.19563395                0.10965264                0.55719539                0.05195038                0.07999179
               8.99848940                4.00755754               22.02310474                0.01000000               -0.00401037               -0.23142986                0.11247516                0.40176891                0.02371068                0.09600496
               9.99910307                4.00589707               22.02319983                0.01000000                0.06136766               -0.36476435                0.11448815                0.30388832                0.01449472                0.06042946
               0.00952449                4.99986969               22.02112669                0.01000000               -0.00586754               -0.15393347                0.10164979                0.16978378                0.00074903                0.11640042
               1.00946582                4.99665026               22.02047307                0.01000000               -0.02481136               -0.15530496                0.10045744                0.27230581                0.01151348                0.04705376
               2.00902827                4.99570300               22.01999438                0.01000001               -0.07340986               -0.13641105                0.09898761                0.34230522                0.03581221                0.00291371
               3.00799762                4.99606920               22.01987506                0.01000000               -0.11049082               -0.13023612                0.09811788                0.41359034                0.06670150               -0.00818671
               4.00681845                4.99730304               22.02015434                0.01000001               -0.12474411               -0.11574242                0.09917539                0.45955714                0.09520685                0.00129000
               5.00550274                4.99918110               22.02075009                0.01000001               -0.12893517               -0.11856513                0.10184568                0.48751454                0.11360593                0.02469605
               6.00423975                5.00132824               22.02155248                0.01000004               -0.11101504               -0.13508732                0.10552242                0.48593750                0.12015787                0.05834022
               7.00328244                5.00333636               22.02242340                0.01000005               -0.07717837               -0.17120518                0.10953819                0.46265326                0.11405969                0.09604466
               8.00269618                5.00480918               22.02320018                0.01000000               -0.03127258               -0.20043989                0.11337783                0.39096739                0.09273599                0.13053560
               9.00265699                5.00520851               22.02368508                0.01000000                0.00219404               -0.21280856                0.11644309                0.26628870                0.05533916                0.14574003
              10.00274006                5.00364617               22.02367304                0.01000000                0.00830737               -0.15604842                0.11795817                0.13074283                0.03340363                0.12511391
               0.01569209                5.99746517               22.02244587                0.69861332               -0.03269540               -0.13658629                0.10976892                0.19233467               -0.00335271                0.06875089
               1.01536513                5.99514614               22.02122018                0.01000001               -0.13562011               -0.09149503                0.10812331                0.25990506                0.00895140                0.02261529
               2.01297968                5.99444792               22.02024861                0.01000000               -0.18853686               -0.16033968                0.10249325                0.39450350                0.03677982               -0.02391183
               3.01159440                5.99470525               22.01999565                0.01000001               -0.15077895               -0.11920916                0.10031394                0.43256394                0.09023046               -0.01977564
               4.00996411                5.99614360               22.02029988                0.01000001               -0.16166252               -0.11302042                0.10078868                0.46815992                0.12825917               -0.00284301
               5.00836115                5.99800030               22.02101412                0.01000004               -0.15352210               -0.10711056                0.10408858                0.46051094                0.15434610                0.02941330
               6.00689366                5.99996959               22.02203781                0.01000000               -0.13071340               -0.11743541                0.10865296                0.41315243                0.16855102                0.07372184
               7.00574688                6.00166639               22.02321211                0.01000000               -0.08815931               -0.14858319                0.11387783                0.33324250                0.16598314                0.12684739
               8.00513048                6.00283235               22.02430880                0.01000000               -0.03843502               -0.18175854                0.11890220                0.24400133                0.14037520                0.17979151
               9.00497818                6.00330137               22.02501473                0.01000001               -0.01439401               -0.17339269                0.12273343                0.13621004                0.08521747                0.21852721
              10.00484260                6.00277610               22.02498392                0.01000001               -0.01355796               -0.05913661                0.12422834                0.06606986                0.04976301                0.21873308
               0.01800923                6.99713796               22.02293229                0.99999999               -0.03280636               -0.03268796                0.11017880               -0.00019934               -0.00432983                0.02482189
               1.01768117                6.99482036               22.02158304                1.00000000               -0.03250026               -0.03242426                0.10807902               -0.00034728               -0.00633744                0.00314361
               2.01735923                6.99249620               22.02019982                0.01000000               -0.13639785               -0.11342327                0.10625414                0.27836174                0.05523806               -0.03093547
               3.01495321                6.99368502               22.02009030                0.01000001               -0.22363136               -0.12223513                0.10064576                0.41866552                0.12554262               -0.03208035
               4.01288660                6.99504263               22.02044372                0.01000021               -0.20331225               -0.10826189                0.10259262                0.45046832                0.16323256               -0.01491849
               5.01088697                6.99703889               22.02135067                0.01000005               -0.20249458               -0.06796508                0.10634741                0.42035819                0.20049797                0.02766605
               6.00883671                6.99897953               22.02270483                0.01000000               -0.19012211               -0.06477376                0.11239100                0.31610724                0.22565976                0.07904505
               7.00708453                7.00036469               22.02437187                0.01000000               -0.14477444               -0.09312007                0.11939777                0.18238420                0.23177916                0.14431947
               8.00594122                7.00117401               22.02604958                0.01000000               -0.08235424               -0.13805943                0.12644577                0.06013011                0.20468340                0.23887606
               9.00543744                7.00174065               22.02728295                0.01000002               -0.04146120               -0.14912273                0.13209659               -0.00212144                0.12635525                0.31724290
              10.00511200                7.00246344               22.02741300                0.01000005               -0.03254446               -0.03831264                0.13420098               -0.01784385                0.07132534                0.36500349
               0.02032331                7.99681141               22.02337730                1.00000000               -0.03233638               -0.03248714                0.10863106               -0.00014181               -0.00074331                0.02300792
               1.01999995                7.99449766               22.02194860                0.99999999               -0.03205265               -0.03207060                0.10685795                0.00005459               -0.00048964                0.00304949
               2.01968226                7.99217945               22.02052842                0.01000000               -0.12893329               -0.03150895                0.10504138                0.12018604                0.04801251               -0.01650601
               3.01742128                7.99226055               22.02007553                0.01000001               -0.20313280               -0.20682031                0.10411537                0.42683695                0.12543452               -0.09014491
               4.01561960                7.99397837               22.02046326                0.01000002               -0.22949394               -0.06091281                0.10328151                0.46988943                0.19858186               -0.02572047
               5.01283140                7.99664100               22.02167225                0.01000000               -0.28647994                0.00404983                0.10920764                0.37240768                0.24735552                0.02179943
               6.00989000                7.99867412               22.02339457                0.01000000               -0.28156591                0.00714880                0.11634452                0.21454052                0.28151209                0.07041341
               7.00720008                7.99980398               22.02565082                0.01000000               -0.24664425               -0.01105133                0.12536191                0.04516390                0.32359074                0.13537656
               8.00495712                8.00007117               22.02852456                0.01000002               -0.17768845               -0.05042978                0.13649766               -0.12124362                0.31050559                0.24609685
               9.00364632                8.00031892               22.03075171                0.01000007               -0.09584870               -0.10549395                0.14558872               -0.23569005                0.20607528                0.54443597
              10.00304014                8.00200985               22.03164357                0.01000000               -0.06061712               -0.16518427                0.15046799               -0.17305402                0.13788074                0.53445043
               0.02263390                8.99648822               22.02383035                1.00000000               -0.03196774               -0.03218025                0.10742896               -0.00015308                0.00227962                0.01846605
               1.02231422                8.99417895               22.02231507                0.99999999               -0.03169188               -0.03168488                0.10563104                0.00004585                0.00105515                0.00172887
               2.02200006                8.99186602               22.02077631                1.00000000               -0.03115905               -0.03116445                0.10385131                0.00000491               -0.00551594               -0.01229734
               3.02169104                8.98954861               22.01913299                0.01000001               -0.20480584               -0.15080481                0.10206253                0.42723537                0.13852367               -0.07792452
               4.01790394                8.99382437               22.02048099                0.01000000               -0.40258339                0.06234662                0.10688090                0.43848200                0.26798357               -0.02374275
               5.01363937                8.99711989               22.02189242                0.01000000               -0.39697039                0.07459012                0.11191382                0.24538768                0.27411301                0.01369551
               6.00996453                8.99912251               22.02388705                0.01000001               -0.35243072                0.06379752                0.11964308                0.10942713                0.32079636                0.04406308
               7.00659075                9.00014367               22.02666635                0.01000002               -0.34815589                0.05369777                0.13041352               -0.01004889                0.39429034                0.08562549
               8.00300142                9.00016541               22.03050852                0.01000002               -0.39028985                0.05741861                0.14508865               -0.13840917                0.59534024                0.17052043
               8.99878496                8.99963078               22.03768834                0.99999998               -0.23661822               -0.06029742                0.17117667               -0.26944357                0.36983547                0.35896972
               9.99826905                8.99915976               22.03744845                1.00000000               -0.05159065               -0.16867013                0.17301879               -0.26218191               -0.00102710                0.30029768
               0.02493880                9.99616780               22.02418501                1.00000000               -0.03157384               -0.03204170                0.10620358                0.00010623                0.01284020                0.01362667
               1.02462306                9.99386396               22.02265738                1.00000000               -0.03130549               -0.03149839                0.10440711                0.00030227                0.01616617                0.00047099
               2.02431269                9.99155616               22.02119483                1.00000000               -0.03077096               -0.03098614                0.10264924                0.00028778                0.01624597               -0.00393960
               3.02400764                9.98924445               22.01966986                0.01000000               -0.37473599               -0.03041588                0.10085970                0.41511728                0.13103940               -0.00426351
               4.01681797                9.99522530               22.02050666                0.01000000               -0.57833118                0.14009272                0.10741023                0.33582023                0.23305966               -0.01228296
               5.01244102                9.99813280               22.02194464                0.01000000               -0.38816027                0.10129155                0.11311640                0.11640342                0.26488868                0.01358669
               6.00905476                9.99995007               22.02394949                0.01000001               -0.32424082                0.08275590                0.12093403                0.04628006                0.32017324                0.02965508
               7.00595620               10.00087794               22.02686806                0.01000001               -0.31764690                0.07342728                0.13247937                0.00001825                0.43136795                0.05142942
               8.00270183               10.00121954               22.03141782                0.01000002               -0.33465500                0.10541244                0.15011131               -0.11820750                0.57160133                0.12522748
               8.99926310                9.99911297               22.03746692                0.99999996               -0.19816414               -0.05178075                0.17390094               -0.08134022                0.31571813                0.00129234
               9.99873854                9.99863645               22.03722709                0.99999998               -0.05245584               -0.05233110                0.17574378               -0.00070297                0.00106252               -0.00114017
               0.00123665                0.00178931               23.01918139                1.00000000               -0.02546464               -0.02527971                0.08617550               -0.00037868               -0.00350781                0.00365578
               1.00098201                0.00077004               23.01913052                1.00000000               -0.02554299               -0.02562456                0.08555268               -0.00088219               -0.00384274               -0.00117684
               2.00072579               -0.00025232               23.01907255                0.01000000               -0.00515822               -0.02511926                0.08477720                0.03028390                0.05500414               -0.00163342
               3.00087884               -0.00067271               23.02020014                0.01000000                0.00449550               -0.02484566                0.08943402                0.02492594                0.12232135               -0.00043927
               4.00081570                0.00029605               23.02150284                0.01000001               -0.03415065               -0.01272755                0.09473610                0.07169770                0.14654405               -0.01063555
               5.00019583                0.00294437               23.02315669                0.01000000               -0.15256743               -0.00331848                0.10037501                0.18302185                0.18560175               -0.01958575
               5.99776436                0.00810497               23.02537251                0.24319323               -0.13762212               -0.03224294                0.10745246                0.19831328                0.10886193               -0.00102312
               6.99744339                0.00929986               23.02593827                1.00000000               -0.03284780               -0.03278978                0.11036740                0.00031408                0.01642033               -0.00448977
               7.99710740                0.01049286               23.02630020                0.99999999               -0.03408217               -0.03378840                0.11357632                0.00050743                0.00808694               -0.00049196
               8.99676174                0.01167975               23.02669584                1.00000000               -0.03505929               -0.03476525                0.11685132                0.00050394                0.00788524                0.00093818
               9.99640621                0.01286108               23.02705240                1.00000000               -0.03555305               -0.03578202                0.12012653                0.00081562                0.00589519                0.00536814
               0.00225214                1.00153651               23.01915804                1.00000000               -0.02581388               -0.02502999                0.08431998               -0.00061441                0.00121287                0.00407853
               1.00199400                1.00051379               23.01910639                0.01000000               -0.02510650               -0.02515054                0.08345163                0.00023947                0.00308699               -0.00301204
               2.00175001                0.99949649               23.01909154                0.01000000               -0.05700400               -0.03700977                0.08283803                0.00458907                0.06370092                0.02987646
               3.00085392                0.99907883               23.02025341                0.01000001               -0.10129352               -0.02226375                0.08930648                0.05775947                0.11211040                0.00244238
               3.99972414                1.00016877               23.02135930                0.01000000               -0.13661656               -0.01462165                0.09419180                0.15348854                0.11170798               -0.01082067
               4.99812159                1.00291119               23.02270156                0.01000000               -0.15771957               -0.02074296                0.09923663                0.29575017                0.14230023               -0.01979876
               5.99656975                1.00778254               23.02467735                0.01000001               -0.09345024               -0.13011257                0.10554227                0.27095119                0.08807459               -0.04195341
               6.99625258                1.00897196               23.02516095                1.00000000               -0.03236099               -0.03249566                0.10840759                0.00004174                0.00720188               -0.00440825
               7.99592253                1.01015497               23.02551492                1.00000000               -0.03349558               -0.03350410                0.11166022                0.00001755                0.00122003               -0.00039480
               8.99558267                1.01133210               23.02587647                0.99999999               -0.03447432               -0.03447978                0.11493783                0.00001415                0.00113020                0.00060935
               9.99523304                1.01250326               23.02622834                1.00000000               -0.03496314               -0.03549722                0.11821414                0.00029399                0.00055605                0.00664605
               0.00326981                2.00128871               23.01914152                0.01000001               -0.02429849               -0.03250305                0.08228580               -0.01399031                0.00172701                0.05400075
               1.00302682                2.00026703               23.01904597                0.01000000               -0.05086341               -0.05669460                0.08122854               -0.02245772                0.04141324                0.04736514
               2.00225254                1.99900749               23.01974318                0.01000001               -0.08325354               -0.06099944                0.08705661                0.02016673                0.07081896                0.04636963
               3.00136175                1.99888201               23.02033400                0.01000000               -0.10997100               -0.04207547                0.09060882                0.14562021                0.07211855                0.00842240
               4.00005312                2.00000361               23.02116364                0.01000000               -0.14323412               -0.03674729                0.09461192                0.27724632                0.08405365               -0.00845875
               4.99849707                2.00252951               23.02217180                0.01000001               -0.14652540               -0.06575178                0.09871923                0.38042765                0.08133161               -0.01863264
               5.99712261                2.00550272               23.02315797                0.01000000               -0.17126400               -0.17089024                0.10259102                0.40845600                0.08405108               -0.05332663
               6.99507179                2.00864994               23.02438110                0.01000000               -0.11874989               -0.10654735                0.10645483                0.24851544                0.03930862               -0.01877338
               7.99474761                2.00982277               23.02472968                0.08001152               -0.03290235               -0.03308881                0.10973748                0.00078634               -0.00572913               -0.00051766
               8.99441374                2.01099015               23.02505073                0.99999998               -0.03389206               -0.03388264                0.11303451                0.00005286               -0.00412046               -0.00168860
               9.99406977                2.01215114               23.02543227                0.99999999               -0.03439702               -0.03494049                0.11631032                0.00030874               -0.00123775                0.00657197
               0.00401570                3.00088645               23.02011470                0.01000001               -0.01896275               -0.03387850                0.08833607               -0.00429048                0.00787982                0.10456637
               1.00382607                2.99937990               23.02002965                0.01000001               -0.02386692               -0.10665324                0.08913968                0.02343004                0.01743036                0.08194541
               2.00353836                2.99827650               23.02013330                0.01000000               -0.05279366               -0.10065770                0.09067133                0.12567512                0.03936319                0.03229088
               3.00277020                2.99823732               23.02049297                0.01000000               -0.09583978               -0.08576520                0.09313946                0.25214136                0.05762829                0.00963987
               4.00162156                2.99943383               23.02104443                0.01000001               -0.12695780               -0.07857313                0.09592224                0.37272726                0.06862076               -0.00175759
               5.00023104                3.00159615               23.02175969                0.01000000               -0.15015625               -0.10063593                0.09909101                0.46301745                0.07384890               -0.00386856
               5.99861844                3.00436473               23.02258116                0.01000001               -0.16641035               -0.12479050                0.10246978                0.47838763                0.06521145                0.00508649
               6.99690283                3.00684101               23.02331340                0.01000001               -0.25101977               -0.15196846                0.10562156                0.50340970                0.04573988               -0.00065069
               7.99359804                3.00949320               23.02394108                0.01000001               -0.18237322               -0.11724230                0.10853164                0.41257081               -0.00015526                0.03108806
               8.99325537                3.01065445               23.02418666                0.01000000               -0.03403938               -0.13845836                0.11114105                0.31804860               -0.01038770                0.04184856
               9.99291725                3.01180445               23.02461018                0.32813062               -0.03381141               -0.28734224                0.11440043                0.36882328               -0.00168598                0.03314173
               0.00619710                4.00061114               23.02109649                0.01000000               -0.00917246               -0.04968302                0.09497395                0.06091457               -0.00038798                0.10914325
               1.00610537                3.99813396               23.02075514                0.01000000               -0.01442393               -0.14802910                0.09504590                0.13532464                0.00923174                0.06146143
               2.00590862                3.99699433               23.02057972                0.01000000               -0.04290609               -0.14256979                0.09519935                0.25907077                0.03108064                0.02497202
               3.00524725                3.99716671               23.02066992                0.01000001               -0.08798941               -0.11967695                0.09600221                0.36269761                0.05534682                0.00409143
               4.00414883                3.99843215               23.02104335                0.01000000               -0.12103707               -0.11184435                0.09776985                0.45318345                0.07507746                0.00258323
               5.00282651                4.00051680               23.02165089                0.01000001               -0.13516639               -0.11761959                0.10047782                0.51427191                0.08597912                0.01517623
               6.00144550                4.00300691               23.02239124                0.01000001               -0.14074960               -0.13961847                0.10374276                0.55401417                0.08598670                0.03534271
               7.00001152                4.00561057               23.02315297                0.01000003               -0.11299544               -0.15522459                0.10714713                0.55828671                0.07270232                0.06296367
               7.99918559                4.00747793               23.02378863                0.01000001               -0.07740293               -0.20921078                0.11034009                0.60011790                0.05333198                0.08426745
               8.99846346                4.00822099               23.02423385                0.01000000               -0.00196839               -0.24700955                0.11340238                0.43211933                0.02449696                0.10035619
               9.99914623                4.00640429               23.02435002                0.01000000                0.06827674               -0.38992145                0.11564798                0.32667538                0.01506884                0.06349846
               0.01018834                4.99989279               23.02214614                0.01000000               -0.00389726               -0.16775221                0.10221319                0.18742879               -0.00000788                0.12587996
               1.01014937                4.99641932               23.02148132                0.01000000               -0.02506572               -0.16552961                0.10120809                0.29944019                0.01040898                0.05519177
               2.00968703                4.99542510               23.02098714                0.01000001               -0.07815206               -0.14434075                0.09966509                0.37402566                0.03461716                0.00724362
               3.00858633                4.99584378               23.02085707                0.01000000               -0.11759417               -0.13873947                0.09860278                0.45004364                0.06677453               -0.00651249
               4.00733514                4.99719694               23.02114682                0.01000001               -0.13223023               -0.12365289                0.09958890                0.49990679                0.09744245                0.00183728
               5.00594172                4.99924376               23.02176950                0.01000001               -0.13651011               -0.12643708                0.10234910                0.52966706                0.11711645                0.02612322
               6.00460494                5.00157236               23.02260955                0.01000000               -0.11720901               -0.14389158                0.10614450                0.52663094                0.12402525                0.06112767
               7.00359754                5.00373652               23.02352126                0.01000001               -0.08074780               -0.18247974                0.11023323                0.49991478                0.11754990                0.10030340
               8.00298999                5.00530898               23.02433733                0.01000000               -0.03130752               -0.21359437                0.11419636                0.42127008                0.09552481                0.13592434
               9.00297139                5.00571425               23.02485385                0.01000000                0.00470852               -0.22668509                0.11744106                0.28633305                0.05703564                0.15145257
              10.00308416                5.00400602               23.02485861                0.01000000                0.01127632               -0.16563381                0.11930189                0.14045604                0.03447623                0.13007907
               0.01689262                5.99725609               23.02354893                0.67010585               -0.03307546               -0.14829512                0.11076711                0.21349877               -0.00332230                0.07449387
               1.01656186                5.99482337               23.02230883                0.01000001               -0.14639750               -0.09627556                0.10953392                0.28473983                0.00674277                0.02793021
               2.01396467                5.99410752               23.02127722                0.01000000               -0.20427872               -0.16860451                0.10329321                0.42741626                0.03321975               -0.01998510
               3.01247629                5.99439192               23.02099966                0.01000001               -0.16088402               -0.12730246                0.10022762                0.46846654                0.09038897               -0.02171081
               4.01074699                5.99595909               23.02130515                0.01000001               -0.17159315               -0.12011021                0.10077467                0.50854709                0.13194051               -0.00427856
               5.00904443                5.99798805               23.02205523                0.01000008               -0.16308125               -0.11321683                0.10447031                0.50026096                0.16055666                0.02977436
               6.00748536                6.00012907               23.02312561                0.01000079               -0.13856153               -0.12415090                0.10922259                0.44793698                0.17455943                0.07671795
               7.00627320                6.00196098               23.02435323                0.01000000               -0.09260507               -0.15747227                0.11458120                0.36063905                0.17142311                0.13177137
               8.00563326                6.00320604               23.02550090                0.01000000               -0.03900579               -0.19284350                0.11969783                0.26348966                0.14474321                0.18632243
               9.00549308                6.00368729               23.02624615                0.01000001               -0.01307238               -0.18369899                0.12370259                0.14670985                0.08784010                0.22612224
              10.00537181                6.00309161               23.02623185                0.01000001               -0.01212659               -0.06134155                0.12553395                0.07105311                0.05134995                0.22631574
               0.01932377                6.99692689               23.02403810                0.99999999               -0.03310232               -0.03285650                0.11093260               -0.00026861               -0.00473297                0.02554368
               1.01899274                6.99449381               23.02266971                1.00000000               -0.03284818               -0.03274667                0.10920882               -0.00036794               -0.00657666                0.00376033
               2.01866680                6.99205301               23.02127004                0.01000000               -0.14443311               -0.11876161                0.10775161                0.29735562                0.05208541               -0.02815268
               3.01610408                6.99329773               23.02108259                0.01000001               -0.23784267               -0.12893013                0.10004734                0.45030681                0.12484521               -0.03744143
               4.01390995                6.99479473               23.02146698                0.01000098               -0.21635599               -0.11353944                0.10193477                0.48862481                0.17343155               -0.02040809
               5.01177696                6.99697942               23.02241172                0.01000008               -0.21595972               -0.07016162                0.10640364                0.45519428                0.20906642                0.02870673
               6.00959076                6.99908934               23.02382977                0.01000000               -0.20218029               -0.06717628                0.11286400                0.34229857                0.23409336                0.08229003
               7.00773336                7.00058707               23.02556772                0.01000000               -0.15286419               -0.09762572                0.12003708                0.19815790                0.23940239                0.14970006
               8.00653347                7.00145211               23.02731649                0.01000001               -0.08566698               -0.14544940                0.12712618                0.06652695                0.21107516                0.24695199
               9.00602002                7.00204027               23.02860699                0.01000002               -0.04184553               -0.15679643                0.13287494               -0.00100674                0.13026808                0.32755644
              10.00569656                7.00277919               23.02875949                0.01000001               -0.03234555               -0.03813174                0.13527328               -0.01837375                0.07363135                0.37692373
               0.02175341                7.99659896               23.02446537                1.00000000               -0.03250288               -0.03256621                0.10895499               -0.00019007               -0.00075693                0.02291382
               1.02142838                7.99416844               23.02302094                1.00000000               -0.03227767               -0.03228214                0.10758920                0.00007139               -0.00051099                0.00307370
               2.02110785                7.99173228               23.02158459                0.01038874               -0.13438375               -0.03185082                0.10617449                0.12615393                0.04791096               -0.01647407
               3.01874070                7.99181332               23.02111413                0.01000001               -0.21350313               -0.21597480                0.10048390                0.45424615                0.14791006               -0.11412117
               4.01683779                7.99368830               23.02148318                0.01000000               -0.24435017               -0.06189040                0.10285859                0.50375535                0.20877803               -0.02430910
               5.01385370                7.99658482               23.02276486                0.01000000               -0.30570541                0.00697721                0.10923020                0.40032315                0.25792458                0.02347128
               6.01072368                7.99878555               23.02455886                0.01000000               -0.29900566                0.00980405                0.11680898                0.23119891                0.29129352                0.07383533
               7.00787359                8.00000846               23.02690619                0.01000001               -0.26065417               -0.00986220                0.12592343                0.05011347                0.33405227                0.14042007
               8.00551060                8.00029705               23.02989081                0.01000002               -0.18638611               -0.05172356                0.13693753               -0.12752508                0.32017782                0.25412196
               9.00414587                8.00055136               23.03220884                0.01000007               -0.09920464               -0.10959347                0.14599640               -0.24919898                0.21256114                0.56164655
              10.00352651                8.00232898               23.03315047                0.01000000               -0.06193579               -0.17108580                0.15105939               -0.18258851                0.14260171                0.55187640
               0.02418102                8.99627556               23.02490442                1.00000000               -0.03201703               -0.03215166                0.10737936               -0.00020323                0.00229149                0.01855675
               1.02386085                8.99384816               23.02337320                0.99999999               -0.03180100               -0.03178860                0.10599339                0.00005640                0.00108146                0.00176539
               2.02354500                8.99141600               23.02181874                1.00000000               -0.03139338               -0.03139592                0.10463637                0.00001671               -0.00547946               -0.01225840
               3.02323298                8.98897824               23.02015968                0.01000000               -0.21657256               -0.15711868                0.10328249                0.45357441                0.14170793               -0.07781843
               4.01921355                8.99355693               23.02155499                0.01000000               -0.42734017                0.06921577                0.10795366                0.46612823                0.27389192               -0.02296153
               5.01468618                8.99711897               23.02301413                0.01000000               -0.42112306                0.08147314                0.11250144                0.26241336                0.28219474                0.01538150
               6.01079109                8.99928543               23.02508567                0.01000001               -0.37310305                0.06997128                0.12019266                0.11730625                0.33105066                0.04642797
               7.00722412                9.00038983               23.02797228                0.01000002               -0.36755065                0.05908664                0.13091459               -0.01017281                0.40705271                0.08891814
               8.00344008                9.00041764               23.03196033                0.01000002               -0.41100048                0.06301209                0.14540223               -0.14676696                0.61448120                0.17587455
               8.99900411                8.99984840               23.03939659                0.99999998               -0.24752656               -0.06083560                0.17070164               -0.28494910                0.38199952                0.36963211
               9.99848955                8.99935747               23.03917846                0.99999999               -0.05145645               -0.17482247                0.17300745               -0.27646528               -0.00068071                0.31024165
               0.02660414                9.99595593               23.02524487                1.00000000               -0.03150688               -0.03196323                0.10578177               -0.00001475                0.01290564                0.01370347
               1.02628907                9.99353266               23.02370131                1.00000000               -0.03130133               -0.03154998                0.10439838                0.00024383                0.01624261                0.00050313
               2.02597812                9.99110437               23.02222327                1.00000000               -0.03089055               -0.03116312                0.10306129                0.00022519                0.01631402               -0.00392083
               3.02567126                9.98867094               23.02068246                0.01000000               -0.39792457               -0.03072947                0.10168790                0.44224048                0.13532804               -0.00427668
               4.01801962                9.99507262               23.02158849                0.01000001               -0.61488975                0.15156935                0.10882075                0.35777438                0.24093431               -0.01296542
               5.01337347                9.99821428               23.02308092                0.01000000               -0.41103391                0.10953155                0.11394761                0.12434633                0.27210597                0.01432402
               6.00979895               10.00018497               23.02516214                0.01000001               -0.34177752                0.08995475                0.12155098                0.04958126                0.33042759                0.03125275
               7.00653792               10.00119020               23.02819536                0.01000001               -0.33411299                0.08003670                0.13301423               -0.00000421                0.44618682                0.05346550
               8.00311669               10.00155730               23.03292001                0.01000002               -0.35154344                0.11396557                0.15040557               -0.12511671                0.59170772                0.12914249
               8.99950705                9.99933465               23.03920612                0.99999997               -0.20688115               -0.05137595                0.17391489               -0.08594448                0.32597613                0.00076443
               9.99897906                9.99883253               23.03898799                0.99999997               -0.05279851               -0.05249437                0.17621311               -0.00125980                0.00072477               -0.00072454
               0.00125832                0.00186203               24.02004196                1.00000000               -0.02572983               -0.02541150                0.08569856               -0.00039698               -0.00328897                0.00398200
               1.00100102                0.00079335               24.01998650                1.00000000               -0.02564501               -0.02536486                0.08555579                0.00010395               -0.00376794               -0.00122277
               2.00074542               -0.00027975               24.01992241                0.01000000               -0.00578340               -0.02531555                0.08537103                0.03161214                0.05759122               -0.00174813
               3.00088535               -0.00072587               24.02109570                0.01000002                0.00252131               -0.02310143                0.08982826                0.02629748                0.12658455                0.00041533
               4.00079585                0.00033751               24.02245022                0.01000001               -0.03898814               -0.01016876                0.09484153                0.07814311                0.15021527               -0.01026909
               5.00010559                0.00320873               24.02415833                0.01000000               -0.16750044                0.00035518                0.09999341                0.19987176                0.18920128               -0.01962495
               5.99744584                0.00879935               24.02644197                0.23262228               -0.14890940               -0.03194770                0.10638797                0.21751233                0.11032113               -0.00104923
               6.99712740                0.01004182               24.02703811                1.00000000               -0.03263326               -0.03257739                0.10958736                0.00037766                0.01618529               -0.00453744
               7.99679317                0.01128278               24.02743395                0.99999999               -0.03395998               -0.03369100                0.11316508                0.00056126                0.00806482               -0.00049564
               8.99644820                0.01251809               24.02786411                1.00000000               -0.03504298               -0.03477582                0.11679980                0.00055800                0.00789711                0.00094094
               9.99609231                0.01374843               24.02825519                0.99999999               -0.03558908               -0.03590505                0.12043502                0.00084423                0.00590669                0.00537681
               0.00232302                1.00160791               24.01999984                0.99999999               -0.02500748               -0.02510588                0.08379539               -0.00028677                0.00138045                0.00428346
               1.00207295                1.00053971               24.01994115                0.01000000               -0.02509350               -0.02510213                0.08356584                0.00009766                0.00372750               -0.00298401
               2.00182115                0.99946710               24.01992179                0.01000000               -0.06166240               -0.03808575                0.08349999                0.00374642                0.06757637                0.03300111
               3.00083970                0.99904312               24.02114782                0.01000001               -0.11055870               -0.02103081                0.08971286                0.06263135                0.11718911                0.00438238
               3.99960998                1.00023582               24.02230146                0.01000000               -0.14831577               -0.01274270                0.09434755                0.16705301                0.11490989               -0.00963862
               4.99787338                1.00321228               24.02369271                0.01000000               -0.17027839               -0.01938938                0.09904578                0.32205655                0.14512753               -0.01917053
               5.99620441                1.00847988               24.02572855                0.01000001               -0.09919598               -0.13870153                0.10464857                0.29515780                0.08911703               -0.04230705
               6.99588947                1.00971605               24.02624209                1.00000000               -0.03218812               -0.03231056                0.10780788                0.00006358                0.00696372               -0.00444468
               7.99556065                1.01094587               24.02663037                1.00000000               -0.03342545               -0.03343277                0.11142361                0.00001539                0.00121796               -0.00039724
               8.99522096                1.01217033               24.02702646                0.99999999               -0.03451174               -0.03451644                0.11506088                0.00001258                0.00114145                0.00061770
               9.99487041                1.01338938               24.02741287                1.00000000               -0.03505424               -0.03564611                0.11869716                0.00026667                0.00056535                0.00665573
               0.00338900                2.00135991               24.01996276                0.01000000               -0.02452079               -0.03225036                0.08189465               -0.01408701                0.00177488                0.05819726
               1.00314379                2.00029131               24.01985828                0.01000000               -0.05360299               -0.05929788                0.08147171               -0.02420437                0.04504537                0.05239548
               2.00231694                1.99895854               24.02062093                0.01000001               -0.08872666               -0.06394601                0.08786330                0.02196372                0.07551445                0.05206351
               3.00136926                1.99885351               24.02124060                0.01000000               -0.11745969               -0.04359685                0.09103327                0.15856268                0.07480630                0.01189825
               3.99996774                2.00008265               24.02211114                0.01000000               -0.15332960               -0.03773476                0.09499146                0.30129160                0.08650357               -0.00617538
               4.99830266                2.00282094               24.02315934                0.01000001               -0.15612618               -0.06946469                0.09888997                0.41311046                0.08293599               -0.01714489
               5.99684522                2.00602532               24.02418356                0.01000000               -0.18199925               -0.18372840                0.10258542                0.44267326                0.08496063               -0.05301673
               6.99466268                2.00939561               24.02544361                0.01000000               -0.12530139               -0.11299600                0.10603462                0.26828999                0.03943581               -0.01806120
               7.99433919                2.01061413               24.02582678                0.08281631               -0.03288688               -0.03306004                0.10967652                0.00072349               -0.00570600               -0.00002783
               8.99400494                2.01182776               24.02618256                0.99999998               -0.03398217               -0.03396866                0.11333103                0.00005496               -0.00409900               -0.00167058
               9.99365955                2.01303551               24.02659862                1.00000000               -0.03453927               -0.03514219                0.11696686                0.00028322               -0.00122840                0.00657901
               0.00417848                3.00096291               24.02099780                0.01000001               -0.01882460               -0.03323245                0.08831440               -0.00374116                0.00848581                0.11268673
               1.00399023                2.99935375               24.02092242                0.01000001               -0.02401267               -0.11307543                0.08949458                0.02676088                0.01824437                0.09080190
               2.00369823                2.99818818               24.02104106                0.01000000               -0.05516978               -0.10683965                0.09118539                0.13799261                0.04079587                0.03775715
               3.00288684                2.99817118               24.02142718                0.01000000               -0.10149194               -0.09129054                0.09383533                0.27448121                0.05932559                0.01371082
               4.00166839                2.99948113               24.02200608                0.01000000               -0.13469564               -0.08374617                0.09659023                0.40447518                0.07015883                0.00099962
               5.00019292                3.00182298               24.02275276                0.01000000               -0.15925924               -0.10778077                0.09970044                0.50146339                0.07523745               -0.00173940
               5.99848320                3.00480531               24.02360764                0.01000001               -0.17632309               -0.13377603                0.10290584                0.51678724                0.06611091                0.00714305
               6.99666646                3.00745613               24.02437203                0.01000001               -0.26701182               -0.16268516                0.10618369                0.54240443                0.04609622                0.00147662
               7.99314297                3.01028467               24.02502965                0.01000002               -0.19328964               -0.12419373                0.10878606                0.44323417               -0.00077111                0.03343673
               8.99280067                3.01149096               24.02530040                0.01000000               -0.03411903               -0.14651470                0.11161002                0.34074360               -0.01084637                0.04403440
               9.99246058                3.01268654               24.02575830                0.34739762               -0.03400850               -0.30584501                0.11523106                0.39518545               -0.00168767                0.03478547
               0.00653249                4.00069526               24.02204725                0.01000000               -0.00787531               -0.05140254                0.09519499                0.06722882               -0.00080006                0.11799074
               1.00645374                3.99802980               24.02170797                0.01000000               -0.01365646               -0.15766691                0.09558909                0.14846251                0.00878235                0.06912229
               2.00625936                3.99682174               24.02153498                0.01000000               -0.04439018               -0.15189079                0.09598126                0.28222686                0.03088216                0.03067494
               3.00556593                3.99702770               24.02163335                0.01000000               -0.09269585               -0.12809805                0.09692078                0.39362896                0.05582177                0.00748323
               4.00440544                3.99840773               24.02202469                0.01000000               -0.12790918               -0.12015717                0.09876351                0.49120516                0.07635355                0.00484080
               5.00300775                4.00066532               24.02265913                0.01000001               -0.14288118               -0.12618812                0.10143780                0.55657387                0.08776960                0.01738221
               6.00154782                4.00334980               24.02343214                0.01000001               -0.14881708               -0.14944423                0.10464491                0.59809363                0.08778182                0.03809974
               7.00003141                4.00614191               24.02422819                0.01000002               -0.11893882               -0.16569802                0.10798692                0.60098235                0.07406429                0.06654013
               7.99916904                4.00813025               24.02489644                0.01000002               -0.08067310               -0.22346360                0.11133136                0.64433387                0.05434089                0.08845441
               8.99841795                4.00889747               24.02537279                0.01000000                0.00015305               -0.26328502                0.11442820                0.46320556                0.02503322                0.10489103
               9.99917210                4.00691861               24.02551279                0.01000002                0.07541589               -0.41603060                0.11698653                0.35008857                0.01548792                0.06678004
               0.01085397                4.99993485               24.02317096                0.01000002               -0.00209715               -0.18160870                0.10271772                0.20522310               -0.00092088                0.13597126
               1.01083300                4.99620041               24.02249723                0.01000000               -0.02545538               -0.17567187                0.10199660                0.32667306                0.00898147                0.06398037
               2.01034486                4.99515036               24.02198768                0.01000001               -0.08297844               -0.15282156                0.10066294                0.40513495                0.03293702                0.01175925
               3.00917343                4.99560922               24.02184711                0.01000000               -0.12449964               -0.14910944                0.09982369                0.48679701                0.06639802               -0.00527220
               4.00785487                4.99707798               24.02214612                0.01000001               -0.13955505               -0.13349302                0.10083598                0.54159505                0.09928502                0.00222049
               5.00638233                4.99929922               24.02279707                0.01000001               -0.14431912               -0.13558795                0.10356252                0.57412537                0.12035096                0.02753616
               6.00496849                5.00181642               24.02367537                0.01000032               -0.12383340               -0.15330332                0.10732120                0.56909912                0.12750570                0.06404649
               7.00390566                5.00414217               24.02462807                0.01000002               -0.08472036               -0.19432798                0.11134432                0.53838085                0.12059940                0.10466552
               8.00327408                5.00581540               24.02548411                0.01000000               -0.03146203               -0.22753024                0.11525590                0.45232364                0.09792210                0.14134434
               9.00327642                5.00622526               24.02603390                0.01000000                0.00729972               -0.24133943                0.11867738                0.30683063                0.05848857                0.15711886
              10.00342008                5.00436593               24.02605907                0.01000000                0.01436543               -0.17585399                0.12093146                0.15037080                0.03542158                0.13503494
               0.01810584                5.99706309               24.02466121                0.64093591               -0.03341497               -0.16012304                0.11160712                0.23519730               -0.00328838                0.08066077
               1.01777169                5.99451637               24.02341086                0.01000001               -0.15762945               -0.10084805                0.11079651                0.30934609                0.00409265                0.03374687
               2.01495325                5.99376531               24.02231447                0.01000000               -0.21987196               -0.17622874                0.10426744                0.45861678                0.02829791               -0.01578763
               3.01337425                5.99404551               24.02200021                0.01000001               -0.17029554               -0.13937500                0.10114671                0.50261508                0.08969965               -0.02460106
               4.01154734                5.99573787               24.02231538                0.01000001               -0.18112191               -0.13107761                0.10187680                0.55396407                0.13620403               -0.00747353
               5.00975181                5.99795356               24.02310353                0.01000180               -0.17302434               -0.11979135                0.10586495                0.54345209                0.16694056                0.02976382
               6.00808685                6.00028374               24.02422226                0.01000000               -0.14758816               -0.13121683                0.11050690                0.48479354                0.18032306                0.07971422
               7.00680005                6.00225535               24.02550374                0.01000000               -0.09772154               -0.16682174                0.11579727                0.38880531                0.17639165                0.13674713
               8.00613242                6.00357965               24.02670276                0.01000000               -0.03980107               -0.20461263                0.12087501                0.28323558                0.14866883                0.19275482
               9.00600403                6.00407068               24.02748878                0.01000001               -0.01171171               -0.19480841                0.12497528                0.15726309                0.09019270                0.23350787
              10.00589819                6.00340153               24.02749460                0.01000001               -0.01058401               -0.06413151                0.12718172                0.07606180                0.05278994                0.23362441
               0.02065136                6.99673239               24.02515094                0.99999999               -0.03336645               -0.03298631                0.11157281               -0.00033514               -0.00517152                0.02630364
               1.02031770                6.99418345               24.02376722                1.00000000               -0.03316543               -0.03303645                0.11023736               -0.00038941               -0.00684797                0.00441411
               2.01998805                6.99162579               24.02235485                0.01000000               -0.15322596               -0.12320209                0.10915952                0.31161546                0.04880585               -0.02488578
               3.01725318                6.99282172               24.02209124                0.01000001               -0.24809742               -0.15722394                0.09870875                0.49686391                0.12521235               -0.04972312
               4.01502610                6.99445643               24.02248241                0.01000002               -0.22738352               -0.11668455                0.10318024                0.53393834                0.18485850               -0.02767085
               5.01270551                6.99690339               24.02347875                0.01000001               -0.23317647               -0.07227746                0.10753569                0.49490322                0.21903307                0.02916405
               6.01036257                6.99919209               24.02496211                0.01000000               -0.21598236               -0.06944070                0.11415990                0.36950155                0.24240931                0.08559338
               7.00838586                7.00080573               24.02677261                0.01000000               -0.16195568               -0.10237592                0.12121797                0.21400954                0.24660583                0.15505188
               8.00712346                7.00172315               24.02859211                0.01000001               -0.08930302               -0.15349437                0.12819382                0.07244816                0.21697799                0.25480541
               9.00659980                7.00232909               24.02994045                0.01000002               -0.04219236               -0.16542173                0.13397463               -0.00030023                0.13387217                0.33745940
              10.00627961                7.00308330               24.03011847                0.01000000               -0.03201852               -0.03865627                0.13668834               -0.01904351                0.07577221                0.38827308
               0.02319703                7.99640336               24.02555640                1.00000000               -0.03265175               -0.03262684                0.10921600               -0.00023203               -0.00077505                0.02279908
               1.02287051                7.99385564               24.02410038                0.99999992               -0.03248679               -0.03247801                0.10826803                0.00008737               -0.00053502                0.00309479
               2.02254729                7.99130127               24.02265191                0.01273770               -0.11948119               -0.03218053                0.10726599                0.10806681                0.04367061               -0.01641448
               3.02048089                7.99090104               24.02208520                0.01000002               -0.22014304               -0.21989011                0.10339178                0.48193403                0.17060151               -0.13793612
               4.01814443                7.99340418               24.02252044                0.01000008               -0.27833335               -0.05982970                0.10259675                0.55541043                0.22391599               -0.02577205
               5.01491422                7.99650801               24.02385685                0.01000000               -0.32849435                0.01040327                0.11007599                0.42689070                0.26890864                0.02565676
               6.01157454                7.99889492               24.02573075                0.01000000               -0.31825182                0.01278524                0.11799866                0.24823210                0.30118637                0.07736407
               7.00854918                8.00020783               24.02816929                0.01000001               -0.27582588               -0.00864354                0.12693095                0.05430638                0.34403043                0.14540279
               8.00605803                8.00050976               24.03126331                0.01000002               -0.19556552               -0.05347226                0.13776411               -0.13511559                0.32930961                0.26187248
               9.00463787                8.00076225               24.03367164                0.01000007               -0.10245577               -0.11514808                0.14671943               -0.26371651                0.21869356                0.57810214
              10.00400891                8.00262841               24.03466476                0.01000000               -0.06289615               -0.17781134                0.15193870               -0.19278047                0.14711870                0.56843856
               0.02574217                8.99607986               24.02597794                1.00000000               -0.03206352               -0.03211903                0.10731550               -0.00024651                0.00230587                0.01865837
               1.02542153                8.99353389               24.02443494                0.99999999               -0.03190890               -0.03189121                0.10635152                0.00006609                0.00111601                0.00181490
               2.02510399                8.99098218               24.02286904                0.99999997               -0.03162914               -0.03162929                0.10542660                0.00002777               -0.00542368               -0.01219395
               3.02478895                8.98842392               24.02119864                0.01000002               -0.22883283               -0.13938328                0.10451635                0.45728776                0.14463892               -0.07353459
               4.02052733                8.99325984               24.02264006                0.01000000               -0.45181863                0.07474014                0.10925792                0.48906547                0.27908223               -0.02427445
               5.01575258                8.99711146               24.02414245                0.01000000               -0.44499668                0.08888462                0.11318095                0.27916146                0.28983259                0.01769145
               6.01162740                8.99944779               24.02629090                0.01000001               -0.39477135                0.07636383                0.12104582                0.12478682                0.34108673                0.04896379
               7.00785715                9.00063286               24.02928464                0.01000002               -0.38803337                0.06466304                0.13173291               -0.01106063                0.41937040                0.09216429
               8.00386673                9.00065370               24.03341657                0.01000002               -0.43251644                0.06866369                0.14598356               -0.15697725                0.63285073                0.18101729
               8.99920682                9.00002613               24.04110238                0.99999998               -0.25875227               -0.06265338                0.17068719               -0.30249294                0.39369065                0.37977181
               9.99869169                8.99952707               24.04090860                0.99999996               -0.05151345               -0.18127558                0.17304517               -0.29088652               -0.00033447                0.31970624
               0.02828404                9.99576098               24.02630065                1.00000000               -0.03145210               -0.03188770                0.10539411               -0.00012997                0.01297792                0.01379104
               1.02796951                9.99321781               24.02474534                1.00000000               -0.03131069               -0.03160762                0.10443368                0.00018350                0.01632592                0.00054568
               2.02765782                9.99066869               24.02325606                1.00000000               -0.03102659               -0.03134897                0.10352655                0.00016106                0.01638618               -0.00389087
               3.02734898                9.98811337               24.02170361                0.01000000               -0.42098120               -0.03105458                0.10257903                0.46751813                0.13961385               -0.00428979
               4.01923820                9.99489898               24.02268308                0.01000000               -0.65197450                0.16391464                0.10908847                0.37970331                0.24821977               -0.01389021
               5.01430949                9.99828571               24.02422359                0.01000000               -0.43446602                0.11742475                0.11425867                0.13185242                0.27843108                0.01504636
               6.01054888               10.00042220               24.02638050                0.01000001               -0.35937145                0.09744064                0.12209188                0.05291703                0.34040505                0.03299951
               7.00712206               10.00150109               24.02952835                0.01000000               -0.35118316                0.08682282                0.13364845               -0.00046694                0.46071413                0.05547975
               8.00352521               10.00188303               24.03442593                0.01000002               -0.37037092                0.12293323                0.15087781               -0.13374739                0.61130800                0.13287327
               8.99971464                9.99950918               24.04094521                0.99999996               -0.21679545               -0.05169520                0.17387769               -0.09322450                0.33591289                0.00023657
               9.99918930                9.99900289               24.04075135                0.99999999               -0.05253403               -0.05241758                0.17623639               -0.00086671                0.00038708               -0.00030897
               0.00128179                0.00195319               25.02089536                1.00000000               -0.02555900               -0.02518102                0.08489051               -0.00015541               -0.00334815                0.00386517
               1.00102620                0.00083629               25.02084164                1.00000000               -0.02566848               -0.02539585                0.08550397                0.00007734               -0.00360365               -0.00124111
               2.00076842               -0.00028605               25.02077997                0.01000001               -0.00717400               -0.02559626                0.08615614                0.03239580                0.05975899               -0.00157275
               3.00088272               -0.00076866               25.02199670                0.01000000               -0.00055258               -0.02097643                0.09043144                0.02724256                0.12993544                0.00140896
               4.00075737                0.00038818               25.02339967                0.01000001               -0.04473080               -0.00731031                0.09509543                0.08459783                0.15293181               -0.00976029
               4.99998811                0.00348313               25.02515656                0.01000000               -0.18331858                0.00436431                0.09965927                0.21702596                0.19167229               -0.01945557
               5.99709100                0.00951081               25.02750027                0.22275515               -0.16064971               -0.03160129                0.10519109                0.23707083                0.11118379               -0.00108671
               6.99677511                0.01080115               25.02813002                1.00000000               -0.03241507               -0.03235767                0.10878224                0.00045616                0.01593091               -0.00457789
               7.99644270                0.01209009               25.02856350                0.99999998               -0.03383337               -0.03358957                0.11273971                0.00061682                0.00804486               -0.00049888
               8.99609845                0.01337386               25.02903184                1.00000000               -0.03502543               -0.03478562                0.11674472                0.00061399                0.00790661                0.00094323
               9.99574219                0.01465325               25.02946110                1.00000000               -0.03562552               -0.03603081                0.12075087                0.00087448                0.00591635                0.00538433
               0.00239714                1.00170138               25.02083395                0.99999999               -0.02505379               -0.02492482                0.08310983               -0.00028068                0.00144190                0.00443713
               1.00214660                1.00058233               25.02077771                0.01000000               -0.02511387               -0.02513151                0.08374425               -0.00000204                0.00347056               -0.00318065
               2.00189486                0.99945798               25.02076154                0.01000000               -0.06642824               -0.03922268                0.08442619                0.00256612                0.07049498                0.03601995
               3.00081803                0.99902157               25.02204766                0.01000001               -0.12087022               -0.01953567                0.09032793                0.06710173                0.12132079                0.00652111
               3.99947745                1.00031507               25.02324625                0.01000000               -0.16104919               -0.01063428                0.09467061                0.18061395                0.11730312               -0.00820973
               4.99759705                1.00352677               25.02468247                0.01000000               -0.18373767               -0.01782872                0.09893189                0.34874919                0.14694996               -0.01820770
               5.99580270                1.00919480               25.02677032                0.01000001               -0.10535069               -0.14737589                0.10362330                0.31986741                0.08955474               -0.04223907
               6.99549004                1.01047757               25.02731711                1.00000000               -0.03200940               -0.03211842                0.10718495                0.00007843                0.00670914               -0.00447558
               7.99516251                1.01175419               25.02774339                0.99999998               -0.03335155               -0.03335763                0.11117452                0.00001337                0.00121593               -0.00039961
               8.99482300                1.01302600               25.02817769                0.99999999               -0.03454867               -0.03455259                0.11518239                0.00001129                0.00115105                0.00062478
               9.99447154                1.01429294               25.02860228                1.00000000               -0.03514653               -0.03579810                0.11919012                0.00023927                0.00057350                0.00666450
               0.00351427                2.00145469               25.02077941                0.01000001               -0.02447123               -0.03228422                0.08141602               -0.01515110                0.00187866                0.06273985
               1.00326956                2.00033366               25.02067541                0.01000000               -0.05668821               -0.06180432                0.08193482               -0.02620475                0.04835115                0.05715676
               2.00238051                1.99892949               25.02150045                0.01000001               -0.09509453               -0.06701917                0.08829662                0.02308129                0.07972400                0.05775354
               3.00136767                1.99884062               25.02215466                0.01000000               -0.12580272               -0.04513953                0.09182077                0.17098268                0.07713567                0.01566959
               3.99986445                2.00017549               25.02306347                0.01000000               -0.16421505               -0.03874031                0.09556975                0.32538133                0.08827144               -0.00343499
               4.99808337                2.00312656               25.02414960                0.01000001               -0.16634493               -0.07326013                0.09921689                0.44624901                0.08392105               -0.01510048
               5.99653755                2.00656329               25.02520968                0.01000000               -0.19330397               -0.19678901                0.10268405                0.47754544                0.08512549               -0.05201044
               6.99421729                2.01015878               25.02650179                0.01000000               -0.13215079               -0.11958068                0.10559304                0.28861739                0.03913701               -0.01689866
               7.99389454                2.01142294               25.02692321                0.08553040               -0.03286823               -0.03309615                0.10960508                0.00078806               -0.00568596                0.00033537
               8.99355992                2.01268280               25.02731736                0.99999998               -0.03407244               -0.03405476                0.11362806                0.00005736               -0.00408013               -0.00165507
               9.99321309                2.01393729               25.02777160                1.00000000               -0.03468341               -0.03534779                0.11763612                0.00025754               -0.00122001                0.00658589
               0.00433618                3.00105569               25.02188099                0.01000001               -0.01884721               -0.03284459                0.08832770               -0.00367497                0.00909879                0.12119254
               1.00414770                2.99934625               25.02181954                0.01000001               -0.02433271               -0.11960334                0.08996090                0.02928234                0.01894996                0.09974195
               2.00384952                2.99811760               25.02195701                0.01000000               -0.05780077               -0.11341442                0.09203461                0.14964544                0.04193770                0.04376598
               3.00299169                2.99811878               25.02236967                0.01000000               -0.10751858               -0.09720944                0.09476685                0.29644854                0.06056948                0.01828208
               4.00169915                2.99954027               25.02297624                0.01000003               -0.14287304               -0.08932823                0.09755099                0.43642306                0.07121455                0.00445603
               5.00013423                3.00206157               25.02375370                0.01000000               -0.16888809               -0.11532109                0.10056474                0.54049203                0.07601100                0.00109570
               5.99832139                3.00525902               25.02463928                0.01000001               -0.18657433               -0.14310611                0.10367348                0.55594541                0.06649671                0.00982253
               6.99640274                3.00808596               25.02543708                0.01000001               -0.28335698               -0.17367173                0.10637536                0.58222334                0.04532815                0.00425762
               7.99265425                3.01109227               25.02611680                0.01000002               -0.20464704               -0.13151857                0.11017133                0.47461137               -0.00225531                0.03631876
               8.99230980                3.01234490               25.02641886                0.01000004               -0.03432646               -0.15487450                0.11208132                0.36407836               -0.01118296                0.04642998
               9.99196772                3.01358599               25.02691480                0.36708593               -0.03420807               -0.32490886                0.11607713                0.42225316               -0.00168957                0.03663270
               0.00685966                4.00079780               25.02300039                0.01000000               -0.00663658               -0.05287170                0.09541783                0.07343908               -0.00123008                0.12722820
               1.00679330                3.99794159               25.02266693                0.01000000               -0.01293931               -0.16751071                0.09623303                0.16139864                0.00828573                0.07718587
               2.00660088                3.99666120               25.02249934                0.01000000               -0.04596643               -0.16184033                0.09699902                0.30506051                0.03050982                0.03694291
               3.00587397                3.99689644               25.02260834                0.01000003               -0.09753768               -0.13736483                0.09825809                0.42459453                0.05601488                0.01183103
               4.00465012                3.99838893               25.02301862                0.01000000               -0.13497571               -0.12948021                0.10019219                0.52977176                0.07710447                0.00817411
               5.00317446                4.00082013               25.02367964                0.01000001               -0.15090244               -0.13557431                0.10283379                0.59987554                0.08889467                0.02048057
               6.00163208                4.00370117               25.02448414                0.01000001               -0.15729773               -0.15979231                0.10589045                0.64339405                0.08880545                0.04161957
               7.00002850                4.00668534               25.02531271                0.01000000               -0.12521297               -0.17658343                0.10910720                0.64447225                0.07483933                0.07054714
               7.99912782                4.00879257               25.02601526                0.01000001               -0.08403641               -0.23813605                0.11194086                0.68941587                0.05490003                0.09355130
               8.99834777                4.00958531               25.02652241                0.01000000                0.00240843               -0.28021335                0.11548484                0.49514709                0.02522523                0.10976535
               9.99917598                4.00743911               25.02668975                0.01000000                0.08282118               -0.44305388                0.11849096                0.37410570                0.01574513                0.07041837
               0.01151737                4.99999826               25.02420049                0.01000000               -0.00050954               -0.19542369                0.10315282                0.22317129               -0.00189198                0.14656587
               1.01151227                4.99599603               25.02352125                0.01000000               -0.02607390               -0.18566368                0.10282471                0.35398452                0.00749416                0.07330229
               2.01099589                4.99488079               25.02300040                0.01000001               -0.08782087               -0.16183056                0.10204098                0.43579298                0.03138359                0.01697164
               3.00975586                4.99537149               25.02285354                0.01000000               -0.13125019               -0.16203348                0.10163238                0.52326383                0.06568122               -0.00256841
               4.00837089                4.99695066               25.02316354                0.01000001               -0.14681811               -0.14578002                0.10300394                0.58481085                0.10040366                0.00395660
               5.00681949                4.99935008               25.02384075                0.01000001               -0.15234133               -0.14592406                0.10552381                0.62072044                0.12250249                0.03021574
               6.00532406                5.00206317               25.02475598                0.01000002               -0.13093507               -0.16322774                0.10899544                0.61318720                0.13002995                0.06771672
               7.00420079                5.00455429               25.02574814                0.01000000               -0.08907322               -0.20669844                0.11281388                0.57792028                0.12273748                0.10952191
               8.00354260                5.00632955               25.02664245                0.01000000               -0.03172983               -0.24197156                0.11668830                0.48400620                0.09967219                0.14688569
               9.00356619                5.00674064               25.02722740                0.01000000                0.00998206               -0.25672096                0.12012947                0.32763388                0.05962273                0.16289921
              10.00374224                5.00472491               25.02727723                0.01000000                0.01760414               -0.18672014                0.12280252                0.16042707                0.03618186                0.14009964
               0.01932754                5.99688933               25.02578107                0.61120591               -0.03370887               -0.17202467                0.11226548                0.25741987               -0.00325482                0.08716831
               1.01899046                5.99422832               25.02452476                0.01000001               -0.16931302               -0.10517298                0.11188897                0.33374323                0.00118525                0.03993259
               2.01594128                5.99342459               25.02336257                0.01000000               -0.23605397               -0.18314675                0.10583530                0.48752267                0.02290712               -0.01129785
               3.01426938                5.99365577               25.02302259                0.01000001               -0.17867703               -0.15766078                0.10475753                0.53868248                0.08909385               -0.02834004
               4.01236774                5.99547333               25.02334268                0.01000001               -0.18965103               -0.14572033                0.10493887                0.60473083                0.13884980               -0.00841413
               5.01047636                5.99790165               25.02417253                0.01000001               -0.18380632               -0.12703515                0.10834716                0.59108632                0.17221744                0.03079807
               6.00869162                6.00043662               25.02533575                0.01000000               -0.15779133               -0.13852262                0.11254477                0.52353688                0.18466561                0.08360817
               7.00732053                6.00255137               25.02666917                0.01000000               -0.10350131               -0.17658630                0.11747382                0.41755987                0.18034233                0.14205203
               8.00662159                6.00395313               25.02791840                0.01000000               -0.04077191               -0.21709443                0.12235671                0.30310613                0.15183214                0.19930647
               9.00650509                6.00445089               25.02874565                0.01000002               -0.01028049               -0.20670153                0.12650715                0.16782403                0.09209280                0.24080585
              10.00641598                6.00370471               25.02877549                0.01000001               -0.00891099               -0.06752083                0.12910526                0.08106787                0.05399445                0.24075371
               0.02198778                6.99655777               25.02626955                0.99999999               -0.03359051               -0.03306888                0.11207182               -0.00039865               -0.00564534                0.02709640
               1.02165187                6.99389257               25.02487445                1.00000000               -0.03344391               -0.03328539                0.11113848               -0.00040957               -0.00715046                0.00509828
               2.02131890                6.99121786               25.02345323                0.01000000               -0.15855502               -0.12673918                0.11045164                0.31904276                0.04247118               -0.02132491
               3.01848077                6.99221827               25.02305677                0.01000001               -0.25496410               -0.18542830                0.10094996                0.54166154                0.12114310               -0.06233459
               4.01621962                6.99403626               25.02353059                0.01000001               -0.24014210               -0.12290581                0.10751872                0.58839151                0.20049664               -0.03722332
               5.01367793                6.99680938               25.02456243                0.01000000               -0.25372702               -0.07336982                0.11044323                0.54008334                0.22674627                0.03124187
               6.01114508                6.99929272               25.02611297                0.01000000               -0.23212289               -0.07162923                0.11635254                0.39782700                0.24935592                0.08946987
               7.00903547                7.00102256               25.02799208                0.01000000               -0.17199391               -0.10734426                0.12287061                0.22980222                0.25264516                0.16059772
               8.00770520                7.00198766               25.02988036                0.01000001               -0.09321851               -0.16215461                0.12960098                0.07784472                0.22209313                0.26260243
               9.00717110                7.00260661               25.03128648                0.01000002               -0.04246165               -0.17497122                0.13533417                0.00000169                0.13702367                0.34710500
              10.00685596                7.00337449               25.03149326                0.01000001               -0.03151363               -0.03985457                0.13836550               -0.01987815                0.07767223                0.39914674
               0.02464996                7.99622795               25.02664969                1.00000000               -0.03277854               -0.03266404                0.10939786               -0.00026554               -0.00079676                0.02266485
               1.02432217                7.99356261               25.02518630                1.00000000               -0.03267585               -0.03265373                0.10887988                0.00010298               -0.00056077                0.00311273
               2.02399644                7.99088981               25.02372991                0.01552797               -0.10189823               -0.03249431                0.10830352                0.08692606                0.04497120               -0.01632792
               3.02228421                7.98994720               25.02318196                0.01000002               -0.22259893               -0.21645676                0.12161064                0.49996841                0.22136861               -0.20626193
               4.01954446                7.99301521               25.02353512                0.01000001               -0.31313244               -0.05637306                0.10382036                0.60594128                0.23784263               -0.01908881
               5.01602156                7.99643426               25.02496638                0.01000000               -0.35547428                0.01483374                0.11319258                0.45714437                0.27986584                0.02782773
               6.01243498                7.99900403               25.02691883                0.01000000               -0.33999637                0.01611139                0.11976169                0.26478921                0.30981276                0.08118299
               7.00922163                8.00040449               25.02944481                0.01000001               -0.29202685               -0.00742530                0.12840066                0.05782010                0.35298235                0.15041615
               8.00659444                8.00071004               25.03264609                0.01000002               -0.20516695               -0.05561462                0.13890300               -0.14394287                0.33773332                0.26953606
               9.00511829                8.00095147               25.03514323                0.01000007               -0.10558977               -0.12181700                0.14769658               -0.27938167                0.22437381                0.59414670
              10.00448264                8.00290762               25.03618925                0.01000000               -0.06356481               -0.18547451                0.15302652               -0.20366299                0.15131558                0.58422380
               0.02731314                8.99590449               25.02705073                1.00000000               -0.03210659               -0.03208116                0.10723439               -0.00028079                0.00232261                0.01877093
               1.02699207                8.99323950               25.02550023                0.99999998               -0.03201522               -0.03199217                0.10670426                0.00007498                0.00115842                0.00187722
               2.02667283                8.99056797               25.02392727                1.00000000               -0.03186666               -0.03186481                0.10622318                0.00003824               -0.00534935               -0.01210514
               3.02635474                8.98788914               25.02225001                0.01000001               -0.24107236               -0.11860051                0.10576860                0.45465671                0.14749847               -0.07475398
               4.02185139                8.99290880               25.02374014                0.01000000               -0.47613718                0.08467890                0.10937685                0.50682487                0.28219882               -0.02242753
               5.01683199                8.99710606               25.02527775                0.01000000               -0.46903790                0.09593294                0.11426012                0.29646276                0.29716830                0.02080181
               6.01247063                8.99961495               25.02750659                0.01000001               -0.41730656                0.08308646                0.12229115                0.13176577                0.35057922                0.05134465
               7.00848586                9.00087406               25.03060694                0.01000002               -0.40956341                0.07039476                0.13285367               -0.01272183                0.43106164                0.09538269
               8.00427936                9.00087537               25.03488000                0.01000003               -0.45499855                0.07429975                0.14683200               -0.16861241                0.65057737                0.18615473
               8.99938589                9.00017027               25.04281033                0.99999998               -0.27044748               -0.06488834                0.17087626               -0.32143878                0.40475473                0.38998343
               9.99887041                8.99966500               25.04263936                0.99999996               -0.05154822               -0.18833862                0.17311290               -0.30593233               -0.00034821                0.32849222
               0.02997432                9.99558633               25.02735275                1.00000000               -0.03141304               -0.03181599                0.10505101               -0.00023763                0.01305618                0.01388883
               1.02966019                9.99292277               25.02578998                1.00000000               -0.03133739               -0.03167286                0.10452528                0.00012085                0.01641504                0.00059826
               2.02934757                9.99025251               25.02429380                1.00000000               -0.03118337               -0.03154592                0.10405896                0.00009464                0.01646163               -0.00385028
               3.02903652                9.98757519               25.02273404                0.04300143               -0.44417648               -0.03139456                0.10354846                0.49099185                0.14284699               -0.00430261
               4.02046404                9.99470879               25.02377026                0.01000001               -0.68959279                0.17999924                0.10805324                0.40015165                0.25499214               -0.01497875
               5.01524466                9.99835292               25.02536609                0.01000000               -0.45808728                0.12468590                0.11410335                0.13911550                0.28508895                0.01617716
               6.01130229               10.00066576               25.02760397                0.01000001               -0.37689444                0.10508138                0.12265728                0.05614006                0.35065292                0.03478602
               7.00770677               10.00181238               25.03086832                0.01000000               -0.36881564                0.09383291                0.13446938               -0.00139511                0.47500440                0.05735995
               8.00392598               10.00219604               25.03593757                0.01000002               -0.39034453                0.13206683                0.15148710               -0.14327191                0.63040020                0.13658236
               8.99989988                9.99965370               25.04268368                0.99999996               -0.22757275               -0.05165632                0.17381273               -0.10136044                0.34615026                0.00030091
               9.99937453                9.99914085               25.04251272                0.99999995               -0.05253577               -0.05241574                0.17605305               -0.00087419                0.00031985               -0.00033459
               0.00129880                0.00206216               26.02173977                1.00000000               -0.02544593               -0.02495534                0.08401485               -0.00002337               -0.00335181                0.00389593
               1.00104434                0.00089639               26.02169658                1.00000000               -0.02566343               -0.02540644                0.08547195                0.00021738               -0.00361979               -0.00127225
               2.00078553               -0.00027435               26.02164553                0.01000000               -0.00899902               -0.02586379                0.08693416                0.03275676                0.06137557               -0.00156837
               3.00086436               -0.00079961               26.02290432                0.01000000               -0.00454548               -0.01848119                0.09108196                0.02787847                0.13237209                0.00249614
               4.00069462                0.00044913               26.02435213                0.01000001               -0.05129664               -0.00413144                0.09537944                0.09103054                0.15458192               -0.00907285
               4.99983843                0.00376779               26.02615152                0.01000003               -0.19992827                0.00872989                0.09929978                0.23440810                0.19285380               -0.01903267
               5.99669606                0.01023753               26.02854579                0.21349492               -0.17278188               -0.03118356                0.10381848                0.25689598                0.11141609               -0.00112281
               6.99638279                0.01157608               26.02921376                1.00000000               -0.03219063               -0.03213207                0.10795675                0.00055317                0.01572278               -0.00461018
               7.99605225                0.01291302               26.02968874                0.99999998               -0.03370275               -0.03348531                0.11230242                0.00067375                0.00802657               -0.00050210
               8.99570874                0.01424527               26.03019900                1.00000000               -0.03500643               -0.03479514                0.11668617                0.00067168                0.00791314                0.00094468
               9.99535212                0.01557375               26.03067020                1.00000000               -0.03566194               -0.03615844                0.12107226                0.00090609                0.00592371                0.00539083
               0.00246434                1.00181260               26.02166204                0.99999999               -0.02495682               -0.02472437                0.08248097               -0.00023893                0.00140379                0.00446593
               1.00221477                1.00064232               26.02161603                0.01000000               -0.02516185               -0.02518874                0.08392090               -0.00000766                0.00349919               -0.00321312
               2.00196110                0.99946701               26.02161032                0.01000000               -0.07166815               -0.04037578                0.08537497                0.00099421                0.07281939                0.03874964
               3.00078141                0.99901558               26.02295438                0.01000001               -0.13199348               -0.01777473                0.09101508                0.07126955                0.12445141                0.00881655
               3.99932123                1.00040782               26.02419487                0.01000000               -0.17465455               -0.00825832                0.09504926                0.19415620                0.11874827               -0.00648323
               4.99728831                1.00385509               26.02567134                0.01000000               -0.19801790               -0.01600424                0.09882304                0.37571603                0.14759601               -0.01685145
               5.99536087                1.00992569               26.02780102                0.01000001               -0.11188695               -0.15606863                0.10242587                0.34495743                0.08934004               -0.04163145
               6.99505058                1.01125476               26.02838579                1.00000000               -0.03182407               -0.03192055                0.10654305                0.00007864                0.00650485               -0.00450019
               7.99472439                1.01257817               26.02885386                1.00000000               -0.03327441               -0.03327978                0.11091536                0.00001103                0.00121394               -0.00040187
               8.99438509                1.01389731               26.02933011                0.99999999               -0.03458507               -0.03458869                0.11530281                0.00001065                0.00115939                0.00063025
               9.99403269                1.01521217               26.02979667                1.00000000               -0.03523981               -0.03595211                0.11969111                0.00021249                0.00058096                0.00667305
               0.00363458                2.00156767               26.02159108                0.01000000               -0.02448042               -0.03234132                0.08094456               -0.01655548                0.00190567                0.06719264
               1.00338978                2.00039261               26.02149698                0.01000000               -0.06012099               -0.06426268                0.08236295               -0.02855466                0.05110372                0.06194629
               2.00243216                1.99891814               26.02238687                0.01000001               -0.10204155               -0.07012053                0.08902372                0.02390172                0.08319098                0.06330364
               3.00134895                1.99884490               26.02307702                0.01000000               -0.13469618               -0.04662154                0.09264682                0.18317146                0.07871793                0.01973029
               3.99973824                2.00028397               26.02402254                0.01000000               -0.17570336               -0.03963606                0.09623078                0.34951150                0.08927207               -0.00017808
               4.99783488                2.00344770               26.02514368                0.01000001               -0.17713522               -0.07701176                0.09957834                0.47969853                0.08420450               -0.01241609
               5.99619553                2.00711615               26.02623724                0.01000000               -0.20514967               -0.20991967                0.10283842                0.51294258                0.08449815               -0.04993883
               6.99373189                2.01093767               26.02755547                0.01000000               -0.13928113               -0.12621977                0.10513452                0.30881025                0.03835254               -0.01572591
               7.99340991                2.01224743               26.02801888                0.09095674               -0.03284688               -0.03295856                0.10952306                0.00037563               -0.00566802                0.00210491
               8.99307495                2.01355349               26.02845512                0.99999998               -0.03416283               -0.03414053                0.11392428                0.00006045               -0.00406425               -0.00164299
               9.99272666                2.01485471               26.02895134                1.00000000               -0.03482934               -0.03555637                0.11831673                0.00023301               -0.00121300                0.00659483
               0.00448334                3.00116578               26.02276436                0.01000001               -0.01901314               -0.03236758                0.08830096               -0.00385862                0.00960717                0.13010657
               1.00429321                2.99935707               26.02272164                0.01000001               -0.02482439               -0.12604009                0.09043838                0.03147757                0.01949460                0.10877468
               2.00398685                2.99806460               26.02288175                0.01000000               -0.06071025               -0.12004592                0.09289683                0.16110307                0.04274358                0.05006379
               3.00307900                2.99808315               26.02332251                0.01000000               -0.11390996               -0.10322203                0.09580547                0.31842511                0.06131897                0.02349862
               4.00170865                2.99961510               26.02395710                0.01000097               -0.15144514               -0.09500286                0.09858436                0.46848456                0.07165399                0.00875669
               5.00005010                3.00231485               26.02476406                0.01000000               -0.17894470               -0.12299082                0.10152810                0.57987196                0.07624673                0.00485528
               5.99812976                3.00572730               26.02568111                0.01000001               -0.19772960               -0.15253288                0.10450178                0.59554193                0.06592744                0.01327755
               6.99609551                3.00873036               26.02649954                0.01000001               -0.30068386               -0.18479424                0.10748511                0.62284444                0.04525263                0.00783704
               7.99211608                3.01191900               26.02723308                0.01000002               -0.21582486               -0.13858985                0.10640606                0.50657842               -0.00322246                0.03915436
               8.99177901                3.01321450               26.02754203                0.01000000               -0.03405861               -0.16346285                0.11255082                0.38775263               -0.01293536                0.04901892
               9.99143491                3.01450104               26.02807984                0.38758640               -0.03441019               -0.34450848                0.11693914                0.44993754               -0.00169582                0.03876308
               0.00717482                4.00092032               26.02395561                0.01000003               -0.00543209               -0.05401404                0.09556853                0.07971303               -0.00155044                0.13684847
               1.00712050                3.99787181               26.02363263                0.01000000               -0.01233387               -0.17742231                0.09685832                0.17433370                0.00784506                0.08563609
               2.00692815                3.99651722               26.02347496                0.01000000               -0.04767746               -0.17190208                0.09808185                0.32810206                0.03014084                0.04401856
               3.00616695                3.99678046               26.02359852                0.01000085               -0.10259602               -0.14697760                0.09965946                0.45558026                0.05587914                0.01740128
               4.00487623                3.99838391               26.02402854                0.01000000               -0.14234163               -0.13910255                0.10176217                0.56872600                0.07723879                0.01310853
               5.00332012                4.00098789               26.02471581                0.01000001               -0.15926824               -0.14521017                0.10433730                0.64357115                0.08918230                0.02500245
               6.00169086                4.00406550               26.02554995                0.01000001               -0.16615231               -0.17040746                0.10733368                0.68929141                0.08908002                0.04597438
               6.99999707                4.00724178               26.02641034                0.01000001               -0.13167599               -0.18771106                0.11019806                0.68942849                0.07446923                0.07547282
               7.99905734                4.00947563               26.02713526                0.01000002               -0.08745591               -0.25345141                0.11350226                0.73573200                0.05471110                0.09787784
               8.99824796                4.01028423               26.02768249                0.01000000                0.00474935               -0.29772488                0.11655948                0.52719950                0.02553586                0.11504016
               9.99915233                4.00796454               26.02788261                0.01000004                0.09043717               -0.47094277                0.12015042                0.39848739                0.01589619                0.07450183
               0.01217461                5.00008550               26.02523401                0.01000000                0.00083690               -0.20914621                0.10346058                0.24124004               -0.00278310                0.15749184
               1.01218298                4.99580862               26.02455373                0.01000000               -0.02671817               -0.19549959                0.10358980                0.38172281                0.00637454                0.08326649
               2.01164025                4.99462656               26.02402850                0.01000001               -0.09295332               -0.17153474                0.10346597                0.46601942                0.02999937                0.02366145
               3.01032391                4.99514360               26.02387976                0.01000000               -0.13822543               -0.17524830                0.10384117                0.56077758                0.06503221                0.00370327
               4.00887574                4.99683305               26.02420619                0.01000001               -0.15419882               -0.15906858                0.10530553                0.62826122                0.10054969                0.00914373
               5.00723994                4.99941065               26.02490755                0.01000001               -0.16070255               -0.15700250                0.10774203                0.66845376                0.12314288                0.03514841
               6.00566169                5.00231915               26.02585527                0.01000000               -0.13829970               -0.17332932                0.11081135                0.65790774                0.13100314                0.07273241
               7.00447394                5.00497614               26.02688434                0.01000153               -0.09367093               -0.21946660                0.11450773                0.61789964                0.12391076                0.11484534
               8.00378827                5.00684997               26.02781787                0.01000000               -0.03199284               -0.25738850                0.11825107                0.51595545                0.10062549                0.15307343
               9.00383409                5.00726001               26.02843649                0.01000000                0.01278854               -0.27282574                0.12176720                0.34865314                0.06013761                0.16885140
              10.00404404                5.00508219               26.02851512                0.01000000                0.02099537               -0.19819798                0.12479865                0.17052239                0.03664392                0.14529674
               0.02055337                5.99673739               26.02690652                0.58104623               -0.03394761               -0.18398972                0.11270774                0.28014491               -0.00322481                0.09390927
               1.02021389                5.99396182               26.02564864                0.01000001               -0.18199032               -0.10923774                0.11277715                0.35785801               -0.00140910                0.04633299
               2.01691356                5.99308652               26.02443118                0.01000000               -0.25189370               -0.18973041                0.10770426                0.51642917                0.02021609               -0.00461776
               3.01517602                5.99327549               26.02409536                0.01000001               -0.18695828               -0.18639721                0.10765244                0.56953924                0.08814856               -0.02394818
               4.01317440                5.99520254               26.02441415                0.01000001               -0.19864613               -0.16567602                0.10928832                0.66134883                0.13864465               -0.00242155
               5.01120310                5.99784784               26.02527047                0.01000008               -0.19454377               -0.13381341                0.11097541                0.64072398                0.17315868                0.03600806
               6.00928352                6.00059891               26.02647315                0.01000001               -0.16894250               -0.14603722                0.11486769                0.56314850                0.18677140                0.08874448
               7.00782425                6.00285245               26.02785321                0.01000000               -0.10954671               -0.18670445                0.11931106                0.44631868                0.18279286                0.14786719
               8.00709259                6.00432786               26.02914989                0.01000000               -0.04177224               -0.23012308                0.12401180                0.32289616                0.15404801                0.20589001
               9.00698880                6.00482772               26.03001893                0.01000002               -0.00870870               -0.21931929                0.12816713                0.17830064                0.09347018                0.24805942
              10.00691841                6.00400058               26.03007670                0.01000001               -0.00703880               -0.07148576                0.13114901                0.08605917                0.05489749                0.24772449
               0.02332866                6.99640570               26.02739238                0.99999999               -0.03376463               -0.03309566                0.11239839               -0.00045834               -0.00615195                0.02791181
               1.02299101                6.99362387               26.02598999                1.00000000               -0.03367476               -0.03348539                0.11188427               -0.00042811               -0.00748200                0.00580227
               2.02265516                6.99083195               26.02456389                0.01000000               -0.16961641               -0.12929252                0.11160401                0.31646383                0.03969423               -0.01804963
               3.01959868                6.99141565               26.02411024                0.01000001               -0.25623970               -0.28464680                0.11622306                0.63073018                0.12107289               -0.04208710
               4.01753037                6.99351953               26.02463279                0.01000001               -0.24703177               -0.11948476                0.10992481                0.66306004                0.19929359               -0.03160476
               5.01465805                6.99673438               26.02568761                0.01000001               -0.28051623               -0.07492918                0.11460660                0.59018019                0.22830149                0.03585613
               6.01192004                6.99939840               26.02728916                0.01000000               -0.24933397               -0.07369742                0.11871828                0.42582616                0.25308935                0.09424439
               7.00967137                7.00124205               26.02923003                0.01000000               -0.18245588               -0.11255766                0.12474315                0.24532166                0.25704824                0.16647072
               8.00827093                7.00224751               26.03118413                0.01000001               -0.09719957               -0.17135106                0.13116094                0.08266274                0.22623156                0.27046794
               9.00772738                7.00287362               26.03264713                0.01000002               -0.04257137               -0.18531951                0.13682370               -0.00008225                0.13963280                0.35658437
              10.00741950                7.00365247               26.03288578                0.01000001               -0.03078780               -0.04169041                0.14014168               -0.02087621                0.07928143                0.40957659
               0.02610787                7.99607548               26.02774436                1.00000000               -0.03287889               -0.03267431                0.10948584               -0.00028869               -0.00082183                0.02251294
               1.02577908                7.99329211               26.02627798                1.00000000               -0.03284054               -0.03280567                0.10941162                0.00011723               -0.00058711                0.00312743
               2.02545106                7.99050067               26.02481798                0.03784453               -0.03380151               -0.03278862                0.10927466               -0.00587473                0.05748750               -0.01621433
               3.02510305                7.98758255               26.02451742                0.01000002               -0.21670940               -0.20194448                0.09182888                0.53197672                0.19850990               -0.17243043
               4.02111687                7.99281284               26.02459684                0.01000002               -0.39876121               -0.04716912                0.11635899                0.71899512                0.22554430               -0.01864865
               5.01712782                7.99634925               26.02612071                0.01000000               -0.39122486                0.01967023                0.11556936                0.47917831                0.28556538                0.03138958
               6.01329237                7.99912496               26.02812598                0.01000000               -0.36231245                0.01955706                0.12201606                0.28208992                0.31525974                0.08501007
               7.00988157                8.00060130               26.03073730                0.01000001               -0.30890477               -0.00625267                0.13005227                0.06047382                0.36066223                0.15555161
               8.00711428                8.00090084               26.03404137                0.01000002               -0.21496913               -0.05810960                0.14020880               -0.15380052                0.34527860                0.27720360
               9.00558219                8.00112133               26.03662557                0.01000007               -0.10855452               -0.12941356                0.14878762               -0.29594424                0.22956254                0.60979109
              10.00494319                8.00316677               26.03772529                0.01000000               -0.06390067               -0.19395156                0.15418214               -0.21509786                0.15519998                0.59919523
               0.02888962                8.99575222               26.02812262                1.00000000               -0.03214574               -0.03203802                0.10713378               -0.00030440                0.00234137                0.01889395
               1.02856816                8.99296776               26.02656902                0.99999998               -0.03211971               -0.03209160                0.10705098                0.00008275                0.00120851                0.00195207
               2.02824723                8.99017618               26.02499350                1.00000000               -0.03210587               -0.03210252                0.10702641                0.00004739               -0.00525618               -0.01199319
               3.02792605                8.98737676               26.02331401                0.01000000               -0.25518280               -0.02616471                0.10703979                0.40131896                0.14888907               -0.08715115
               4.02314357                8.99257615               26.02482760                0.01000000               -0.49982743                0.08631660                0.10804503                0.51700717                0.28774121               -0.01737109
               5.01792950                8.99712779               26.02642765                0.01000000               -0.49168869                0.10416561                0.11584560                0.31315664                0.30368428                0.02200392
               6.01330980                8.99978954               26.02873673                0.01000001               -0.44122646                0.08990956                0.12375729                0.13782722                0.35895079                0.05373587
               7.00910497                9.00111700               26.03194172                0.01000002               -0.43174556                0.07621056                0.13417845               -0.01486233                0.44191797                0.09848916
               8.00467488                9.00108532               26.03635321                0.01000003               -0.47812062                0.07993579                0.14784464               -0.18140311                0.66748458                0.19127554
               8.99954256                9.00028535               26.04451990                0.99999998               -0.28241167               -0.06764145                0.17104794               -0.34157845                0.41547898                0.39995187
               9.99902665                8.99977344               26.04437086                1.00000000               -0.05159036               -0.19586409                0.17318282               -0.32146916               -0.00034947                0.33685009
               0.03167070                9.99543472               26.02840167                1.00000000               -0.03139319               -0.03174957                0.10476303               -0.00033611                0.01313949                0.01399602
               1.03135677                9.99265028               26.02683585                1.00000000               -0.03138507               -0.03174756                0.10468514                0.00005557                0.01650847                0.00066063
               2.03104300                9.98985862               26.02533724                1.00000000               -0.03136521               -0.03175590                0.10467193                0.00002613                0.01653829               -0.00380020
               3.03072946                9.98705926               26.02377458                0.06819774               -0.46685047               -0.03175028                0.10461148                0.51436947                0.14468315               -0.00431832
               4.02170599                9.99453918               26.02484414                0.01000001               -0.72759528                0.19630311                0.10728728                0.42490717                0.25998292               -0.01293074
               5.01617756                9.99843257               26.02650566                0.01000000               -0.48231441                0.13047806                0.11401081                0.14400485                0.29346773                0.01767555
               6.01205970               10.00092315               26.02883365                0.01000001               -0.39445001                0.11336077                0.12346019                0.05963763                0.36106413                0.03597883
               7.00828856               10.00212551               26.03221774                0.01000000               -0.38709175                0.10085101                0.13549631               -0.00282098                0.48897117                0.05918975
               8.00431786               10.00249955               26.03745567                0.01000002               -0.41130295                0.14142382                0.15219195               -0.15355248                0.64884991                0.14017501
               9.00006250                9.99976850               26.04442147                1.00000000               -0.23901232               -0.05168481                0.17374632               -0.11050876                0.35603304                0.00029051
               9.99953762                9.99924949               26.04427241                0.99999999               -0.05248795               -0.05239478                0.17588043               -0.00080410                0.00033418               -0.00033101
               0.00130114                0.00218657               27.02257566                1.00000000               -0.02530878               -0.02471899                0.08315639                0.00014573               -0.00335865                0.00389848
               1.00104805                0.00097195               27.02255108                1.00000000               -0.02564730               -0.02542698                0.08542621                0.00034684               -0.00361405               -0.00127609
               2.00078819               -0.00024700               27.02251865                0.01000001               -0.01122406               -0.02613647                0.08769665                0.03293047                0.06249609               -0.00156252
               3.00082357               -0.00081885               27.02381834                0.01000001               -0.00931874               -0.01559319                0.09168383                0.02830468                0.13388777                0.00359907
               4.00060182                0.00052123               27.02530725                0.01000000               -0.05860234               -0.00062271                0.09557343                0.09744837                0.15513021               -0.00823059
               4.99965152                0.00406283               27.02714256                0.01000002               -0.21723657                0.01347597                0.09883708                0.25196403                0.19267720               -0.01835894
               5.99625709                0.01097790               27.02957664                0.20461272               -0.18524530               -0.03071835                0.10232658                0.27689912                0.11103700               -0.00112908
               6.99594662                0.01236487               27.03028915                1.00000000               -0.03195506               -0.03190187                0.10711492                0.00066227                0.01564152               -0.00463432
               7.99561798                0.01374980               27.03080955                0.99999998               -0.03356858               -0.03337863                0.11185519                0.00073131                0.00800982               -0.00050425
               8.99527524                0.01513053               27.03136556                1.00000000               -0.03498614               -0.03480437                0.11662482                0.00073059                0.00791581                0.00094603
               9.99491826                0.01650813               27.03188255                1.00000000               -0.03569831               -0.03628651                0.12139713                0.00093852                0.00592728                0.00539417
               0.00251722                1.00193938               27.02248357                1.00000000               -0.02489204               -0.02451742                0.08182986               -0.00019782                0.00140915                0.00447578
               1.00226830                1.00071768               27.02245613                0.01000000               -0.02521639               -0.02524829                0.08409748                0.00000277                0.00349415               -0.00322176
               2.00201290                0.99949164               27.02246904                0.01000000               -0.07728993               -0.04144353                0.08636836               -0.00081835                0.07463629                0.04123908
               3.00072250                0.99902521               27.02386797                0.01000001               -0.14387185               -0.01570228                0.09167743                0.07530726                0.12654676                0.01117775
               3.99913546                1.00051500               27.02514724                0.01000000               -0.18898392               -0.00557588                0.09536140                0.20768954                0.11919579               -0.00451455
               4.99694283                1.00419759               27.02665894                0.01000000               -0.21302024               -0.01386556                0.09862690                0.40284713                0.14696975               -0.01512253
               5.99487505                1.01067071               27.02881884                0.01000001               -0.11877701               -0.16467349                0.10111752                0.37034525                0.08847473               -0.04041619
               6.99456729                1.01204585               27.02944797                0.99999999               -0.03162922               -0.03171815                0.10588625                0.00006931                0.00643044               -0.00451705
               7.99424247                1.01341602               27.02996170                1.00000000               -0.03319509               -0.03319919                0.11064812                0.00000839                0.00121358               -0.00040500
               8.99390338                1.01478248               27.03048374                0.99999999               -0.03462141               -0.03462513                0.11542295                0.00000935                0.00116663                0.00063287
               9.99355004                1.01614527               27.03099610                1.00000000               -0.03533430               -0.03610571                0.12019791                0.00018489                0.00058697                0.00668047
               0.00374060                2.00169623               27.02239830                0.01000002               -0.02447483               -0.03230433                0.08050572               -0.01809812                0.00190540                0.07169213
               1.00349585                2.00046698               27.02232267                0.01000000               -0.06381563               -0.06657950                0.08276797               -0.03100958                0.05360414                0.06670895
               2.00246429                1.99892413               27.02328092                0.01000001               -0.10947477               -0.07304270                0.08975800                0.02453722                0.08611010                0.06871023
               3.00130635                1.99886710               27.02400760                0.01000000               -0.14405264               -0.04789794                0.09342797                0.19528947                0.07956615                0.02400277
               3.99958323                2.00040971               27.02498809                0.01000000               -0.18768027               -0.04027978                0.09679491                0.37368202                0.08943022                0.00350039
               4.99755275                2.00378552               27.02614116                0.01000001               -0.18837547               -0.08055216                0.09981164                0.51335216                0.08377216               -0.00910602
               5.99581572                2.00768443               27.02726645                0.01000000               -0.21750246               -0.22294233                0.10291461                0.54871977                0.08310358               -0.04690974
               6.99320270                2.01173051               27.02860448                0.01000000               -0.14671010               -0.13290144                0.10466116                0.32949621                0.03706281               -0.01316609
               7.99288152                2.01308582               27.02911367                0.09235043               -0.03282608               -0.03285163                0.10943504                0.00061773               -0.00565108               -0.00139405
               8.99254618                2.01443803               27.02959584                0.99999997               -0.03425649               -0.03422835                0.11422357                0.00005762               -0.00404899               -0.00163908
               9.99219639                2.01578602               27.03013794                1.00000000               -0.03497865               -0.03576441                0.11900367                0.00020669               -0.00120441                0.00660834
               0.00461375                3.00129330               27.02364701                0.01000000               -0.01935494               -0.03155559                0.08817262               -0.00402031                0.01004392                0.13928588
               1.00442020                2.99938609               27.02362831                0.01000001               -0.02551170               -0.13223760                0.09084000                0.03362463                0.01985750                0.11783643
               2.00410352                2.99803079               27.02381495                0.01000000               -0.06387421               -0.12646562                0.09367569                0.17273470                0.04320272                0.05658831
               3.00314272                2.99806726               27.02428578                0.01000000               -0.12064187               -0.10899429                0.09673526                0.34051180                0.06152126                0.02916046
               4.00169068                2.99970940               27.02494792                0.01000000               -0.16037848               -0.10038546                0.09946118                0.50068331                0.07143928                0.01379572
               4.99993515                3.00258655               27.02578426                0.01000000               -0.18931128               -0.13044101                0.10228659                0.61932031                0.07575570                0.00945334
               5.99790446                3.00621187               27.02672932                0.01000001               -0.20896654               -0.16189676                0.10525832                0.63523508                0.06575912                0.01751079
               6.99575582                3.00938783               27.02758678                0.01000001               -0.31785740               -0.19602571                0.10860899                0.66384958                0.04029560                0.01198758
               7.99154731                3.01275898               27.02824492                0.01000002               -0.22757421               -0.14602430                0.10519996                0.53892302               -0.00519294                0.04288642
               8.99120433                3.01409792               27.02866987                0.01000002               -0.03445600               -0.17231833                0.11302893                0.41179786               -0.00943252                0.05182505
               9.99085819                3.01542998               27.02925358                0.40874936               -0.03461467               -0.36460789                0.11781003                0.47806984               -0.00169974                0.04124227
               0.00747462                4.00106511               27.02491176                0.01000003               -0.00437611               -0.05480548                0.09556793                0.08613740               -0.00179895                0.14673160
               1.00743085                3.99782223               27.02460409                0.01000000               -0.01184030               -0.18703673                0.09733126                0.18773886                0.00744016                0.09432878
               2.00723781                3.99639482               27.02446098                0.01000000               -0.04964409               -0.18164920                0.09897609                0.35156569                0.02966812                0.05166913
               3.00643797                3.99668721               27.02460152                0.01000000               -0.10801003               -0.15592718                0.10085109                0.48716324                0.05541352                0.02426108
               4.00507761                3.99840200               27.02505386                0.01000000               -0.15006411               -0.14807412                0.10302700                0.60764472                0.07677429                0.01930192
               5.00343669                4.00117670               27.02576639                0.01000001               -0.16792325               -0.15440794                0.10555940                0.68713070                0.08872583                0.03073019
               6.00171914                4.00444649               27.02663081                0.01000001               -0.17520577               -0.18086266                0.10855179                0.73480835                0.08852538                0.05120149
               6.99993258                4.00781000               27.02751667                0.01000001               -0.13846273               -0.19897533                0.11150715                0.73397151                0.07442207                0.07996183
               7.99894989                4.01016533               27.02828530                0.01000000               -0.09107188               -0.26912994                0.11522931                0.78186577                0.05410762                0.10694378
               8.99811114                4.01099166               27.02885360                0.01000000                0.00718871               -0.31583466                0.11792027                0.55979441                0.02441136                0.12058326
               9.99909366                4.00849386               27.02909276                0.01000001                0.09825260               -0.49966158                0.12181057                0.42320289                0.01595082                0.07907984
               0.01282227                5.00019719               27.02626971                0.01000000                0.00230002               -0.22279829                0.10355219                0.26002565               -0.00360339                0.16862585
               1.01284527                4.99564535               27.02559305                0.01000000               -0.02762139               -0.20517540                0.10411973                0.41036875                0.00552161                0.09365107
               2.01226985                4.99439780               27.02506972                0.01000001               -0.09832337               -0.17989840                0.10451766                0.49822215                0.02908045                0.03145785
               3.01087881                4.99494871               27.02493036                0.01000000               -0.14578763               -0.18704470                0.10531064                0.59807582                0.06428001                0.01118579
               4.00935409                4.99674792               27.02526965                0.01000001               -0.16227681               -0.17018474                0.10708072                0.67187920                0.09955439                0.01734171
               5.00763327                4.99949839               27.02599559                0.01000001               -0.16933845               -0.16674740                0.10938122                0.71452662                0.12249072                0.04183816
               6.00596732                5.00259461               27.02697221                0.01000000               -0.14584305               -0.18344344                0.11235102                0.70175466                0.13073438                0.07882901
               7.00471641                5.00540832               27.02803830                0.01000000               -0.09821821               -0.23234796                0.11602941                0.65744216                0.12413571                0.12076710
               8.00400296                5.00737638               27.02900747                0.01000000               -0.03223582               -0.27303270                0.11985065                0.54799265                0.10082648                0.15855700
               9.00407169                5.00778122               27.02966274                0.01000000                0.01574406               -0.28951094                0.12342054                0.36984538                0.06020583                0.17491879
              10.00431784                5.00543675               27.02977321                0.01000000                0.02461483               -0.21026579                0.12673949                0.18078797                0.03668924                0.15056214
               0.02177880                5.99660915               27.02803522                0.55063085               -0.03411864               -0.19595135                0.11289188                0.30331896               -0.00320143                0.10080028
               1.02143762                5.99371872               27.02678030                0.01000001               -0.19399555               -0.11330333                0.11341856                0.38365760               -0.00376601                0.05286449
               2.01789889                5.99279685               27.02551666                0.01000000               -0.26941230               -0.19638698                0.10867513                0.54751426                0.01784604                0.00357088
               3.01604937                5.99294632               27.02517564                0.01000001               -0.19666867               -0.19971221                0.11000038                0.60779864                0.08737592               -0.00650208
               4.01396552                5.99499830               27.02552845                0.01000001               -0.20844205               -0.17632242                0.11113487                0.70847268                0.13737734                0.00640364
               5.01188053                5.99784175               27.02639204                0.01000000               -0.20606071               -0.14110569                0.11297226                0.68668181                0.17063259                0.04456133
               6.00984430                6.00077762               27.02763310                0.01000000               -0.17904407               -0.15349186                0.11667474                0.60092060                0.18708048                0.09496245
               7.00829965                6.00316304               27.02905540                0.01000000               -0.11537337               -0.19702154                0.12095944                0.47460550                0.18398561                0.15413370
               8.00753684                6.00470468               27.03039864                0.01000000               -0.04259837               -0.24354236                0.12557627                0.34240832                0.15543552                0.21270273
               9.00744768                6.00520144               27.03130900                0.01000002               -0.00692310               -0.23247875                0.12977917                0.18871408                0.09433529                0.25528007
              10.00739838                6.00428855               27.03139847                0.01000001               -0.00493055               -0.07596537                0.13309330                0.09103339                0.05553510                0.25457193
               0.02466951                6.99627816               27.02851752                0.99999999               -0.03387888               -0.03305945                0.11252165               -0.00051324               -0.00668575                0.02873543
               1.02433072                6.99337928               27.02711214                1.00000000               -0.03384898               -0.03362959                0.11244817               -0.00044523               -0.00783797                0.00651319
               2.02399253                6.99047006               27.02568531                0.01000000               -0.17486963               -0.13304734                0.11259422                0.32915209                0.04702231               -0.01499674
               3.02083333                6.99095447               27.02538123                0.01000001               -0.26822060               -0.28257472                0.11426127                0.65887914                0.12031716               -0.04625751
               4.01862812                6.99322147               27.02572908                0.01000001               -0.26228707               -0.12754410                0.11160824                0.71041736                0.18094584               -0.00895477
               5.01558759                6.99667627               27.02685456                0.01000000               -0.29818348               -0.07598692                0.11651613                0.63132509                0.22745960                0.04126961
               6.01266445                6.99952478               27.02848733                0.01000000               -0.26530611               -0.07604795                0.12073370                0.45354438                0.25393714                0.10007248
               7.01028147                7.00146789               27.03048694                0.01000000               -0.19258629               -0.11796039                0.12644270                0.26002993                0.26010816                0.17268143
               8.00881272                7.00250554               27.03250358                0.01000001               -0.10096792               -0.18098222                0.13267091                0.08693327                0.22947813                0.27845154
               9.00826211                7.00313165               27.03402295                0.01000002               -0.04242122               -0.19634602                0.13829795               -0.00050734                0.14176775                0.36596770
              10.00796430                7.00391744               27.03429609                0.01000002               -0.02978080               -0.04410522                0.14185440               -0.02197910                0.08062152                0.41961437
               0.02756629                7.99594796               27.02883941                1.00000000               -0.03294802               -0.03265524                0.10946704               -0.00030034               -0.00084897                0.02234548
               1.02723681                7.99304613               27.02737454                1.00000000               -0.03297705               -0.03293078                0.10985075                0.00012944               -0.00061422                0.00313921
               2.02690675                7.99013591               27.02591540                0.04528375               -0.03806341               -0.03306041                0.11017012                0.00394463                0.02759728               -0.01607741
               3.02647554                7.98729483               27.02501854                0.01000002               -0.22273449               -0.20327601                0.08701433                0.54883036                0.14455521               -0.09899141
               4.02245206                7.99244742               27.02586230                0.01000000               -0.41359083               -0.04536983                0.11491600                0.74458171                0.24091540               -0.01783584
               5.01820373                7.99632201               27.02727777                0.01000000               -0.41642422                0.02424530                0.11782676                0.51091050                0.27953489                0.03546246
               6.01412358                7.99925666               27.02935915                0.01000000               -0.38421200                0.02286112                0.12382460                0.29764719                0.31976608                0.08903011
               7.01051949                8.00080383               27.03204585                0.01000001               -0.32559174               -0.00522425                0.13167370                0.06273220                0.36688384                0.16082713
               8.00761174                8.00108503               27.03545026                0.01000002               -0.22469284               -0.06094777                0.14152467               -0.16455831                0.35207494                0.28491635
               9.00602563                8.00127452               27.03811898                0.01000007               -0.11122657               -0.13791216                0.14988993               -0.31314387                0.23430432                0.62502893
              10.00538721                8.00340644               27.03927289                0.01000000               -0.06384197               -0.20312816                0.15530460               -0.22694745                0.15884050                0.61338868
               0.03046717                8.99562506               27.02919341                1.00000000               -0.03218025               -0.03199024                0.10701234               -0.00031579                0.00236216                0.01902594
               1.03014536                8.99272067               27.02764125                0.99999998               -0.03222205               -0.03218971                0.10739093                0.00008880                0.00126512                0.00203794
               2.02982272                8.98980885               27.02606780                1.00000000               -0.03234716               -0.03234321                0.10783704                0.00005639               -0.00514676               -0.01185964
               3.02949842                8.98688895               27.02439080                0.01000000               -0.26650785               -0.03635764                0.10833292                0.42264767                0.14872463               -0.05710612
               4.02449257                8.99231408               27.02590104                0.01000000               -0.52509327                0.09848345                0.10821412                0.53763947                0.29319292               -0.01948803
               5.01899655                8.99716118               27.02759466                0.01000000               -0.51784969                0.11141955                0.11710370                0.32943535                0.30982186                0.02358642
               6.01413557                8.99998200               27.02998174                0.01000002               -0.46444075                0.09674131                0.12525056                0.14450750                0.36622219                0.05581482
               7.00970774                9.00136340               27.03329050                0.01000002               -0.45423543                0.08201571                0.13557053               -0.01753646                0.45199665                0.10159463
               8.00505087                9.00128658               27.03783690                0.01000003               -0.50149593                0.08547884                0.14889650               -0.19512462                0.68356652                0.19635483
               8.99967782                9.00037341               27.04623129                0.99999998               -0.29446792               -0.07090693                0.17123096               -0.36267656                0.42582172                0.40956288
               9.99916151                8.99985488               27.04610302                1.00000000               -0.05163140               -0.20376638                0.17324865               -0.33724751               -0.00035278                0.34478795
               0.03336875                9.99530815               27.02944801                1.00000000               -0.03139607               -0.03169015                0.10454029               -0.00042359                0.01322648                0.01411130
               1.03305479                9.99240233               27.02788368                1.00000000               -0.03145755               -0.03183348                0.10492474               -0.00001298                0.01660489                0.00073140
               2.03273960                9.98948904               27.02638724                1.00000000               -0.03157577               -0.03198115                0.10537736               -0.00004555                0.01661545               -0.00374043
               3.03242327                9.98656767               27.02482627                0.09440161               -0.49034904               -0.03212740                0.10577958                0.53888789                0.14562739               -0.00433090
               4.02293262                9.99441709               27.02591600                0.01000002               -0.76493825                0.21030155                0.10766901                0.44314152                0.26386892               -0.00783969
               5.01712451                9.99855040               27.02764631                0.01000000               -0.50605587                0.13892231                0.11466324                0.15151547                0.30242418                0.01875693
               6.01281150               10.00119149               27.03007318                0.01000001               -0.41301674                0.12094915                0.12461730                0.06227980                0.37144825                0.03689402
               7.00886417               10.00244414               27.03357825                0.01000002               -0.40561277                0.10807397                0.13667278               -0.00420053                0.50247641                0.06093200
               8.00469925               10.00279461               27.03898141                0.01000002               -0.43301863                0.15080286                0.15298388               -0.16455003                0.66657986                0.14360536
               9.00020380                9.99985638               27.04615860                1.00000000               -0.25099647               -0.05170248                0.17368187               -0.12057674                0.36556664                0.00029368
               9.99967932                9.99933111               27.04603033                0.99999999               -0.05244854               -0.05237642                0.17569961               -0.00074585                0.00033351               -0.00033382
               0.00128079                0.00232431               28.02340290                1.00000000               -0.02517202               -0.02448344                0.08229061                0.00030656               -0.00335863                0.00390074
               1.00102907                0.00106076               28.02340510                1.00000000               -0.02563005               -0.02544647                0.08537920                0.00047694               -0.00361394               -0.00127695
               2.00076819               -0.00020638               28.02339946                0.01000001               -0.01377787               -0.02641008                0.08846750                0.03299818                0.06310006               -0.00156292
               3.00075351               -0.00082687               28.02473800                0.01000000               -0.01475878               -0.01232510                0.09220465                0.02861015                0.13438959                0.00470085
               4.00047301                0.00060456               28.02626359                0.01000000               -0.06654634                0.00321345                0.09558226                0.10385249                0.15453012               -0.00730014
               4.99942259                0.00436785               28.02812826                0.01000000               -0.23514043                0.01861760                0.09816699                0.26965185                0.19119226               -0.01748031
               5.99577020                0.01173056               28.03059232                0.19587571               -0.19799355               -0.03029924                0.10087628                0.29700797                0.11012654               -0.00112685
               6.99546271                0.01316576               28.03135605                1.00000000               -0.03170869               -0.03166717                0.10625877                0.00076484                0.01570467               -0.00465354
               7.99513603                0.01459864               28.03192584                0.99999998               -0.03343284               -0.03326918                0.11140027                0.00078946                0.00799544               -0.00050416
               8.99479406                0.01602783               28.03253150                1.00000000               -0.03496668               -0.03481353                0.11656239                0.00078972                0.00791282                0.00094742
               9.99443670                0.01745452               28.03309815                0.99999999               -0.03573604               -0.03641313                0.12172618                0.00096953                0.00592186                0.00538813
               0.00254740                1.00207947               28.02329863                1.00000000               -0.02482177               -0.02431164                0.08118338               -0.00015850                0.00140823                0.00447783
               1.00229918                1.00080630               28.02329798                0.01000000               -0.02527047               -0.02530776                0.08427202                0.00001119                0.00349600               -0.00322249
               2.00204199                0.99952952               28.02333768                0.01000000               -0.08325181               -0.04235958                0.08736111               -0.00275899                0.07586350                0.04346920
               3.00063414                0.99904988               28.02478793                0.01000001               -0.15639067               -0.01329969                0.09227961                0.07933837                0.12756741                0.01352846
               3.99891418                1.00063670               28.02610210                0.01000000               -0.20390184               -0.00256370                0.09552064                0.22122090                0.11858165               -0.00241173
               4.99655611                1.00455403               28.02764388                0.01000000               -0.22864212               -0.01137980                0.09823155                0.43001222                0.14507659               -0.01312702
               5.99434133                1.01142756               28.02982337                0.01000001               -0.12598928               -0.17315380                0.09985385                0.39595687                0.08702264               -0.03865171
               6.99403632                1.01284909               28.03050352                0.99999999               -0.03142213               -0.03151099                0.10521322                0.00007920                0.00649839               -0.00452845
               7.99371289                1.01426595               28.03106683                0.99999999               -0.03311535               -0.03311566                0.11037548                0.00000546                0.00121790               -0.00040558
               8.99337401                1.01567969               28.03163857                0.99999999               -0.03465941               -0.03466245                0.11554589                0.00000437                0.00117392                0.00063685
               9.99301970                1.01709039               28.03220063                1.00000000               -0.03543126               -0.03625584                0.12070603                0.00015333                0.00059117                0.00667685
               0.00382397                2.00183807               28.02320120                0.01000000               -0.02447232               -0.03207185                0.08007611               -0.01963616                0.00190591                0.07619729
               1.00357924                2.00055461               28.02315234                0.01000000               -0.06772672               -0.06869628                0.08316418               -0.03342031                0.05583613                0.07134006
               2.00246943                1.99894643               28.02418203                0.01000001               -0.11730687               -0.07566045                0.09042214                0.02519859                0.08847450                0.07382980
               3.00123311                1.99890713               28.02494557                0.01000000               -0.15380766               -0.04887227                0.09410043                0.20745826                0.07963422                0.02828486
               3.99939328                2.00055329               28.02595843                0.01000000               -0.20005707               -0.04057288                0.09717186                0.39789539                0.08866801                0.00740791
               4.99723196                2.00414026               28.02713991                0.01000001               -0.19994959               -0.08376677                0.09977202                0.54709521                0.08252921               -0.00542122
               5.99539429                2.00826748               28.02829554                0.01000000               -0.23030241               -0.23572088                0.10271828                0.58481844                0.08094996               -0.04289810
               6.99262592                2.01253554               28.02964869                0.01000000               -0.15443766               -0.13955787                0.10417028                0.35091698                0.03535135               -0.01056527
               7.99230553                2.01393632               28.03020758                0.09423111               -0.03281057               -0.03304260                0.10934490                0.00076399               -0.00562493               -0.00091953
               8.99196970                2.01533458               28.03073959                0.99999996               -0.03435791               -0.03432251                0.11453426                0.00003802               -0.00403361               -0.00163268
               9.99161837                2.01672940               28.03133141                1.00000000               -0.03513294               -0.03596617                0.11968526                0.00017197               -0.00119989                0.00661439
               0.00472160                3.00143803               28.02452781                0.01000000               -0.01991892               -0.03029121                0.08793243               -0.00405502                0.01042203                0.14857064
               1.00452242                2.99943237               28.02453844                0.01000001               -0.02640849               -0.13804799                0.09111749                0.03595637                0.02005266                0.12674632
               2.00419343                2.99801631               28.02475526                0.01000000               -0.06729815               -0.13252996                0.09430401                0.18473509                0.04329353                0.06305542
               3.00317645                2.99807243               28.02525722                0.01000000               -0.12772380               -0.11430196                0.09745885                0.36290806                0.06114149                0.03501161
               4.00163896                2.99982524               28.02594632                0.01000000               -0.16963162               -0.10525319                0.10008207                0.53299161                0.07046304                0.01916536
               4.99978382                3.00287869               28.02680979                0.01000000               -0.19982686               -0.13745459                0.10258073                0.65868139                0.07459841                0.01454304
               5.99764242                3.00671315               28.02778627                0.01000001               -0.21990022               -0.17104217                0.10550945                0.67480164                0.06482760                0.02232848
               6.99538582                3.01005793               28.02867172                0.01000001               -0.33566465               -0.20730178                0.10970472                0.70485289                0.03856057                0.01692719
               7.99092913                3.01360509               28.02933708                0.01000002               -0.24020589               -0.15421838                0.11215671                0.57161715               -0.00827091                0.04719650
               8.99058170                3.01499324               28.02980261                0.01000001               -0.03478165               -0.18157744                0.11353776                0.43624959               -0.00990328                0.05510212
               9.99023350                3.01637106               28.03043604                0.44460269               -0.03482026               -0.38514441                0.11866812                0.50651478               -0.00171050                0.04398977
               0.00775419                4.00123225               28.02586697                0.01000003               -0.00340975               -0.05517415                0.09537840                0.09285247               -0.00207504                0.15665116
               1.00772009                3.99779365               28.02557926                0.01000000               -0.01150568               -0.19634687                0.09759645                0.20172856                0.00698396                0.10299716
               2.00752407                3.99629583               28.02545448                0.01000000               -0.05188752               -0.19081375                0.09958439                0.37592771                0.02902500                0.05937748
               3.00668234                3.99662109               28.02561554                0.01000000               -0.11386138               -0.16396167                0.10165245                0.51927609                0.05454687                0.03111840
               4.00524685                3.99844822               28.02608908                0.01000000               -0.15823277               -0.15599729                0.10384115                0.64663591                0.07560350                0.02607621
               5.00351769                4.00139117               28.02682699                0.01000001               -0.17678811               -0.16284657                0.10625987                0.73008929                0.08751029                0.03699550
               6.00171109                4.00484664               28.02772098                0.01000001               -0.18433302               -0.19098542                0.10917887                0.77947891                0.08760946                0.05692079
               6.99983102                4.00838950               28.02864048                0.01000000               -0.14542616               -0.21025835                0.11283828                0.77704506                0.07363618                0.08521057
               7.99880256                4.01085196               28.02943984                0.01000000               -0.09511493               -0.28486591                0.11697665                0.82823776                0.05325237                0.11265646
               8.99792873                4.01170303               28.03004089                0.01000000                0.00952329               -0.33451266                0.11979162                0.59326610                0.02332771                0.12645702
               9.99899303                4.00902651               28.03031882                0.01000001                0.10643013               -0.52916692                0.12322419                0.44851838                0.01541726                0.08410761
               0.01345586                5.00033455               28.02730506                0.01000000                0.00375478               -0.23633336                0.10339952                0.27933837               -0.00447099                0.17986247
               1.01349340                4.99550544               28.02663612                0.01000000               -0.02856562               -0.21468136                0.10437579                0.44012672                0.00453682                0.10400413
               2.01288454                4.99420004               28.02611885                0.01000001               -0.10419104               -0.18767432                0.10507295                0.53194163                0.02790006                0.03909264
               3.01140958                4.99479320               28.02598597                0.01000000               -0.15414686               -0.19632543                0.10605137                0.63673297                0.06316254                0.02025353
               4.00980161                4.99670529               28.02634781                0.01000001               -0.17111940               -0.17885229                0.10796303                0.71436307                0.09830657                0.02508330
               5.00798719                4.99962176               28.02709517                0.01000001               -0.17839710               -0.17555403                0.11030411                0.75907760                0.12098264                0.04911698
               6.00623366                5.00289344               28.02810229                0.01000001               -0.15328992               -0.19318030                0.11336875                0.74408431                0.12983295                0.08545551
               7.00492140                5.00585276               28.02920493                0.01000000               -0.10266541               -0.24515104                0.11702075                0.69608692                0.12387601                0.12688088
               8.00418036                5.00790778               28.03021488                0.01000000               -0.03244661               -0.28830783                0.12107730                0.57976818                0.10055709                0.16441933
               9.00427246                5.00830299               28.03090490                0.01000000                0.01882702               -0.30649586                0.12480727                0.39134511                0.05981805                0.18098719
              10.00455690                5.00578773               28.03104991                0.01000000                0.02844322               -0.22286873                0.12839755                0.19133100                0.03654496                0.15603166
               0.02299919                5.99650558               28.02916436                0.52013114               -0.03420494               -0.20791624                0.11276904                0.32693674               -0.00318734                0.10776559
               1.02265714                5.99350002               28.02791701                0.01000001               -0.20620212               -0.11727694                0.11376385                0.41049125               -0.00647307                0.05949366
               2.01887515                5.99254235               28.02660468                0.01000000               -0.28726966               -0.20333812                0.10897906                0.58182707                0.01578930                0.01099973
               3.01691175                5.99269459               28.02629536                0.01000001               -0.20848008               -0.20728000                0.11026395                0.64402525                0.08632510               -0.00176096
               4.01470554                5.99487118               28.02663685                0.01000001               -0.22003259               -0.18493551                0.11124706                0.75299201                0.13400703                0.01561632
               5.01251109                5.99788009               28.02752992                0.01000001               -0.21718854               -0.14738598                0.11400577                0.72868216                0.16911121                0.05207738
               6.01036177                6.00098303               28.02880665                0.01000000               -0.18863344               -0.16098166                0.11783903                0.63695696                0.18664811                0.10192970
               7.00873842                6.00348648               28.03027240                0.01000000               -0.12070378               -0.20737685                0.12218668                0.50193294                0.18453760                0.16093214
               8.00794770                6.00508580               28.03166142                0.01000000               -0.04313729               -0.25714316                0.12677060                0.36153784                0.15632225                0.21975376
               9.00787568                6.00557311               28.03261451                0.01000001               -0.00487612               -0.24599990                0.13118584                0.19905480                0.09493972                0.26264997
              10.00785017                6.00456914               28.03273857                0.01000001               -0.00255040               -0.08086941                0.13477812                0.09604034                0.05602229                0.26146400
               0.02600571                6.99617623               28.02964281                0.99999999               -0.03392474               -0.03295392                0.11241548               -0.00056087               -0.00723556                0.02955822
               1.02566646                6.99315990               28.02823895                1.00000000               -0.03395958               -0.03371199                0.11280772               -0.00046445               -0.00821069                0.00722472
               2.02532652                6.99013328               28.02681577                0.01000000               -0.18526047               -0.13728551                0.11340623                0.34857759                0.04082361               -0.01158081
               3.02196125                6.99064760               28.02639547                0.01000001               -0.28252867               -0.30507195                0.10834550                0.70044081                0.11527156               -0.03113539
               4.01967595                6.99300658               28.02686495                0.01000179               -0.27561342               -0.12935071                0.11157664                0.74984261                0.18216522               -0.00455656
               5.01644899                6.99667404               28.02801793                0.01000000               -0.31547698               -0.07808388                0.11696149                0.66888972                0.22584932                0.04889495
               6.01336641                6.99967380               28.02970383                0.01000000               -0.27958509               -0.07859338                0.12207207                0.47945069                0.25502150                0.10602570
               7.01085728                7.00170522               28.03175888                0.01000000               -0.20209631               -0.12360996                0.12785074                0.27404125                0.26238831                0.17933306
               8.00932448                7.00276491               28.03383755                0.01000001               -0.10435313               -0.19099757                0.13406213                0.09063596                0.23222132                0.28666770
               9.00877022                7.00338299               28.03541309                0.01000002               -0.04194149               -0.20797703                0.13969975               -0.00123001                0.14360536                0.37537245
              10.00848565                7.00417034               28.03572287                0.01000000               -0.02845708               -0.04707601                0.14343440               -0.02316532                0.08179626                0.42941824
               0.02902063                7.99584650               28.02993370                1.00000000               -0.03298303               -0.03260489                0.10933063               -0.00029894               -0.00087900                0.02216622
               1.02869080                7.99282578               28.02847499                1.00000000               -0.03308170               -0.03302657                0.11018821                0.00013718               -0.00064057                0.00314752
               2.02835900                7.98979664               28.02702138                0.06976206               -0.03217729               -0.03330626                0.11097755               -0.00822082                0.03395108               -0.01591940
               3.02804725                7.98659315               28.02625770                0.01000002               -0.23415230               -0.21103424                0.09337257                0.57967833                0.14218505               -0.09472668
               4.02367595                7.99228416               28.02689516                0.01000000               -0.44127935               -0.04369520                0.11012056                0.79264436                0.23368146               -0.01068124
               5.01922167                7.99631841               28.02847724                0.01000000               -0.43781723                0.02784656                0.11880700                0.53616271                0.28472216                0.03954296
               6.01491961                7.99941116               28.03060248                0.01000000               -0.40467631                0.02590070                0.12521173                0.31339314                0.32246422                0.09334752
               7.01112814                8.00101428               28.03337077                0.01000001               -0.34184780               -0.00443641                0.13312385                0.06435707                0.37274836                0.16626678
               8.00808265                8.00126585               28.03687187                0.01000002               -0.23412434               -0.06418213                0.14278432               -0.17598794                0.35829248                0.29269845
               9.00644565                8.00141357               28.03962337                0.01000007               -0.11352367               -0.14730049                0.15097849               -0.33077933                0.23872776                0.63988876
              10.00581218                8.00362762               28.04083138                0.01000000               -0.06334779               -0.21292884                0.15637445               -0.23907137                0.16226422                0.62690632
               0.03204118                8.99552413               28.03026287                1.00000000               -0.03221014               -0.03193826                0.10686869               -0.00031368                0.00238360                0.01916344
               1.03171907                8.99249937               28.02871684                0.99999998               -0.03232190               -0.03228694                0.10772433                0.00009303                0.00132756                0.00213271
               2.03139474                8.98946715               28.02715024                0.99999999               -0.03258913               -0.03258508                0.10865168                0.00006372               -0.00502041               -0.01171003
               3.03106729                8.98642691               28.02548067                0.01000001               -0.27955827               -0.02457161                0.10963647                0.43657593                0.14855656               -0.06327483
               4.02580357                8.99213268               28.02699188                0.01000000               -0.55110248                0.10341487                0.10972755                0.56457197                0.29588111               -0.01065974
               5.02004524                8.99723097               28.02876972                0.01000000               -0.54325886                0.11930022                0.11827498                0.34531701                0.31611062                0.02474192
               6.01493840                9.00019182               28.03124174                0.01000002               -0.48777519                0.10334938                0.12672275                0.15113178                0.37325476                0.05811377
               7.01028974                9.00161650               28.03465313                0.01000002               -0.47664820                0.08771873                0.13695384               -0.02044166                0.46152135                0.10470475
               8.00540543                9.00148127               28.03933114                0.01000003               -0.52484365                0.09083967                0.14994283               -0.20965275                0.69892385                0.20140083
               8.99979287                9.00043698               28.04794452                0.99999998               -0.30646504               -0.07469148                0.17141934               -0.38451272                0.43579012                0.41884473
               9.99927613                8.99991176               28.04783583                1.00000000               -0.05167351               -0.21197080                0.17331249               -0.35308884               -0.00035595                0.35233722
               0.03506388                9.99520774               28.03049248                1.00000000               -0.03142453               -0.03163910                0.10439115               -0.00049877                0.01331643                0.01423185
               1.03474964                9.99218004               28.02893434                1.00000000               -0.03155803               -0.03193228                0.10525353               -0.00008381                0.01670294                0.00080962
               2.03443272                9.98914493               28.02744478                0.99999999               -0.03181971               -0.03222167                0.10618743               -0.00011790                0.01669037               -0.00367580
               3.03411324                9.98610171               28.02589017                0.12174350               -0.51346976               -0.03251985                0.10706902                0.56497159                0.14620141               -0.00435433
               4.02416333                9.99435246               28.02699752                0.01000002               -0.80221879                0.22197828                0.10957954                0.46611040                0.26760298               -0.00375017
               5.01806887                9.99870441               28.02879893                0.01000000               -0.53033041                0.14734374                0.11629718                0.15864700                0.31049735                0.02005796
               6.01355672               10.00147815               28.03132600                0.01000001               -0.43195064                0.12863322                0.12614660                0.06504466                0.38156884                0.03796835
               7.00942986               10.00276866               28.03495119                0.01000001               -0.42438052                0.11521605                0.13799128               -0.00576370                0.51544134                0.06259495
               8.00506911               10.00308264               28.04051535                0.01000002               -0.45524731                0.16013727                0.15382339               -0.17607791                0.68356957                0.14691077
               9.00032491                9.99991974               28.04789511                1.00000000               -0.26341339               -0.05172386                0.17361982               -0.13151765                0.37471649                0.00029437
               9.99980084                9.99938820               28.04778641                0.99999997               -0.05240680               -0.05235578                0.17551295               -0.00068294                0.00033569               -0.00033532
               0.00122955                0.00247312               29.02422147                1.00000000               -0.02503446               -0.02424753                0.08142324                0.00046801               -0.00335898                0.00390113
               1.00097921                0.00116065               29.02425866                1.00000000               -0.02561279               -0.02546586                0.08533194                0.00060594               -0.00361411               -0.00127688
               2.00071730               -0.00015470               29.02428800                0.01000000               -0.01659899               -0.02668430                0.08924039                0.03302447                0.06314510               -0.00156301
               3.00064723               -0.00082470               29.02566244                0.01000000               -0.02075683               -0.00870944                0.09266365                0.02886607                0.13378731                0.00579421
               4.00030216                0.00069821               29.02721890                0.01000000               -0.07502928                0.00737139                0.09532965                0.11023204                0.15275634               -0.00632005
               4.99914664                0.00468198               29.02910590                0.01000097               -0.25351689                0.02414192                0.09717670                0.28739773                0.18860550               -0.01649685
               5.99523182                0.01249326               29.03159417                0.18736719               -0.21097292               -0.02988017                0.09941900                0.31714998                0.10879219               -0.00114868
               6.99492718                0.01397688               29.03241433                1.00000000               -0.03146868               -0.03142306                0.10539586                0.00088568                0.01583774               -0.00467778
               7.99460245                0.01545776               29.03303756                0.99999998               -0.03329930               -0.03315896                0.11093960                0.00085484                0.00798400               -0.00050592
               8.99426120                0.01693533               29.03369681                1.00000000               -0.03495228               -0.03482037                0.11650349                0.00084481                0.00790195                0.00094926
               9.99390340                0.01841093               29.03431707                1.00000000               -0.03577953               -0.03653916                0.12207044                0.00099454                0.00590331                0.00536035
               0.00254669                1.00223064               29.02410724                1.00000000               -0.02475208               -0.02410598                0.08053669               -0.00012015                0.00140882                0.00447833
               1.00229917                1.00090600               29.02414157                0.01000000               -0.02532395               -0.02536657                0.08444545                0.00001774                0.00349659               -0.00322249
               2.00204022                0.99957846               29.02421626                0.01000000               -0.08948695               -0.04310755                0.08835449               -0.00472731                0.07646804                0.04540488
               3.00050944                0.99908821               29.02571356                0.01000001               -0.16945373               -0.01058968                0.09281664                0.08344327                0.12741498                0.01574504
               3.99865114                1.00077192               29.02705765                0.01000000               -0.21931716                0.00077195                0.09546387                0.23476457                0.11693024               -0.00027326
               4.99612309                1.00492340               29.02862357                0.01000000               -0.24476346               -0.00853993                0.09755927                0.45710648                0.14206715               -0.01097778
               5.99375587                1.01219446               29.03081591                0.01000001               -0.13346485               -0.18148527                0.09856549                0.42166838                0.08509163               -0.03655867
               6.99345379                1.01366265               29.03155223                0.99999999               -0.03120505               -0.03129399                0.10451379                0.00011000                0.00662664               -0.00454872
               7.99313177                1.01512617               29.03216921                0.99999996               -0.03303683               -0.03302911                0.11009407                0.00000749                0.00122969               -0.00039506
               8.99279306                1.01658713               29.03279466                0.99999999               -0.03470112               -0.03469981                0.11566569               -0.00000752                0.00117999                0.00065482
               9.99243775                1.01804554               29.03341023                1.00000000               -0.03553096               -0.03640159                0.12121260                0.00010867                0.00058802                0.00663886
               0.00387644                2.00199100               29.02399983                0.01000000               -0.02446966               -0.03158516                0.07965004               -0.02105555                0.00190579                0.08065680
               1.00363174                2.00065332               29.02398595                0.01000000               -0.07179527               -0.07059522                0.08355860               -0.03566078                0.05777292                0.07576950
               2.00244054                1.99898315               29.02508937                0.01000001               -0.12545575               -0.07795089                0.09102404                0.02602914                0.09028289                0.07848392
               3.00112263                1.99896351               29.02588961                0.01000000               -0.16391379               -0.04953423                0.09465670                0.21977768                0.07896564                0.03238708
               3.99916226                2.00071365               29.02693152                0.01000000               -0.21281987               -0.04049269                0.09735549                0.42219499                0.08696459                0.01136773
               4.99686623                2.00451118               29.02813660                0.01000001               -0.21181599               -0.08665407                0.09948635                0.58069912                0.08034947               -0.00163070
               5.99492594                2.00886356               29.02932081                0.01000000               -0.24342759               -0.24807362                0.10208758                0.62115128                0.07797582               -0.03860445
               6.99199768                2.01335100               29.03068789                0.01000000               -0.16239101               -0.14640354                0.10363938                0.37280218                0.03338931               -0.00659411
               7.99167812                2.01479717               29.03130057                0.09654890               -0.03280030               -0.03277569                0.10925793                0.00047819               -0.00557286                0.00245719
               8.99134167                2.01624133               29.03188653                0.99999997               -0.03446833               -0.03442329                0.11487383               -0.00000112               -0.00400847               -0.00158526
               9.99098875                2.01768290               29.03253164                1.00000000               -0.03529210               -0.03615849                0.12033717                0.00012493               -0.00120205                0.00656658
               0.00480093                3.00159894               29.02540565                0.01000000               -0.02071288               -0.02850536                0.08759240               -0.00387969                0.01071701                0.15779916
               1.00459380                2.99949409               29.02545066                0.01000001               -0.02751611               -0.14344178                0.09127292                0.03858922                0.02008868                0.13531016
               2.00425061                2.99801944               29.02570103                0.01000000               -0.07096562               -0.13821870                0.09478421                0.19724631                0.04303558                0.06918606
               3.00317449                2.99809752               29.02623496                0.01000000               -0.13516211               -0.11913412                0.09799480                0.38571553                0.06021669                0.04057962
               4.00154737                2.99996207               29.02694956                0.01000000               -0.17936642               -0.10958076                0.10046971                0.56543780                0.06868567                0.02454708
               4.99958716                3.00319032               29.02783588                0.01000000               -0.21041445               -0.14399772                0.10275581                0.69798393                0.07226723                0.01980968
               5.99733908                3.00723299               29.02883951                0.01000001               -0.23054699               -0.17973361                0.10438798                0.71380832                0.06314128                0.02733536
               6.99497622                3.01073458               29.02978087                0.01000001               -0.35440397               -0.21850026                0.10992386                0.74632099                0.03992785                0.02369662
               7.99025100                3.01447065               29.03048805                0.01000002               -0.25344567               -0.16282582                0.12484275                0.60502447               -0.00887127                0.04967486
               8.98990731                3.01589866               29.03094063                0.01000000               -0.03469402               -0.19114123                0.11412736                0.46043786               -0.01318837                0.05911209
               9.98955712                3.01732237               29.03162694                0.49150374               -0.03501905               -0.40603805                0.11946479                0.53524068               -0.00172272                0.04680445
               0.00800854                4.00142089               29.02681933                0.01000003               -0.00255162               -0.05509446                0.09501545                0.09984905               -0.00238965                0.16645304
               1.00798303                3.99778449               29.02655602                0.01000000               -0.01132569               -0.20532077                0.09766682                0.21631473                0.00640554                0.11140831
               2.00778203                3.99621878               29.02645267                0.01000000               -0.05443567               -0.19949947                0.09995016                0.40118639                0.02808044                0.06669258
               3.00689431                3.99658083               29.02663457                0.01000000               -0.12019032               -0.17117842                0.10213878                0.55209336                0.05328720                0.03783891
               4.00537822                3.99852203               29.02713068                0.01000000               -0.16696614               -0.16301293                0.10436837                0.68570290                0.07389511                0.03248806
               5.00355499                4.00163123               29.02789159                0.01000001               -0.18601876               -0.17062584                0.10662220                0.77290637                0.08541175                0.04344499
               6.00165785                4.00526889               29.02881439                0.01000001               -0.19342758               -0.20074660                0.10921051                0.82324546                0.08573759                0.06338368
               6.99968644                4.00898100               29.02977344                0.01000008               -0.15216602               -0.22102813                0.11344166                0.81884431                0.07259181                0.09069821
               7.99861453                4.01154066               29.03062484                0.01000000               -0.09938619               -0.30137275                0.11803519                0.87503246                0.05113849                0.11503116
               8.99769871                4.01241851               29.03124944                0.01000000                0.01158130               -0.35356558                0.12178435                0.62735968                0.02095012                0.13287315
               9.99884615                4.00956214               29.03155725                0.01000004                0.11474379               -0.55923688                0.12391324                0.47444220                0.01412430                0.08955046
               0.01407072                5.00049705               29.02833770                0.01000000                0.00514916               -0.24970915                0.10300720                0.29912276               -0.00537684                0.19098831
               1.01412221                4.99538768               29.02768057                0.01000000               -0.02963612               -0.22393620                0.10440049                0.47086049                0.00335754                0.11419613
               2.01347800                4.99402945               29.02717117                0.01000001               -0.11045541               -0.19494228                0.10531940                0.56702902                0.02655220                0.04620886
               3.01191310                4.99467396               29.02705139                0.01000000               -0.16334856               -0.20396108                0.10645507                0.67608735                0.06165325                0.02678288
               4.01021103                4.99670181               29.02742891                0.01000001               -0.18073331               -0.18642723                0.10835404                0.75683640                0.09657983                0.03220323
               5.00829844                4.99977780               29.02820167                0.01000001               -0.18784023               -0.18353474                0.11089064                0.80271071                0.11935830                0.05601348
               6.00645422                5.00321806               29.02923958                0.01000000               -0.16085487               -0.20271030                0.11404061                0.78565751                0.12836922                0.09256983
               7.00508134                5.00631402               29.03037871                0.01000000               -0.10700435               -0.25766314                0.11741626                0.73371661                0.12298975                0.13380995
               8.00431414                5.00844320               29.03142901                0.01000001               -0.03241583               -0.30317830                0.12086038                0.61099907                0.10032740                0.17081640
               9.00443302                5.00882735               29.03215889                0.01000000                0.02222872               -0.32361305                0.12553841                0.41325204                0.05975217                0.18721828
              10.00475871                5.00613763               29.03234116                0.01000000                0.03256859               -0.23586315                0.12971594                0.20225553                0.03663568                0.16197630
               0.02420974                5.99642671               29.03029061                0.48968428               -0.03419111               -0.21985345                0.11229431                0.35099511               -0.00318290                0.11470180
               1.02386783                5.99330576               29.02905558                0.01000001               -0.21867080               -0.12109377                0.11376791                0.43822793               -0.00932860                0.06613303
               2.01983633                5.99231993               29.02769624                0.01000000               -0.30620661               -0.21038553                0.10928926                0.61851669                0.01154910                0.01811319
               3.01774370                5.99250161               29.02738092                0.01000001               -0.22126120               -0.21522686                0.10954136                0.68250163                0.08486738                0.00684186
               4.01541110                5.99479349               29.02775339                0.01000001               -0.23253722               -0.19148914                0.11157953                0.79484282                0.13309578                0.02070962
               5.01309296                5.99796053               29.02867215                0.01000002               -0.22881606               -0.15354762                0.11462429                0.76942239                0.16797367                0.05908670
               6.01083478                6.00121468               29.02998988                0.01000000               -0.19786625               -0.16842978                0.11873032                0.67184553                0.18642466                0.10888463
               7.00913563                6.00382773               29.03149913                0.01000000               -0.12568046               -0.21789196                0.12315177                0.52882931                0.18478278                0.16838913
               8.00832117                6.00547709               29.03293405                0.01000000               -0.04331554               -0.27073786                0.12791109                0.38036602                0.15706141                0.22758560
               9.00826932                6.00594625               29.03393271                0.01000007               -0.00252368               -0.25985553                0.13246633                0.20918272                0.09566224                0.27051921
              10.00827070                6.00484487               29.03409403                0.01000001                0.00013793               -0.08623175                0.13628092                0.10096064                0.05660232                0.26868071
               0.02733251                6.99609998               29.03076583                0.99999999               -0.03389649               -0.03277431                0.11206319               -0.00059855               -0.00778833                0.03038077
               1.02699355                6.99296580               29.02936829                1.00000000               -0.03400113               -0.03372871                0.11294880               -0.00048765               -0.00858816                0.00794344
               2.02665249                6.98982174               29.02795343                0.01000000               -0.19519831               -0.14184431                0.11402808                0.36851752                0.04094465               -0.00800085
               3.02308958                6.99036942               29.02754814                0.01000001               -0.30017660               -0.30932562                0.11146699                0.73760244                0.11150042               -0.04800472
               4.02064896                6.99287203               29.02796061                0.01000002               -0.29119432               -0.13433122                0.11101112                0.79162400                0.17858817                0.00335635
               5.01726569                6.99670685               29.02919379                0.01000000               -0.33125114               -0.07997263                0.11774665                0.70376676                0.22786510                0.05408754
               6.01402393                6.99984946               29.03092878                0.01000000               -0.29350886               -0.08144861                0.12308260                0.50469352                0.25631348                0.11226349
               7.01139552                7.00195618               29.03304396                0.01000000               -0.21104973               -0.12964084                0.12912389                0.28742039                0.26476077                0.18623222
               8.00980294                7.00302844               29.03518482                0.01000001               -0.10733110               -0.20158405                0.13539099                0.09389422                0.23479341                0.29519999
               9.00924889                7.00363024               29.03681695                0.01000002               -0.04111336               -0.22026929                0.14110536               -0.00220460                0.14531911                0.38486882
              10.00898067                7.00441300               29.03716478                0.01000001               -0.02682225               -0.05066364                0.14497411               -0.02443566                0.08289086                0.43913975
               0.03046613                7.99577122               29.03102602                1.00000000               -0.03298139               -0.03252146                0.10906883               -0.00028398               -0.00090928                0.02197920
               1.03013632                7.99263119               29.02957830                1.00000000               -0.03315366               -0.03309144                0.11041733                0.00014107               -0.00066978                0.00315349
               2.02980306                7.98948305               29.02813495                0.07809025               -0.03454277               -0.03352442                0.11169365               -0.00050448                0.00913982               -0.01575153
               3.02944546                7.98631509               29.02688599                0.01000002               -0.24484531               -0.21892194                0.08124207                0.60810747                0.13795843               -0.08245893
               4.02490615                7.99210686               29.02806471                0.01000000               -0.46273033               -0.04367531                0.11417099                0.82590819                0.25710608               -0.00793180
               5.02019086                7.99636108               29.02965391                0.01000001               -0.46134138                0.03137407                0.11913966                0.56410322                0.28549835                0.04365602
               6.01567933                7.99958571               29.03186339                0.01000000               -0.42428974                0.02856461                0.12653843                0.32835827                0.32699366                0.09777492
               7.01170506                8.00123492               29.03470833                0.01000001               -0.35771651               -0.00395477                0.13446783                0.06564756                0.37827745                0.17180094
               8.00852500                8.00144541               29.03830595                0.01000002               -0.24321950               -0.06786620                0.14402313               -0.18795211                0.36431392                0.30047463
               9.00684067                8.00154086               29.04113855                0.01000000               -0.11542615               -0.15758373                0.15208250               -0.34868859                0.24295330                0.65435267
              10.00621647                8.00383160               29.04240038                0.01000000               -0.06241992               -0.22332003                0.15744334               -0.25137135                0.16552618                0.63981103
               0.03360690                8.99544955               29.03133078                1.00000000               -0.03223530               -0.03188197                0.10670105               -0.00029730                0.00240645                0.01930239
               1.03328454                8.99230397               29.02979574                0.99999998               -0.03242012               -0.03238318                0.10805094                0.00009623                0.00139109                0.00223168
               2.03295849                8.98915125               29.02824083                0.99999999               -0.03283161               -0.03282998                0.10947211                0.00007621               -0.00489318               -0.01154655
               3.03262791                8.98599098               29.02658353                0.01000001               -0.29186802               -0.03267622                0.11095225                0.45981838                0.14813691               -0.03826480
               4.02712113                8.99199852               29.02809560                0.01000000               -0.57794986                0.11119727                0.11177049                0.59065620                0.29887276               -0.01024425
               5.02106891                8.99733433               29.02996016                0.01000000               -0.57019345                0.12660369                0.11998110                0.36186796                0.32222130                0.02733584
               6.01571726                9.00042075               29.03251619                0.01000002               -0.51100739                0.10983161                0.12825839                0.15770187                0.38016679                0.06035149
               7.01084877                9.00187708               29.03602958                0.01000002               -0.49896575                0.09325002                0.13834956               -0.02355270                0.47073408                0.10789049
               8.00573795                9.00167112               29.04083575                0.01000003               -0.54799176                0.09594964                0.15098218               -0.22483950                0.71367684                0.20637317
               8.99988893                9.00047856               29.04965967                0.99999998               -0.31830906               -0.07898811                0.17161459               -0.40690585                0.44540014                0.42780890
               9.99937177                8.99994660               29.04956927                1.00000000               -0.05171625               -0.22041719                0.17337387               -0.36884915               -0.00035927                0.35951891
               0.03675135                9.99513358               29.03153584                1.00000000               -0.03148040               -0.03159695                0.10432014               -0.00056064                0.01340782                0.01435487
               1.03643654                9.99198353               29.02998875                1.00000000               -0.03168852               -0.03204466                0.10567776               -0.00015688                0.01680419                0.00089100
               2.03611758                9.98882645               29.02851099                0.99999999               -0.03209895               -0.03248072                0.10710993               -0.00018957                0.01677094               -0.00360167
               3.03579456                9.98566157               29.02696765                0.15032120               -0.53708243               -0.03294109                0.10849027                0.59188341                0.14728497               -0.00436648
               4.02537593                9.99433081               29.02810760                0.01000000               -0.83942899                0.23322879                0.11231621                0.48705864                0.27097808                0.00020574
               5.01900598                9.99889315               29.02997225                0.01000000               -0.55426569                0.15588234                0.11862376                0.16628353                0.31730111                0.02107745
               6.01429061               10.00178234               29.03259611                0.01000001               -0.45111679                0.13615856                0.12801215                0.06767298                0.39093425                0.03916107
               7.00998365               10.00309992               29.03633808                0.01000004               -0.44319450                0.12228343                0.13944788               -0.00740868                0.52779779                0.06426337
               8.00542672               10.00336440               29.04205787                0.01000002               -0.47782862                0.16932871                0.15470317               -0.18806334                0.69978118                0.15009183
               9.00042708                9.99996110               29.04963100                1.00000000               -0.27616473               -0.05174637                0.17356026               -0.14324276                0.38347188                0.00029552
               9.99990343                9.99942326               29.04954059                1.00000000               -0.05236467               -0.05233379                0.17531951               -0.00061828                0.00033739               -0.00033715
               0.00113923                0.00263080               30.02503136                1.00000000               -0.02489698               -0.02401166                0.08055519                0.00062921               -0.00335902                0.00390157
               1.00089026                0.00126941               30.02511174                1.00000000               -0.02559559               -0.02548510                0.08528445                0.00073499               -0.00361421               -0.00127687
               2.00062732               -0.00009416               30.02518427                0.01000000               -0.01959500               -0.02695866                0.09001358                0.03307240                0.06261395               -0.00156308
               3.00049836               -0.00081323               30.02659127                0.01000003               -0.02713187               -0.00491642                0.09316463                0.02901113                0.13208556                0.00674735
               4.00008468                0.00080067               30.02817019                0.01000000               -0.08394653                0.01179414                0.09455367                0.11659966                0.14991670               -0.00545806
               4.99881943                0.00500258               30.03007179                0.01000001               -0.27235296                0.03011881                0.09571666                0.30514688                0.18551141               -0.01534604
               5.99463762                0.01326409               30.03258070                0.17885347               -0.22416726               -0.02943439                0.09794578                0.33737824                0.10719035               -0.00114852
               6.99433608                0.01479639               30.03346397                1.00000000               -0.03121962               -0.03118388                0.10454767                0.00100384                0.01609292               -0.00471763
               7.99401323                0.01632521               30.03414464                0.99999998               -0.03317493               -0.03301826                0.11050970                0.00091956                0.00796084               -0.00049605
               8.99367258                0.01785112               30.03486157                1.00000000               -0.03494903               -0.03480423                0.11647559                0.00091149                0.00789116                0.00095437
               9.99331425                0.01937541               30.03553956                1.00000000               -0.03583370               -0.03668217                0.12244711                0.00103813                0.00588848                0.00531261
               0.00250691                1.00239068               30.02490937                1.00000000               -0.02468207               -0.02390040                0.07988977               -0.00008186                0.00140901                0.00447878
               1.00226009                1.00101456               30.02498689                0.01000000               -0.02537732               -0.02542527                0.08461888                0.00002383                0.00349709               -0.00322255
               2.00199936                0.99963625               30.02510477                0.01000000               -0.09595150               -0.04372489                0.08934832               -0.00664199                0.07641873                0.04702399
               3.00034106                0.99913761               30.02664426                0.01000001               -0.18282951               -0.00766480                0.09334338                0.08771271                0.12655513                0.01772382
               3.99834277                1.00091861               30.02801138                0.01000000               -0.23509363                0.00440303                0.09506587                0.24835282                0.11425492                0.00194889
               4.99563918                1.00530377               30.02959507                0.01000000               -0.26141364               -0.00536220                0.09652104                0.48406888                0.13845430               -0.00862409
               5.99311450                1.01296975               30.03179468                0.01000001               -0.14118123               -0.18961454                0.09720554                0.44728397                0.08280185               -0.03429889
               6.99281556                1.01448455               30.03259379                0.99999999               -0.03097196               -0.03106858                0.10380138                0.00015720                0.00687717               -0.00459667
               7.99249506                1.01599503               30.03326871                0.99999859               -0.03294805               -0.03292943                0.10975887                0.00003683                0.00124962               -0.00038565
               8.99215660                1.01750307               30.03395189                0.99999999               -0.03473641               -0.03471051                0.11574990               -0.00002798                0.00118632                0.00069652
               9.99180033                1.01900859               30.03462488                1.00000000               -0.03562681               -0.03656991                0.12173435                0.00004457                0.00058458                0.00655418
               0.00388983                2.00215279               30.02479420                0.01000000               -0.02446722               -0.03080845                0.07922433               -0.02223733                0.00190598                0.08502676
               1.00364516                2.00076091               30.02482351                0.01000000               -0.07592016               -0.07230270                0.08395306               -0.03763591                0.05939291                0.07994144
               2.00237143                1.99903134               30.02600251                0.01000001               -0.13374515               -0.07997601                0.09161797                0.02715281                0.09158626                0.08252992
               3.00097026                1.99903347               30.02683871                0.01000000               -0.17429288               -0.04992735                0.09507239                0.23242887                0.07759448                0.03604199
               3.99888557                2.00088873               30.02790554                0.01000000               -0.22602965               -0.04007932                0.09728480                0.44654233                0.08473078                0.01539504
               4.99644967                2.00489533               30.02912963                0.01000001               -0.22415278               -0.08919301                0.09924449                0.61415564                0.07746690                0.00254925
               5.99440252                2.00947180               30.03033729                0.01000000               -0.25678617               -0.26017363                0.10143267                0.65627158                0.07399889               -0.03515318
               6.99131394                2.01417502               30.03172148                0.01000000               -0.17035393               -0.15191175                0.10300931                0.39575444                0.03134832               -0.00345500
               7.99099544                2.01566662               30.03239274                0.10097742               -0.03277398               -0.03603525                0.10919571                0.00393900               -0.00551672                0.01555780
               8.99065846                2.01715690               30.03303707                0.99999997               -0.03456686               -0.03452487                0.11521322               -0.00000837               -0.00396589               -0.00141730
               9.99030410                2.01864401               30.03373816                1.00000000               -0.03543612               -0.03635203                0.12095309                0.00001486               -0.00121689                0.00641053
               0.00484593                3.00177451               30.02627966                0.01000000               -0.02171147               -0.02617611                0.08718168               -0.00344153                0.01093711                0.16685571
               1.00462882                2.99956851               30.02636390                0.01000001               -0.02880406               -0.14844975                0.09133138                0.04159633                0.02001543                0.14334960
               2.00426985                2.99803673               30.02665095                0.01000000               -0.07482826               -0.14359027                0.09515193                0.21031258                0.04253297                0.07474095
               3.00313225                2.99813906               30.02721711                0.01000000               -0.14290465               -0.12360166                0.09835344                0.40900473                0.05896239                0.04574467
               4.00141176                3.00011702               30.02795571                0.01000000               -0.18965132               -0.11350425                0.10081797                0.59815062                0.06660685                0.02975103
               4.99933922                3.00351991               30.02886491                0.01000000               -0.22257536               -0.15005308                0.10301377                0.73709002                0.06860828                0.02510086
               5.99696025                3.00776627               30.02987403                0.01000001               -0.24017001               -0.18787826                0.10475504                0.75339372                0.05876182                0.03264933
               6.99453582                3.01144631               30.03087020                0.01000001               -0.36841499               -0.22846944                0.10196278                0.78332614                0.04128042                0.02956319
               7.98959195                3.01527432               30.03183393                0.01000002               -0.26783917               -0.17275014                0.15993194                0.63600785               -0.03032057                0.06895684
               8.98917904                3.01681258               30.03208516                0.01000000               -0.03827702               -0.20073360                0.11483741                0.48820416               -0.02596308                0.06387210
               9.98882641                3.01828155               30.03282533                0.51650494               -0.03526319               -0.42703530                0.12010571                0.56468711               -0.00164071                0.04905535
               0.00823302                4.00162927               30.02776728                0.01000003               -0.00181503               -0.05457343                0.09450684                0.10709668               -0.00271856                0.17596774
               1.00821487                3.99779191               30.02753259                0.01000000               -0.01129435               -0.21393522                0.09756864                0.23142649                0.00573871                0.11939555
               2.00800713                3.99615954               30.02745348                0.01000000               -0.05724003               -0.20780458                0.10014786                0.42722209                0.02694843                0.07340232
               3.00707007                3.99656144               30.02765831                0.01000000               -0.12696966               -0.17782729                0.10250414                0.58558836                0.05176008                0.04369169
               4.00546774                3.99861864               30.02817644                0.01000000               -0.17639265               -0.16951849                0.10480991                0.72520013                0.07190721                0.03842423
               5.00354221                4.00189427               30.02895944                0.01000001               -0.19618758               -0.17792204                0.10719514                0.81600283                0.08272022                0.04956337
               6.00154399                4.00571423               30.02990519                0.01000001               -0.20348996               -0.20984670                0.10924465                0.86875536                0.08265723                0.07093708
               6.99947241                4.00960563               30.03090931                0.01000003               -0.15973260               -0.23215221                0.11416884                0.85766605                0.06834032                0.09990358
               7.99834933                4.01221162               30.03180055                0.01000000               -0.10285467               -0.31297166                0.11011684                0.91756933                0.05167314                0.11694530
               8.99741532                4.01314223               30.03247658                0.01000000                0.01552802               -0.37242487                0.12158652                0.66340047                0.02061330                0.14037871
               9.99865989                4.01010331               30.03279708                0.01000000                0.12445732               -0.58955407                0.12442322                0.50104057                0.01199658                0.09518754
               0.01466258                5.00068304               30.02936520                0.01000000                0.00644965               -0.26288931                0.10236744                0.31930412               -0.00627472                0.20179033
               1.01472708                4.99528980               30.02872413                0.01000000               -0.03089090               -0.23284775                0.10419942                0.50238316                0.00206985                0.12402261
               2.01404476                4.99388064               30.02822524                0.01000001               -0.11710811               -0.20185939                0.10543492                0.60331842                0.02472914                0.05276540
               3.01238491                4.99458251               30.02811507                0.01000000               -0.17309176               -0.21133808                0.10664408                0.71639416                0.05998935                0.03308702
               4.01058293                4.99672665               30.02851489                0.01000001               -0.19106128               -0.19324879                0.10883868                0.79937197                0.09516204                0.03803652
               5.00856369                4.99996147               30.02931298                0.01000001               -0.19794616               -0.19122900                0.11153703                0.84672742                0.11778258                0.06243174
               6.00662400                5.00356934               30.03038311                0.01000008               -0.16859649               -0.21213531                0.11481840                0.82805538                0.12647970                0.10000557
               7.00519176                5.00680327               30.03155326                0.01000000               -0.11086368               -0.27083038                0.11775711                0.77315265                0.12099658                0.14186513
               8.00440673                5.00901489               30.03263209                0.01000001               -0.03181979               -0.31649589                0.12185122                0.64334088                0.09976674                0.17967725
               9.00455536                5.00936408               30.03341567                0.01000000                0.02591700               -0.34083970                0.12609299                0.43446007                0.06122772                0.19436993
              10.00492507                5.00649047               30.03364423                0.01000003                0.03697067               -0.24920876                0.13099491                0.21262388                0.03786827                0.16883412
               0.02540559                5.99637148               30.03141024                0.45936826               -0.03406533               -0.23173082                0.11143295                0.37546962               -0.00318840                0.12149707
               1.02506493                5.99313496               30.03019237                0.01000001               -0.23123988               -0.12468791                0.11339582                0.46654454               -0.01220517                0.07267927
               2.02078079                5.99212235               30.02879046                0.01000000               -0.32564956               -0.21730477                0.10954633                0.65602656                0.00789198                0.02473457
               3.01855194                5.99233468               30.02848619                0.01000001               -0.23522822               -0.22000423                0.11035721                0.72152431                0.08329623                0.01002772
               4.01607622                5.99475367               30.02886844                0.01000001               -0.24589339               -0.19821298                0.11201270                0.83770701                0.13179779                0.02543908
               5.01363407                5.99806969               30.02982240                0.01000001               -0.24064665               -0.15937126                0.11550950                0.80961505                0.16785444                0.06490308
               6.01126329                6.00147153               30.03118125                0.01000000               -0.20720789               -0.17618845                0.11972935                0.70689178                0.18649240                0.11565960
               7.00948992                6.00418902               30.03273544                0.01000000               -0.13039740               -0.22913008                0.12438071                0.55574346                0.18526288                0.17625899
               8.00865534                6.00588170               30.03421964                0.01000000               -0.04304851               -0.28589398                0.12922348                0.39885260                0.15792500                0.23658566
               9.00862895                6.00632544               30.03526384                0.01000002                0.00021239               -0.27447730                0.13398387                0.21893583                0.09633852                0.27897771
              10.00865959                6.00511913               30.03546419                0.01000000                0.00306447               -0.09218426                0.13797594                0.10550621                0.05727384                0.27623514
               0.02864502                6.99604843               30.03188407                0.99999999               -0.03379258               -0.03251722                0.11145979               -0.00062352               -0.00832904                0.03121698
               1.02830710                6.99279604               30.03049793                1.00000000               -0.03397276               -0.03367751                0.11286693               -0.00051703               -0.00896095                0.00868813
               2.02796557                6.98953455               30.02909633                0.01000000               -0.20615073               -0.14640711                0.11445358                0.39198485                0.03675504               -0.00436217
               3.02418408                6.99018243               30.02862481                0.01000001               -0.31817587               -0.32130539                0.10969143                0.77762841                0.10795759               -0.04984943
               4.02160205                6.99276239               30.02908517                0.01000001               -0.30729786               -0.13815591                0.11340348                0.82827736                0.18115598                0.00567046
               5.01803813                6.99677404               30.03037287                0.01000000               -0.34797696               -0.08222648                0.11866884                0.73910312                0.22975715                0.05945387
               6.01464251                7.00004557               30.03216548                0.01000000               -0.30708372               -0.08461407                0.12429861                0.52941957                0.25851510                0.11798369
               7.01189645                7.00222067               30.03434136                0.01000000               -0.21975757               -0.13621701                0.13045232                0.30063267                0.26735178                0.19312190
               8.01024736                7.00329701               30.03654537                0.01000001               -0.10999016               -0.21286455                0.13683160                0.09686166                0.23743597                0.30359502
               9.00969665                7.00387453               30.03823520                0.01000002               -0.03997783               -0.23337706                0.14261425               -0.00344401                0.14702764                0.39424127
              10.00944780                7.00464678               30.03862235                0.01000000               -0.02488445               -0.05498929                0.14665079               -0.02580221                0.08391062                0.44861071
               0.03189788                7.99572114               30.03211508                1.00000000               -0.03294119               -0.03240330                0.10867816               -0.00025480               -0.00094115                0.02178864
               1.03156847                7.99246141               30.03068334                1.00000000               -0.03318920               -0.03312494                0.11053436                0.00014094               -0.00069973                0.00315719
               2.03123410                7.98919421               30.02925526                0.08544825               -0.03459039               -0.03371809                0.11232092               -0.00046621                0.00215634               -0.01557791
               3.03087666                7.98590857               30.02788255                0.01000002               -0.25919711               -0.23012330                0.10455090                0.63937618                0.13819691               -0.08541726
               4.02605016                7.99199055               30.02917858                0.01000000               -0.48718542               -0.04387411                0.11355287                0.86594718                0.26353383               -0.00399719
               5.02113296                7.99642516               30.03086003                0.01000001               -0.48225514                0.03426543                0.12111370                0.59098231                0.29029106                0.04720463
               6.01640505                7.99977925               30.03313325                0.01000000               -0.44409143                0.03102782                0.12785706                0.34346563                0.33115143                0.10207430
               7.01225113                8.00146468               30.03606013                0.01000001               -0.37331721               -0.00380533                0.13586562                0.06667855                0.38410915                0.17723957
               8.00893871                8.00162441               30.03975233                0.01000002               -0.25204170               -0.07201009                0.14528686               -0.20026337                0.37024458                0.30808983
               9.00721029                8.00165790               30.04266502                0.01000003               -0.11698341               -0.16869122                0.15324374               -0.36671809                0.24709803                0.66828176
              10.00659904                8.00401935               30.04398025                0.01000000               -0.06112510               -0.23424271                0.15856652               -0.26375751                0.16865155                0.65199600
               0.03515939                8.99540036               30.03239689                1.00000000               -0.03225460               -0.03182039                0.10650765               -0.00026592                0.00242873                0.01943731
               1.03483685                8.99213354               30.03087786                0.99999998               -0.03251567               -0.03247876                0.10836991                0.00009608                0.00145468                0.00233241
               2.03450908                8.98886019               30.02933969                0.99999999               -0.03307896               -0.03308082                0.11030356                0.00007831               -0.00476529               -0.01137936
               3.03417527                8.98557996               30.02769971                0.01000002               -0.30523384               -0.03312072                0.11229685                0.48051975                0.14819600               -0.03108602
               4.02840440                8.99188491               30.02922729                0.01000000               -0.60530969                0.11710147                0.11481790                0.62037588                0.30088943               -0.00722775
               5.02206907                8.99745935               30.03116934                0.01000000               -0.59660464                0.13383087                0.12196182                0.37873195                0.32785055                0.02895123
               6.01647231                9.00066613               30.03380691                0.01000002               -0.53421082                0.11611443                0.12997550                0.16448670                0.38690679                0.06276457
               7.01138486                9.00214456               30.03742012                0.01000002               -0.52117176                0.09861270                0.13978613               -0.02681992                0.47971080                0.11099865
               8.00604887                9.00185681               30.04235078                0.01000003               -0.57087528                0.10079133                0.15203774               -0.24053771                0.72790906                0.21120531
               8.99996735                9.00050071               30.05137681                0.99999998               -0.32995601               -0.08374477                0.17181690               -0.42967701                0.45465800                0.43643646
               9.99944975                8.99996193               30.05130331                1.00000000               -0.05175975               -0.22902601                0.17343274               -0.38440909               -0.00036271                0.36631532
               0.03842620                9.99508473               30.03257888                1.00000000               -0.03156301               -0.03156322                0.10432755               -0.00060917                0.01349874                0.01447594
               1.03811057                9.99181183               30.03104790                1.00000000               -0.03184759               -0.03217145                0.10619960               -0.00023452                0.01690685                0.00097416
               2.03778925                9.98853259               30.02958698                0.99999999               -0.03241176               -0.03275937                0.10814645               -0.00026670                0.01685691               -0.00352541
               3.03746234                9.98524616               30.02805998                0.18010697               -0.56054803               -0.03338054                0.11004284                0.61870606                0.14868882               -0.00438264
               4.02657829                9.99433258               30.02924385                0.01000000               -0.87679791                0.24476677                0.11487739                0.51016979                0.27483070                0.00276212
               5.01992638                9.99910178               30.03117140                0.01000000               -0.57843553                0.16424319                0.12125293                0.17417826                0.32326483                0.02184570
               6.01500958               10.00210154               30.03388624                0.01000001               -0.47011654                0.14354077                0.13005541                0.07048437                0.39953088                0.04039772
               7.01052405               10.00343693               30.03774015                0.01000001               -0.46188841                0.12923722                0.14100360               -0.00914591                0.53949812                0.06589671
               8.00577181               10.00364024               30.04360941                0.01000002               -0.50062059                0.17834286                0.15562110               -0.20040303                0.71519013                0.15314477
               9.00051163                9.99998300               30.05136631                1.00000000               -0.28916962               -0.05177052                0.17350325               -0.15564230                0.39181646                0.00029654
               9.99998842                9.99943883               30.05129280                1.00000000               -0.05232175               -0.05231019                0.17511904               -0.00055121                0.00033926               -0.00033894
               0.00100161                0.00279514               31.02583257                1.00000000               -0.02475938               -0.02377567                0.07968655                0.00079059               -0.00335906                0.00390201
               1.00075402                0.00138482               31.02596435                1.00000000               -0.02557832               -0.02550432                0.08523672                0.00086412               -0.00361415               -0.00127693
               2.00049004               -0.00002697               31.02608827                0.01000001               -0.02254980               -0.02723313                0.09078681                0.03308966                0.06156684               -0.00156306
               3.00030302               -0.00079573               31.02752573                0.01000001               -0.03350356               -0.00090210                0.09405795                0.02977272                0.12974840                0.00795803
               3.99981997                0.00090667               31.02910997                0.01000000               -0.09283313                0.01688779                0.09217939                0.12275852                0.14848358               -0.00418078
               4.99844636                0.00532852               31.03102023                0.01000001               -0.29182608                0.03645620                0.09462533                0.32303576                0.18324734               -0.01411187
               5.99398345                0.01404234               31.03355308                0.17029379               -0.23806268               -0.02904423                0.09654866                0.35769184                0.10563733               -0.00115918
               6.99368511                0.01562289               31.03450528                1.00000000               -0.03096919               -0.03096780                0.10374241                0.00108795                0.01642620               -0.00471322
               7.99336407                0.01719969               31.03524775                0.99999998               -0.03305018               -0.03293441                0.11010491                0.00100499                0.00792922               -0.00055883
               8.99302410                0.01877378               31.03602632                1.00000000               -0.03494349               -0.03482278                0.11647036                0.00099276                0.00786322                0.00091788
               9.99266520                0.02034653               31.03676601                1.00000000               -0.03589033               -0.03685092                0.12285210                0.00109959                0.00587046                0.00531634
               0.00241983                1.00255738               31.02570503                1.00000000               -0.02461206               -0.02369475                0.07924254               -0.00004350                0.00140919                0.00447935
               1.00217371                1.00112978               31.02583395                0.01000000               -0.02543073               -0.02548400                0.08479247                0.00002990                0.00349747               -0.00322270
               2.00191122                0.99970070               31.02600323                0.01000000               -0.10198892               -0.04427281                0.09034281               -0.00837572                0.07573468                0.04833948
               3.00013393                0.99919525               31.02758042                0.01000001               -0.19628902               -0.00463862                0.09359415                0.09216504                0.12316269                0.01865255
               3.99798544                1.00107554               31.02895897                0.01000000               -0.25125264                0.00852744                0.09291590                0.26219015                0.11336203                0.00452074
               4.99510888                1.00569308               31.03055399                0.01000000               -0.27861262               -0.00180949                0.09605109                0.51069108                0.13509910               -0.00556288
               5.99241318                1.01375190               31.03276003                0.01000001               -0.14957860               -0.19805998                0.09590095                0.47253775                0.08039376               -0.03160608
               6.99211731                1.01531321               31.03362826                0.99997598               -0.03072574               -0.03086965                0.10307530                0.00012702                0.00718879               -0.00465374
               7.99179867                1.01687035               31.03436439                0.99999999               -0.03283488               -0.03282954                0.10945494                0.00002365                0.00122229               -0.00032348
               8.99146061                1.01842556               31.03510966                0.99999999               -0.03476106               -0.03470333                0.11585524                0.00002560                0.00122397                0.00076922
               9.99110345                1.01997802               31.03584491                1.00000000               -0.03571618               -0.03679369                0.12226707                0.00009861                0.00063982                0.00649358
               0.00385594                2.00232124               31.02558431                0.01000000               -0.02446482               -0.02972047                0.07879856               -0.02304184                0.00190622                0.08928060
               1.00361130                2.00087514               31.02566501                0.01000000               -0.07994419               -0.07388915                0.08434801               -0.03922766                0.06070934                0.08381307
               2.00225706                1.99908758               31.02692172                0.01000001               -0.14199071               -0.08187081                0.09217299                0.02865966                0.09291476                0.08567226
               3.00077148                1.99911150               31.02779106                0.01000000               -0.18455551               -0.05012187                0.09484354                0.24523385                0.07706631                0.03935095
               3.99856595                2.00107721               31.02887722                0.01000000               -0.23938267               -0.03946760                0.09731350                0.47135508                0.08274903                0.01975787
               4.99598383                2.00529233               31.03012149                0.01000001               -0.23759372               -0.09152729                0.09925602                0.64680272                0.07487428                0.00747598
               5.99381408                2.01008114               31.03134947                0.01000000               -0.27073169               -0.27169124                0.10147289                0.69045054                0.07022121               -0.02971537
               6.99056919                2.01500549               31.03274808                0.01000000               -0.17809405               -0.15876018                0.10242099                0.40932926                0.02910059               -0.00698968
               7.99025219                2.01654310               31.03348448                0.23626273               -0.03261266               -0.02141828                0.10878760               -0.01474083               -0.00535905                0.05393651
               8.98991694                2.01807972               31.03419079                0.99999997               -0.03449762               -0.03444810                0.11523751                0.00017971               -0.00398856               -0.00109612
               9.98956224                2.01961066               31.03495070                1.00000000               -0.03546989               -0.03667366                0.12170310                0.00011897               -0.00137207                0.00618288
               0.00485119                3.00196297               31.02714929                0.01000000               -0.02283700               -0.02332710                0.08674685               -0.00271749                0.01111041                0.17565923
               1.00462282                2.99965200               31.02727729                0.01000001               -0.03015700               -0.15314906                0.09129870                0.04503081                0.01991531                0.15067193
               2.00424805                2.99806329               31.02760407                0.01000000               -0.07869259               -0.14875253                0.09542634                0.22395165                0.04176206                0.07938960
               3.00304897                2.99819281               31.02820203                0.01000000               -0.15081711               -0.12773992                0.09870406                0.43289884                0.05728735                0.05039754
               4.00123171                3.00028619               31.02896592                0.01000000               -0.20039815               -0.11729366                0.10114989                0.63095048                0.06447786                0.03497086
               4.99904101                3.00386253               31.02989615                0.01000000               -0.23613425               -0.15589532                0.10359070                0.77643486                0.06649005                0.03057828
               5.99650903                3.00831807               31.03093461                0.01000001               -0.25995396               -0.19512923                0.10622230                0.79112573                0.04970830                0.03749664
               6.99384193                3.01213801               31.03182013                0.01000001               -0.40396986               -0.23547439                0.10537812                0.83563040                0.06602751                0.03844814
               7.98842963                3.01644198               31.03368669                0.01000002               -0.27226406               -0.17308479                0.08971428                0.67135597               -0.01390007                0.05752407
               8.98839665                3.01773659               31.03323738                0.01000002               -0.01928397               -0.20920722                0.11464878                0.50000336               -0.06400134                0.06726168
               9.98804395                3.01924455               31.03402906                0.52893889               -0.03526988               -0.44818337                0.12110786                0.59493685               -0.00222822                0.05135342
               0.00842354                4.00185470               31.02870947                0.01000000               -0.00119452               -0.05365410                0.09386908                0.11455440               -0.00301563                0.18501982
               1.00841160                3.99781216               31.02850739                0.01000000               -0.01141333               -0.22218246                0.09731277                0.24692834                0.00505572                0.12681547
               2.00819528                3.99611253               31.02845562                0.01000000               -0.06025228               -0.21577549                0.10018962                0.45390620                0.02566591                0.07944362
               3.00720655                3.99655670               31.02868466                0.01000000               -0.13400179               -0.18424974                0.10274080                0.61965428                0.05017302                0.04899099
               4.00551524                3.99873134               31.02922688                0.01000000               -0.18629538               -0.17578246                0.10527336                0.76511823                0.07024194                0.04372383
               5.00348064                4.00217442               31.03003549                0.01000001               -0.20770624               -0.18495304                0.10801017                0.85960378                0.08058970                0.05512707
               6.00136112                4.00617855               31.03099928                0.01000001               -0.21613771               -0.21879821                0.11062735                0.91780511                0.08095924                0.07715044
               6.99915789                4.01029601               31.03205681                0.01000152               -0.16401955               -0.24064052                0.11117243                0.91566037                0.06094395                0.11145690
               7.99808073                4.01308141               31.03282717                0.01000000               -0.10217240               -0.34121661                0.11283774                0.98084983                0.04735268                0.09700778
               8.99711444                4.01389557               31.03368117                0.01000000                0.01821735               -0.39045520                0.11802175                0.69071850                0.02798092                0.14902281
               9.99844507                4.01064699               31.03404571                0.01000001                0.13306295               -0.61986691                0.12616706                0.52589115                0.01206490                0.10032941
               0.01522736                5.00088989               31.03038505                0.01000001                0.00762057               -0.27584630                0.10147570                0.33975467               -0.00711700                0.21203469
               1.01530357                4.99520835               31.02976455                0.01000000               -0.03228605               -0.24133053                0.10375495                0.53448983                0.00078188                0.13330638
               2.01458164                4.99374778               31.02927987                0.01000001               -0.12401611               -0.20844966                0.10538757                0.64022715                0.02298655                0.05882420
               3.01282324                4.99450782               31.02918427                0.01000000               -0.18326407               -0.21821370                0.10693987                0.75739312                0.05837202                0.03825538
               4.01091636                4.99677054               31.02960568                0.01000001               -0.20186860               -0.19996774                0.10935748                0.84256290                0.09398115                0.04320139
               5.00878587                5.00016347               31.03043241                0.01000001               -0.20864079               -0.19878543                0.11241555                0.89140765                0.11691687                0.06799625
               6.00674354                5.00394211               31.03153595                0.01000001               -0.17667927               -0.22165292                0.11572204                0.87261030                0.12547875                0.10638622
               7.00525229                5.00732520               31.03273386                0.01000000               -0.11482413               -0.28655972                0.11949671                0.81600791                0.11999738                0.14854431
               8.00444706                5.00961765               31.03386604                0.01000001               -0.03034253               -0.33929381                0.12387848                0.67364222                0.09965537                0.19389316
               9.00464544                5.00992749               31.03468075                0.01000000                0.03059413               -0.35946501                0.12790258                0.45333287                0.06115034                0.20220681
              10.00505894                5.00684721               31.03496106                0.01000001                0.04135065               -0.26277634                0.13250402                0.22049195                0.03905238                0.17562272
               0.02658172                5.99633778               31.03251926                0.42918828               -0.03382112               -0.24352030                0.11016587                0.40032049               -0.00320093                0.12804377
               1.02624351                5.99298555               31.03132349                0.01000001               -0.24406856               -0.12798761                0.11262882                0.49521296               -0.01493020                0.07902779
               2.02170035                5.99194353               31.02988717                0.01000000               -0.34559302               -0.22390349                0.10976394                0.69429735                0.00380697                0.03098083
               3.01933165                5.99219243               31.02958806                0.01000001               -0.24947513               -0.22658719                0.11079118                0.76125496                0.08179440                0.01419994
               4.01671085                5.99473199               31.02999365                0.01000001               -0.25972081               -0.20476236                0.11303942                0.88069710                0.13158538                0.02956513
               5.01413723                5.99819871               31.03098234                0.01000000               -0.25296243               -0.16525869                0.11659160                0.85040819                0.16824918                0.07006809
               6.01165160                6.00174550               31.03238447                0.01000000               -0.21673635               -0.18424807                0.12100870                0.74241518                0.18724937                0.12161457
               7.00980251                6.00456481               31.03398674                0.01000001               -0.13501617               -0.24156373                0.12592255                0.58302078                0.18621218                0.18345182
               8.00895127                6.00629553               31.03551852                0.01000000               -0.04254825               -0.30250012                0.13092743                0.41761097                0.15876485                0.24386944
               9.00895154                6.00670627               31.03661239                0.01000001                0.00320992               -0.29068043                0.13574993                0.22814808                0.09690873                0.28700820
              10.00901547                6.00539146               31.03685355                0.01000000                0.00639322               -0.09890286                0.14011482                0.10980087                0.05754196                0.28323316
               0.02993822                6.99601948               31.03299503                0.99999999               -0.03361500               -0.03218008                0.11061153               -0.00063525               -0.00884446                0.03209455
               1.02960207                6.99264860               31.03162563                1.00000000               -0.03387534               -0.03355760                0.11256520               -0.00055700               -0.00931827                0.00949293
               2.02926071                6.98926971               31.03024251                0.01000000               -0.21710886               -0.15076998                0.11468316                0.41370549                0.03417367               -0.00080453
               3.02525989                6.98997608               31.02974196                0.01000001               -0.33683474               -0.33302913                0.11302315                0.81800074                0.10560856               -0.05053620
               4.02252402                6.99267529               31.03022868                0.01000002               -0.32396822               -0.14235934                0.11579863                0.86853590                0.18214670                0.00900534
               5.01878053                6.99685830               31.03156717                0.01000000               -0.36491355               -0.08450081                0.12022921                0.77433176                0.23204449                0.06368908
               6.01522575                7.00025715               31.03341475                0.01000001               -0.32089288               -0.08798621                0.12565936                0.55431411                0.26108388                0.12331073
               7.01236267                7.00249392               31.03565301                0.01000000               -0.22839635               -0.14319339                0.13191589                0.31380782                0.27031119                0.19939060
               8.01065782                7.00356765               31.03792146                0.01000002               -0.11251020               -0.22468698                0.13837858                0.09968428                0.24019966                0.31154333
               9.01011246                7.00411388               31.03966923                0.01000002               -0.03866182               -0.24706957                0.14422830               -0.00476600                0.14870940                0.40300461
              10.00988458                7.00486915               31.04009779                0.01000000               -0.02278829               -0.06004510                0.14845955               -0.02729413                0.08488187                0.45727867
               0.03331079                7.99569417               31.03319958                1.00000000               -0.03286441               -0.03224935                0.10815977               -0.00021164               -0.00097393                0.02159727
               1.03298215                7.99231440               31.03178899                1.00000000               -0.03319058               -0.03312682                0.11054071                0.00013678               -0.00073101                0.00316038
               2.03264698                7.98892813               31.03038137                0.09184477               -0.03480362               -0.03388828                0.11285528               -0.00009640               -0.00048259               -0.01539872
               3.03228607                7.98553184               31.02897701                0.01000002               -0.27238188               -0.23921250                0.11360229                0.67004986                0.13758114               -0.08298863
               4.02719934                7.99188480               31.03033577                0.01000000               -0.51220290               -0.04432961                0.11741119                0.90610609                0.26877696               -0.00155861
               5.02204202                7.99650870               31.03207618                0.01000001               -0.50485427                0.03718450                0.12288789                0.61833794                0.29389334                0.05055278
               6.01710226                7.99998577               31.03442053                0.01000000               -0.46369285                0.03329530                0.12946565                0.35855646                0.33582214                0.10612549
               7.01276816                8.00170094               31.03742564                0.01000001               -0.38886287               -0.00384420                0.13730176                0.06762271                0.38994642                0.18240075
               8.00932500                8.00180179               31.04121169                0.01000002               -0.26067220               -0.07647548                0.14659783               -0.21272224                0.37620799                0.31532354
               9.00755472                8.00176488               31.04420342                0.01000004               -0.11829750               -0.18039396                0.15444043               -0.38470654                0.25120916                0.68151725
              10.00695905                8.00419056               31.04557171                0.01000000               -0.05956667               -0.24544002                0.15972403               -0.27608512                0.17165099                0.66324897
               0.03669353                8.99537450               31.03346094                1.00000000               -0.03226895               -0.03175235                0.10628811               -0.00021919                0.00244944                0.01956207
               1.03637084                8.99198606               31.03196314                0.99999998               -0.03260974               -0.03257331                0.10868189                0.00009361                0.00151521                0.00243294
               2.03604134                8.98859194               31.03044690                0.99999999               -0.03333106               -0.03333945                0.11114565                0.00007090               -0.00464191               -0.01120937
               3.03570422                8.98519183               31.02882947                0.01000004               -0.31860253               -0.03392331                0.11367148                0.50110805                0.14895667               -0.02825832
               4.02966929                8.99178870               31.03039195                0.01000000               -0.63289549                0.12340727                0.11809256                0.64859697                0.30383034               -0.00534975
               5.02304631                8.99760199               31.03239940                0.01000000               -0.62323313                0.14086302                0.12421786                0.39606099                0.33278936                0.03092659
               6.01720463                9.00092305               31.03511570                0.01000004               -0.55736040                0.12229278                0.13179379                0.17126375                0.39343792                0.06495804
               7.01189910                9.00241704               31.03882530                0.01000002               -0.54325945                0.10384233                0.14127513               -0.03013191                0.48844371                0.11400986
               8.00633944                9.00203814               31.04387651                0.01000004               -0.59347706                0.10541228                0.15312230               -0.25658351                0.74165088                0.21582493
               9.00002956                9.00050600               31.05309601                0.99999998               -0.34139569               -0.08884222                0.17202669               -0.45262407                0.46355803                0.44470104
               9.99951152                8.99996035               31.05303793                1.00000000               -0.05180411               -0.23765283                0.17348894               -0.39965547               -0.00036623                0.37269188
               0.04008328                9.99505913               31.03362239                1.00000000               -0.03167059               -0.03153704                0.10441107               -0.00064436                0.01358380                0.01458931
               1.03976658                9.99166293               31.03211275                1.00000000               -0.03203250               -0.03231261                0.10681704               -0.00031580                0.01700595                0.00105736
               2.03944263                9.98826134               31.03067392                0.99999999               -0.03275513               -0.03305957                0.10929529               -0.00034834                0.01694589               -0.00344754
               3.03911147                9.98485338               31.02916850                0.21060398               -0.58407565               -0.03384469                0.11172811                0.64530514                0.15028200               -0.00440534
               4.02776112                9.99435294               31.03040514                0.01000000               -0.91412931                0.25642419                0.11742318                0.53281203                0.27864897                0.00410978
               5.02082889                9.99932596               31.03239731                0.01000000               -0.60243183                0.17239677                0.12388244                0.18219165                0.32889322                0.02280481
               6.01571248               10.00243163               31.03519722                0.01000001               -0.48892262                0.15085754                0.13213392                0.07337756                0.40751458                0.04155570
               7.01105044               10.00377779               31.03915815                0.01000000               -0.48040597                0.13607542                0.14260455               -0.01094651                0.55059784                0.06746721
               8.00610436               10.00391004               31.04517030                0.01000002               -0.52352071                0.18718972                0.15656903               -0.21299492                0.72978605                0.15604586
               9.00058002                9.99998804               31.05310107                1.00000000               -0.30235611               -0.05179651                0.17344875               -0.16858083                0.39974033                0.00029776
              10.00005724                9.99943750               31.05304297                1.00000000               -0.05227797               -0.05228482                0.17491127               -0.00048148                0.00034099               -0.00034092
               0.00080849                0.00296392               32.02662509                1.00000000               -0.02462162               -0.02353953                0.07881723                0.00095211               -0.00335906                0.00390249
               1.00056228                0.00150468               32.02681648                1.00000000               -0.02556097               -0.02552353                0.08518873                0.00099334               -0.00361404               -0.00127702
               2.00029727                0.00004467               32.02700001                0.01000000               -0.02453269               -0.02750775                0.09156025                0.03362308                0.06033514               -0.00156302
               3.00007162               -0.00076346               32.02847243                0.01000003               -0.03687130                0.00087909                0.09353045                0.02641485                0.14162398                0.00670275
               3.99955985                0.00101907               32.03001378                0.01000000               -0.10151801                0.02227082                0.09158073                0.12847452                0.15107725               -0.00618003
               4.99804126                0.00565283               32.03196430                0.01000001               -0.31472658                0.04384173                0.09603500                0.34028214                0.18087073               -0.01224485
               5.99326532                0.01482702               32.03451167                0.16177389               -0.25356616               -0.02857808                0.09499712                0.37844477                0.10350086               -0.00113735
               6.99296994                0.01645616               32.03553882                1.00000000               -0.03072736               -0.03074820                0.10291897                0.00119015                0.01682488               -0.00472646
               7.99265077                0.01808076               32.03634673                0.99999998               -0.03291769               -0.03289368                0.10965732                0.00106609                0.00787959               -0.00053134
               8.99231159                0.01970280               32.03719098                1.00000000               -0.03492456               -0.03488140                0.11642287                0.00105530                0.00784546                0.00095817
               9.99195228                0.02132394               32.03799660                1.00000000               -0.03593084               -0.03701675                0.12320538                0.00114724                0.00588434                0.00538488
               0.00227726                1.00272853               32.02649422                1.00000000               -0.02454202               -0.02348898                0.07859500               -0.00000506                0.00140935                0.00448002
               1.00203184                1.00124944               32.02668274                0.01000000               -0.02548417               -0.02554279                0.08496621                0.00003601                0.00349785               -0.00322290
               2.00176758                0.99976959               32.02691163                0.01000000               -0.10916335               -0.04503593                0.09133791               -0.00988543                0.07412063                0.04929800
               2.99984857                0.99924533               32.02851615                0.01000001               -0.20655638               -0.00188244                0.08854521                0.09783255                0.14321228                0.02144313
               3.99763645                1.00124178               32.02986970                0.01000000               -0.26542332                0.01289293                0.09364756                0.27480917                0.11561788                0.00895396
               4.99454011                1.00609125               32.03151609                0.01000000               -0.29941749                0.00249314                0.09705374                0.53665559                0.13177141               -0.00252457
               5.99164810                1.01454124               32.03371270                0.01000001               -0.15925664               -0.20620567                0.09451686                0.49862379                0.07706349               -0.02803561
               6.99135497                1.01614868               32.03465530                0.99934879               -0.03049950               -0.03064028                0.10239601                0.00007875                0.00768476               -0.00459021
               7.99103811                1.01775182               32.03545781                0.99999996               -0.03272106               -0.03288570                0.10922195                0.00000425                0.00124084               -0.00043741
               8.99070055                1.01935399               32.03626899                0.99999999               -0.03477461               -0.03477696                0.11599993                0.00014151                0.00119136                0.00069220
               9.99034262                1.02095377               32.03707022                1.00000000               -0.03579356               -0.03702054                0.12277912                0.00020582                0.00060190                0.00667611
               0.00376656                2.00249415               32.02637017                0.01000001               -0.02446251               -0.02829937                0.07837281               -0.02328828                0.00190651                0.09342041
               1.00352194                2.00099382               32.02651047                0.01000000               -0.08314403               -0.07549411                0.08474347               -0.04048463                0.06166883                0.08733580
               2.00210368                1.99914395               32.02784597                0.01000001               -0.14829237               -0.08394813                0.09208245                0.03089201                0.09384942                0.08638844
               3.00055609                1.99919889               32.02873558                0.01000000               -0.19467831               -0.04959603                0.09522788                0.26002723                0.07251632                0.04283531
               3.99821012                2.00127693               32.02985181                0.01000000               -0.25405914               -0.03874996                0.09777181                0.49372717                0.08120289                0.02697687
               4.99547491                2.00570269               32.03111476                0.01000001               -0.25148775               -0.09368839                0.09961648                0.67931108                0.07242797                0.01219879
               5.99318036                2.01070291               32.03236675                0.01000000               -0.28569863               -0.28374279                0.10178329                0.72615003                0.06678539               -0.02289966
               6.98976093                2.01584335               32.03376990                0.01000000               -0.18674086               -0.16210698                0.10201188                0.42347251                0.02598786                0.00012822
               7.98944554                2.01742305               32.03456849                0.24419450               -0.03242309               -0.03348539                0.10838214                0.00112508               -0.00544417               -0.00295602
               8.98911247                2.01900726               32.03534182                0.99999996               -0.03443549               -0.03432773                0.11523374                0.00082869               -0.00389060               -0.00145299
               9.98875683                2.02058353               32.03617222                1.00000000               -0.03556391               -0.03700778                0.12251794                0.00041940               -0.00118294                0.00655645
               0.00481214                3.00216254               32.02801459                0.01000000               -0.02397929               -0.02001189                0.08634614               -0.00178330                0.01121328                0.18419473
               1.00457234                2.99973956               32.02818987                0.01000001               -0.03158923               -0.15764348                0.09118659                0.04879876                0.01986703                0.15709680
               2.00418035                2.99809063               32.02855947                0.01000000               -0.08281013               -0.15356726                0.09562604                0.23766747                0.04053605                0.08339364
               3.00291614                2.99825341               32.02919119                0.01000000               -0.15865805               -0.13199372                0.09905084                0.45611634                0.05547972                0.05475081
               4.00100719                3.00046678               32.02997871                0.01000000               -0.21078989               -0.12117829                0.10142899                0.66378488                0.06221696                0.03961395
               4.99870034                3.00421748               32.03093672                0.01000000               -0.24883770               -0.16210671                0.10417446                0.81531556                0.06500684                0.03589848
               5.99603044                3.00886639               32.03199848                0.01000001               -0.27980278               -0.20235053                0.10645928                0.83252725                0.05322394                0.04321327
               6.99310429                3.01290654               32.03297776                0.01000001               -0.40668678               -0.24611579                0.11572289                0.86590987                0.02049821                0.03906428
               7.98789670                3.01708212               32.03362822                0.01000001               -0.27738194               -0.17253080               -0.00720706                0.69936943               -0.01357722                0.06646516
               8.98755665                3.01866743               32.03437813                0.01000001               -0.03491105               -0.21639729                0.11421302                0.53877140               -0.00754161                0.06777406
               9.98719848                3.02021361               32.03524749                0.55156781               -0.03581684               -0.47028136                0.12235704                0.62538152               -0.00181090                0.05483531
               0.00857686                4.00209391               32.02964466                0.01000000               -0.00070286               -0.05242999                0.09313799                0.12215896               -0.00320867                0.19342909
               1.00856983                3.99784095               32.02947885                0.01000000               -0.01168349               -0.22998670                0.09688090                0.26271195                0.00437559                0.13362503
               2.00834319                3.99607260               32.02945727                0.01000000               -0.06337793               -0.22325220                0.10004754                0.48112409                0.02443816                0.08475275
               3.00730227                3.99655901               32.02971313                0.01000000               -0.14107208               -0.19045964                0.10273950                0.65455804                0.04866733                0.05355387
               4.00552174                3.99885336               32.03028191                0.01000000               -0.19603308               -0.18214300                0.10556664                0.80543825                0.06902381                0.04850493
               5.00338161                4.00246056               32.03111964                0.01000001               -0.21899492               -0.19214705                0.10860240                0.90369783                0.08016253                0.06004229
               6.00114185                4.00665590               32.03211774                0.01000001               -0.22591018               -0.22772559                0.11212565                0.96310877                0.07872781                0.08123690
               6.99886340                4.01092104               32.03313276                0.01000003               -0.17349049               -0.25311558                0.10796188                0.97369304                0.06439805                0.11127379
               7.99767204                4.01397243               32.03405730                0.01000000               -0.10534994               -0.34403535                0.12444752                1.01572615                0.04727734                0.14798583
               8.99675640                4.01467932               32.03483701                0.01000000                0.02500346               -0.40952219                0.11637445                0.71660846                0.02273474                0.15395856
               9.99817210                4.01117790               32.03532043                0.01000000                0.14157007               -0.65092637                0.12830826                0.54720908                0.01645298                0.10553408
               0.01576122                5.00111394               32.03139471                0.01000001                0.00866650               -0.28857664                0.10031675                0.36040125               -0.00788802                0.22151030
               1.01584789                4.99513983               32.03079923                0.01000000               -0.03382237               -0.24932598                0.10303071                0.56701205               -0.00039849                0.14192355
               2.01508477                4.99362558               32.03033299                0.01000001               -0.13106703               -0.21466351                0.10505543                0.67767808                0.02123596                0.06453031
               3.01322654                4.99444422               32.03025387                0.01000000               -0.19351797               -0.22490144                0.10695268                0.79887073                0.05697222                0.04323707
               4.01121441                4.99682392               32.03070204                0.01000001               -0.21273931               -0.20656965                0.10976914                0.88611132                0.09341653                0.04789172
               5.00897176                5.00037454               32.03156129                0.01000001               -0.21911415               -0.20621322                0.11320769                0.93572919                0.11684335                0.07273817
               6.00683213                5.00431188               32.03269755                0.01000002               -0.18550710               -0.23154399                0.11659433                0.91658607                0.12618330                0.11099107
               7.00526162                5.00784423               32.03394319                0.01000000               -0.11895931               -0.29910659                0.12150628                0.85531214                0.12088830                0.15563620
               8.00445294                5.01020141               32.03510966                0.01000001               -0.02891331               -0.36343785                0.12499293                0.70828606                0.09908185                0.19534647
               9.00468335                5.01047699               32.03597372                0.01000000                0.03462775               -0.38010990                0.13010616                0.47346821                0.05959036                0.21013609
              10.00514550                5.00719509               32.03629431                0.01000000                0.04621488               -0.27654198                0.13424270                0.22961011                0.03707770                0.18054288
               0.02773311                5.99632237               32.03361356                0.39905347               -0.03346813               -0.25519710                0.10851723                0.42549147               -0.00320962                0.13424442
               1.02739843                5.99285443               32.03244495                0.01000001               -0.25703737               -0.13097100                0.11148994                0.52411642               -0.01735852                0.08509471
               2.02259236                5.99177933               32.03098574                0.01000000               -0.36585381               -0.23006656                0.10975183                0.73272434                0.00048275                0.03698827
               3.02008135                5.99206099               32.03070201                0.01000001               -0.26393555               -0.23307305                0.11125963                0.80130830                0.08058554                0.01882167
               4.01731365                5.99472197               32.03112923                0.01000001               -0.27365599               -0.21117700                0.11395767                0.92403360                0.13136136                0.03419541
               5.01460823                5.99833629               32.03215424                0.01000001               -0.26548857               -0.17102761                0.11768493                0.89121235                0.16916226                0.07469737
               6.01200388                6.00202502               32.03360143                0.01000000               -0.22640593               -0.19180740                0.12225758                0.77744198                0.18874439                0.12677577
               7.01008011                6.00493891               32.03525389                0.01000001               -0.13994424               -0.25373234                0.12734803                0.61065031                0.18765956                0.18871853
               8.00920499                6.00670367               32.03683819                0.01000000               -0.04240097               -0.31833496                0.13268785                0.43601985                0.15961576                0.25012965
               9.00923209                6.00707712               32.03797884                0.01000000                0.00615613               -0.30666995                0.13743066                0.23772658                0.09710178                0.29346149
              10.00932812                6.00564706               32.03826649                0.01000000                0.00960230               -0.10604447                0.14220959                0.11413478                0.05757689                0.28905507
               0.03120693                6.99601000               32.03409630                0.99999999               -0.03336742               -0.03175995                0.10953233               -0.00063471               -0.00932513                0.03305238
               1.03087325                6.99252041               32.03274923                1.00000000               -0.03371102               -0.03336638                0.11204854               -0.00060545               -0.00965166                0.01040322
               2.03053271                6.98902425               32.03139000                0.01000000               -0.22815886               -0.15487486                0.11471375                0.43532055                0.03258051                0.00256146
               3.02631008                6.98978275               32.03088527                0.01000001               -0.35564647               -0.34498468                0.11632321                0.85843321                0.10390485               -0.04495059
               4.02341978                6.99260038               32.03140115                0.01000003               -0.34085628               -0.14629305                0.11816095                0.90920539                0.18264930                0.01283031
               5.01949295                6.99695398               32.03277745                0.01000000               -0.38207115               -0.08661488                0.12174076                0.80965915                0.23372672                0.06799109
               6.01577836                7.00047573               32.03467867                0.01000001               -0.33484918               -0.09121081                0.12703469                0.57918764                0.26393663                0.12805039
               7.01279597                7.00276958               32.03697967                0.01000000               -0.23716143               -0.14992554                0.13337055                0.32688844                0.27351274                0.20508506
               8.01103513                7.00383471               32.03931294                0.01000002               -0.11507352               -0.23639222                0.13986540                0.10270550                0.24303141                0.31869772
               9.01049450                7.00434359               32.04111976                0.01000002               -0.03734058               -0.26078291                0.14579419               -0.00590747                0.15038372                0.41111673
              10.01028832                7.00507420               32.04159154                0.01000000               -0.02061818               -0.06514313                0.15017030               -0.02857051                0.08576279                0.46485844
               0.03469960                7.99568718               32.03427827                1.00000000               -0.03275320               -0.03205999                0.10751864               -0.00015436               -0.00100577                0.02140701
               1.03437206                7.99218711               32.03289415                0.99999999               -0.03315859               -0.03309824                0.11044005                0.00012944               -0.00076131                0.00316811
               2.03403643                7.98868184               32.03151236                0.09964612               -0.03490872               -0.03404000                0.11329677               -0.00043082                0.00052706               -0.01520434
               3.03367389                7.98516129               32.03015459                0.01000002               -0.28549491               -0.24797264                0.11973961                0.70067716                0.13799336               -0.08083759
               4.02832653                7.99179611               32.03152681                0.01000000               -0.53739145               -0.04459186                0.12175823                0.94670036                0.26832440                0.00106351
               5.02292606                7.99660399               32.03331779                0.01000001               -0.52772457                0.04013848                0.12481549                0.64564303                0.29682108                0.05373402
               6.01777204                8.00020080               32.03572256                0.01000000               -0.48335817                0.03564363                0.13097426                0.37366025                0.34025952                0.11000094
               7.01325890                8.00194040               32.03880617                0.01000002               -0.40434724               -0.00386635                0.13879864                0.06859905                0.39589403                0.18730898
               8.00968509                8.00197583               32.04268429                0.01000002               -0.26922204               -0.08100050                0.14791847               -0.22514394                0.38213686                0.32222039
               9.00787446                8.00186146               32.04575383                0.01000006               -0.11947984               -0.19232525                0.15560911               -0.40245182                0.25527284                0.69403940
              10.00729549                8.00434420               32.04717473                0.01000000               -0.05789631               -0.25648448                0.16082710               -0.28821207                0.17452226                0.67355352
               0.03820398                8.99536880               32.03452265                1.00000000               -0.03227956               -0.03167808                0.10604459               -0.00015775                0.00246765                0.01966960
               1.03788118                8.99185844               32.03305150                0.99999998               -0.03270358               -0.03266754                0.10898934                0.00008737                0.00157273                0.00253317
               2.03754991                8.98834345               32.03156260                0.99999999               -0.03359158               -0.03361103                0.11200396                0.00004210               -0.00452173               -0.01103560
               3.03720935                8.98482330               32.02997314                0.01000000               -0.33194114               -0.03406554                0.11509296                0.52139723                0.15036572               -0.02908896
               4.03091108                8.99170854               32.03158914                0.01000000               -0.66041186                0.12961437                0.12143109                0.67646949                0.30668962               -0.00420675
               5.02400111                8.99775675               32.03365370                0.01000000               -0.64979617                0.14790290                0.12647494                0.41330842                0.33691414                0.03249718
               6.01791516                9.00118860               32.03644278                0.01000001               -0.58040952                0.12844058                0.13359251                0.17812458                0.39964639                0.06721239
               7.01239292                9.00269225               32.04024562                0.01000002               -0.56519889                0.10900956                0.14281605               -0.03349369                0.49694447                0.11691428
               8.00661118                9.00221470               32.04541323                0.01000000               -0.61579140                0.10988754                0.15424550               -0.27278214                0.75488167                0.22024807
               9.00007710                9.00049709               32.05481735                0.99999998               -0.35262889               -0.09413044                0.17224419               -0.47554405                0.47209508                0.45260710
               9.99955861                8.99994451               32.05477309                1.00000000               -0.05184905               -0.24611357                0.17354294               -0.41446096               -0.00036999                0.37865043
               0.04171715                9.99505361               32.03466710                1.00000000               -0.03179950               -0.03151863                0.10456988               -0.00066811                0.01365253                0.01468531
               1.04139916                9.99153376               32.03318424                1.00000000               -0.03223730               -0.03246873                0.10752314               -0.00040221                0.01708958                0.00113897
               2.04107241                9.98800962               32.03177289                0.99999999               -0.03312058               -0.03338368                0.11054294               -0.00043854                0.01703219               -0.00337069
               3.04073675                9.98447998               32.03029454                0.24154406               -0.60749724               -0.03433201                0.11352865                0.67167859                0.15203365               -0.00444120
               4.02892246                9.99438839               32.03159231                0.01000000               -0.95122902                0.26798541                0.11986892                0.55524158                0.28262741                0.00438320
               5.02171217                9.99956205               32.03364905                0.01000003               -0.62617179                0.18052988                0.12632836                0.19016653                0.33415048                0.02362314
               6.01639903               10.00276962               32.03652892                0.01000001               -0.50746218                0.15810152                0.13415579                0.07631349                0.41499604                0.04271861
               7.01156292               10.00412059               32.04059224                0.01000001               -0.49872073                0.14283342                0.14422849               -0.01280167                0.56116610                0.06898618
               8.00642461               10.00417358               32.04674079                0.01000002               -0.54645773                0.19588804                0.15755767               -0.22574358                0.74357966                0.15880184
               9.00063377                9.99997885               32.05483529                1.00000000               -0.31565906               -0.05182334                0.17339767               -0.18191540                0.40723568                0.00029783
              10.00011143                9.99942192               32.05479102                1.00000000               -0.05223368               -0.05225822                0.17469499               -0.00041001                0.00034351               -0.00034215
               0.00055166                0.00313494               33.02740892                1.00000000               -0.02448373               -0.02330318                0.07794715                0.00111376               -0.00335908                0.00390297
               1.00030683                0.00162676               33.02766812                1.00000000               -0.02554350               -0.02554274                0.08514055                0.00112265               -0.00361385               -0.00127712
               2.00004079                0.00011853               33.02791948                0.01498744               -0.00925466               -0.02778241                0.09233381                0.03315003                0.05716591               -0.00156304
               3.00012173               -0.00074910               33.02939634                0.01000002               -0.03455710                0.01100668                0.06558026                0.03947276                0.11923194               -0.00565696
               3.99934965                0.00107122               33.03094159                0.01000000               -0.12779278                0.03453607                0.09957211                0.13127737                0.13887681               -0.00126275
               4.99756588                0.00598004               33.03294093                0.01000000               -0.34353501                0.05120879                0.09696653                0.36085940                0.17201884               -0.01173007
               5.99247895                0.01561754               33.03545303                0.15287777               -0.26896679               -0.02814340                0.09341395                0.39939742                0.09894844               -0.00109164
               6.99218654                0.01729540               33.03656366                0.99995358               -0.03047231               -0.03050757                0.10201525                0.00140410                0.01748934               -0.00472324
               7.99186950                0.01896692               33.03744090                0.99999998               -0.03276965               -0.03270810                0.10915668                0.00110472                0.00785508               -0.00048549
               8.99153115                0.02063692               33.03835478                1.00000000               -0.03489312               -0.03483623                0.11630858                0.00108996                0.00784778                0.00100531
               9.99117164                0.02230698               33.03923012                1.00000000               -0.03595059               -0.03710545                0.12343263                0.00114371                0.00591167                0.00545638
               0.00207098                1.00290191               33.02727693                1.00000000               -0.02447199               -0.02328308                0.07794711                0.00003344                0.00140949                0.00448076
               1.00182626                1.00137133               33.02753327                0.01000000               -0.02553776               -0.02560165                0.08514011                0.00004225                0.00349824               -0.00322314
               2.00156022                0.99984070               33.02782999                0.01000000               -0.08930734               -0.04755114                0.09233356               -0.00711112                0.06657109                0.04930625
               3.00004011                0.99936097               33.02935133                0.01000001               -0.21311852                0.00211284                0.08105554                0.08350541                0.13056448                0.02154637
               3.99729785                1.00141658               33.03083192                0.01000000               -0.30694011                0.02182575                0.09911819                0.27961730                0.10965204                0.00997837
               4.99390131                1.00649213               33.03249506                0.01000000               -0.32413036                0.00678122                0.09768597                0.56355540                0.12206982               -0.00171759
               5.99081525                1.01533611               33.03465036                0.01000001               -0.16877082               -0.21400912                0.09321353                0.52569426                0.07221598               -0.02384999
               6.99052589                1.01699033               33.03567618                0.99836357               -0.03027258               -0.03049031                0.10183988                0.00021967                0.00843487               -0.00451762
               7.99020979                1.01863984               33.03654883                0.99999997               -0.03269364               -0.03266779                0.10896019                0.00000568                0.00125789               -0.00056564
               8.98987202                1.02028856               33.03742966                0.99999999               -0.03483864               -0.03477012                0.11611090                0.00001678                0.00115426                0.00057794
               9.98951302                1.02193592               33.03830049                1.00000000               -0.03589992               -0.03712297                0.12325831                0.00004376                0.00055261                0.00688625
               0.00361348                2.00266928               33.02715177                0.01000001               -0.02446029               -0.02647651                0.07794711               -0.02275858                0.00190682                0.09747774
               1.00336888                2.00111473               33.02735988                0.01000000               -0.08522711               -0.07728901                0.08513946               -0.04263728                0.06167816                0.09047797
               2.00190894                1.99916750               33.02876337                0.01000001               -0.15764581               -0.08604251                0.09287030                0.03378294                0.09320922                0.08911746
               3.00021596                1.99929316               33.02969561                0.01000000               -0.20490521               -0.05253434                0.09752871                0.25197257                0.06804356                0.04892659
               3.99781083                2.00150774               33.03083266                0.01000000               -0.26492513               -0.03841040                0.09729899                0.51275916                0.07635590                0.02834330
               4.99491746                2.00611567               33.03211382                0.01000001               -0.26580956               -0.09582585                0.09992893                0.71248473                0.06788864                0.01487394
               5.99249464                2.01133736               33.03338513                0.01000000               -0.30151265               -0.29523842                0.10143935                0.76435753                0.06202165               -0.01587079
               6.98888720                2.01668560               33.03478831                0.01000000               -0.19616259               -0.17169504                0.10167677                0.45362323                0.02241091                0.00726886
               7.98857139                2.01831357               33.03565213                0.10755210               -0.03259005               -0.01786823                0.10876843               -0.00980806               -0.00562538               -0.06134407
               8.98823540                2.01994152               33.03649547                0.99999996               -0.03468017               -0.03458373                0.11585241                0.00027382               -0.00382411               -0.00196409
               9.98787779                2.02156452               33.03740106                1.00000000               -0.03576172               -0.03714377                0.12312278                0.00009971               -0.00094703                0.00703214
               0.00472490                3.00237238               33.02887621                0.01000000               -0.02496183               -0.01630569                0.08611923               -0.00080656                0.01150960                0.19232443
               1.00447529                2.99982555               33.02910102                0.01000001               -0.03337265               -0.16197124                0.09130955                0.05325481                0.01963820                0.16312821
               2.00405745                2.99811985               33.02951659                0.01000000               -0.08679789               -0.15667216                0.09600656                0.25127751                0.03925868                0.08692331
               3.00273933                2.99831028               33.03018304                0.01000000               -0.16634638               -0.13640276                0.09833522                0.48339132                0.05380359                0.05810762
               4.00073052                3.00064837               33.03099450                0.01000080               -0.22089750               -0.12648130                0.10143458                0.69718534                0.06013580                0.04321778
               4.99832138                3.00457562               33.03197964                0.01000000               -0.25990283               -0.16824880                0.10392585                0.85567885                0.06298525                0.04024605
               5.99553247                3.00943134               33.03306379                0.01000001               -0.28496127               -0.21165694                0.10664370                0.87043611                0.05582197                0.04859935
               6.99262215                3.01355643               33.03413459                0.01000001               -0.43873774               -0.25647731                0.10553043                0.92351103               -0.02848001                0.04075393
               7.98675771                3.01828248               33.03354255                0.01000001               -0.29978037               -0.18769427                0.09185000                0.73955438               -0.02313836                0.06941994
               8.98662655                3.01959688               33.03552164                0.01000000               -0.02443498               -0.22811792                0.11550487                0.54905901                0.05016285                0.06863023
               9.98626901                3.02119305               33.03647620                0.57454041               -0.03575323               -0.49268343                0.12300278                0.65609259               -0.00120812                0.05866136
               0.00869099                4.00234316               33.03057223                0.01000002               -0.00044974               -0.05105906                0.09226685                0.12999698               -0.00333167                0.20105411
               1.00868650                3.99787530               33.03044501                0.01000000               -0.01206177               -0.23724170                0.09621009                0.27864631                0.00405538                0.13975083
               2.00844976                3.99603406               33.03045657                0.01000000               -0.06656172               -0.23049698                0.09941355                0.50920332                0.02359422                0.08959986
               3.00735526                3.99656510               33.03073945                0.01000000               -0.14802774               -0.19633026                0.10247477                0.68991830                0.04753841                0.05780570
               4.00548920                3.99897811               33.03133822                0.01000000               -0.20535982               -0.18836593                0.10554618                0.84661658                0.06811177                0.05303784
               5.00324807                4.00275069               33.03220754                0.01000001               -0.22833263               -0.19959872                0.10881159                0.94659822                0.07978019                0.06475256
               6.00092255                4.00710422               33.03324180                0.01000001               -0.23708882               -0.23765514                0.11176102                1.00791007                0.07617034                0.08544120
               6.99850629                4.01155605               33.03421605                0.01000003               -0.18002651               -0.26198162                0.11292672                1.00456216                0.06853534                0.11169237
               7.99732202                4.01455968               33.03531612                0.01000000               -0.11001383               -0.37693912                0.11610545                1.07317818                0.04804793                0.19878667
               8.99630601                4.01537916               33.03600866                0.01000000                0.02426431               -0.43042456                0.12087155                0.75886061                0.01523776                0.15799593
               9.99780731                4.01171085               33.03661187                0.01000000                0.15012945               -0.68405195                0.12923287                0.57768371                0.02017568                0.11112760
               0.01626056                5.00135120               33.03239138                0.01000001                0.00967516               -0.30110444                0.09885193                0.38114035               -0.00858566                0.22998553
               1.01635732                4.99508072               33.03182517                0.01000000               -0.03544229               -0.25689292                0.10202312                0.59981882               -0.00154730                0.14978770
               2.01555172                4.99350991               33.03138098                0.01000001               -0.13818365               -0.22038810                0.10449064                0.71530678                0.01955469                0.06994952
               3.01359364                4.99438368               33.03132333                0.01000000               -0.20372267               -0.23138202                0.10691086                0.84078774                0.05575580                0.04784312
               4.01147727                4.99688106               33.03180106                0.01000001               -0.22332064               -0.21306617                0.11006962                0.92983065                0.09308333                0.05245704
               5.00912723                5.00058364               33.03269656                0.01000001               -0.22959771               -0.21370953                0.11374673                0.97986984                0.11694638                0.07740086
               6.00688531                5.00467824               33.03386784                0.01000003               -0.19346460               -0.24021676                0.11751856                0.95687177                0.12695454                0.11562117
               7.00525794                5.00831679               33.03516398                0.01000000               -0.12435710               -0.31266757                0.12170638                0.89390520                0.12180395                0.16270230
               8.00439817                5.01074369               33.03636590                0.01000001               -0.03026740               -0.37324175                0.12651101                0.73841091                0.09831758                0.19579472
               9.00465259                5.01098839               33.03728287                0.01000000                0.03805685               -0.39748496                0.13095770                0.49637891                0.05795598                0.21773275
              10.00515931                5.00751201               33.03764591                0.01000001                0.05067158               -0.29177551                0.13607736                0.24158189                0.03466217                0.18507002
               0.02885475                5.99632107               33.03468961                0.36883374               -0.03305971               -0.26676885                0.10660046                0.45090158               -0.00320925                0.14004014
               1.02852416                5.99273744               33.03355329                0.01000001               -0.27009077               -0.13366315                0.11008280                0.55316248               -0.01953653                0.09082998
               2.02345294                5.99162630               33.03208220                0.01000000               -0.38621418               -0.23577976                0.10931242                0.77122912               -0.00281931                0.04265929
               3.02079987                5.99193746               33.03181325                0.01000001               -0.27835433               -0.23795945                0.11100044                0.84118419                0.07949653                0.02414509
               4.01788585                5.99471679               33.03227280                0.01000001               -0.28757968               -0.21733662                0.11447175                0.96732978                0.13176564                0.03869452
               5.01504828                5.99847650               33.03333604                0.01000003               -0.27795091               -0.17645381                0.11867592                0.93167029                0.17031106                0.07919825
               6.01232683                6.00229989               33.03482962                0.01000000               -0.23646704               -0.19906077                0.12327975                0.81215698                0.19035657                0.13184498
               7.01031894                6.00530270               33.03653370                0.01000001               -0.14540953               -0.26367250                0.12848362                0.63678375                0.18914028                0.19394847
               8.00941864                6.00709485               33.03817228                0.01000000               -0.04268305               -0.33240961                0.13375828                0.45534740                0.16046148                0.25637330
               9.00946528                6.00742946               33.03936100                0.01000002                0.00865340               -0.32135836                0.13888945                0.24847194                0.09724362                0.29975594
              10.00959171                6.00587534               33.03969774                0.01000001                0.01264333               -0.11269645                0.14371793                0.11943690                0.05761623                0.29457863
               0.03244586                6.99601582               33.03518567                0.99999999               -0.03305133               -0.03125557                0.10824257               -0.00062790               -0.00977280                0.03411173
               1.03211534                6.99240746               33.03386660                1.00000000               -0.03347859               -0.03309742                0.11131698               -0.00064123               -0.00996498                0.01143671
               2.03177628                6.98879432               33.03253678                0.01000000               -0.23942527               -0.15874269                0.11452069                0.45805871                0.03275702                0.00578970
               3.02732684                6.98962449               33.03206843                0.01000001               -0.37457315               -0.35551197                0.11602087                0.89858154                0.10359444               -0.03837806
               4.02428482                6.99253432               33.03259190                0.01000003               -0.35746507               -0.14993588                0.12019942                0.94734285                0.18250113                0.01764231
               5.02017754                6.99705456               33.03400199                0.01000000               -0.39912836               -0.08846889                0.12282916                0.84485544                0.23557139                0.07199612
               6.01630225                7.00069702               33.03595544                0.01000001               -0.34894400               -0.09391045                0.12834691                0.60405089                0.26691883                0.13273060
               7.01319866                7.00304334               33.03832042                0.01000000               -0.24619479               -0.15607613                0.13474725                0.34019256                0.27678188                0.21076806
               8.01137836                7.00409550               33.04071876                0.01000002               -0.11785593               -0.24744697                0.14127261                0.10596558                0.24582850                0.32576807
               9.01084154                7.00456122               33.04258512                0.01000002               -0.03610364               -0.27406866                0.14719437               -0.00664846                0.15202389                0.41902642
              10.01065629                7.00525808               33.04310120                0.01000000               -0.01852520               -0.06976283                0.15165059               -0.02951525                0.08658077                0.47200333
               0.03605892                7.99569596               33.03534996                1.00000000               -0.03260864               -0.03183775                0.10676237               -0.00007963               -0.00103650                0.02121937
               1.03573283                7.99207550               33.03399779                0.99999999               -0.03309189               -0.03304097                0.11022938                0.00012462               -0.00078187                0.00318741
               2.03539708                7.98845144               33.03264731                0.10502194               -0.03506685               -0.03418068                0.11365634                0.00023522                0.00305755               -0.01497163
               3.03503150                7.98482722               33.03137180                0.01000001               -0.29972259               -0.25771954                0.13995172                0.73123895                0.13836216               -0.08041293
               4.02940263                7.99171807               33.03277093                0.01000000               -0.56244044               -0.04476297                0.12280635                0.98587994                0.26597122                0.00328848
               5.02378269                7.99670712               33.03457249                0.01000001               -0.54917793                0.04330540                0.12590542                0.67285160                0.29873277                0.05712349
               6.01841907                8.00042168               33.03704001                0.01000000               -0.50291882                0.03819580                0.13259356                0.38887156                0.34497992                0.11394072
               7.01372431                8.00218118               33.04020162                0.01000002               -0.41994985               -0.00370475                0.14032029                0.06965591                0.40178141                0.19221787
               8.01002007                8.00214591               33.04417006                0.01000002               -0.27772898               -0.08544549                0.14924427               -0.23730529                0.38792029                0.32901410
               9.00816973                8.00194809               33.04731561                0.01000004               -0.12061897               -0.20422684                0.15672577               -0.41978785                0.25920835                0.70606769
              10.00760770                8.00448008               33.04878825                0.01000000               -0.05620364               -0.26705065                0.16183121               -0.29998259                0.17724801                0.68316762
               0.03968520                8.99537906               33.03558183                1.00000000               -0.03228428               -0.03160109                0.10578639               -0.00008589                0.00248300                0.01975434
               1.03936235                8.99174664               33.03414292                0.99999998               -0.03279674               -0.03276317                0.10928690                0.00006934                0.00163588                0.00263419
               2.03902926                8.98811070               33.03268698                0.99999997               -0.03386820               -0.03390456                0.11290116               -0.00003251               -0.00437211               -0.01084599
               3.03868499                8.98447010               33.03113133                0.01000002               -0.34533720               -0.03527358                0.11664076                0.54147940                0.15248800               -0.03137452
               4.03212252                8.99163906               33.03282057                0.01000000               -0.68770157                0.13581035                0.12456169                0.70535530                0.30948546               -0.00505435
               5.02493096                8.99792067               33.03492889                0.01000000               -0.67584427                0.15502989                0.12817120                0.43072390                0.34039173                0.03457494
               6.01860563                9.00146094               33.03778755                0.01000002               -0.60317061                0.13460238                0.13540490                0.18493591                0.40573267                0.06961639
               7.01286755                9.00296925               33.04168162                0.01000002               -0.58701445                0.11415510                0.14444621               -0.03683895                0.50518078                0.11982021
               8.00686534                9.00238659               33.04696142                0.01000005               -0.63779707                0.11425170                0.15543616               -0.28898633                0.76752529                0.22457838
               9.00011161                9.00047669               33.05654090                0.99999998               -0.36363514               -0.09949841                0.17246853               -0.49823762                0.48025004                0.46018343
               9.99959264                8.99991707               33.05650878                1.00000000               -0.05189643               -0.25426446                0.17359351               -0.42871495               -0.00037324                0.38424953
               0.04332206                9.99506394               33.03571378                1.00000000               -0.03194746               -0.03151223                0.10481579               -0.00068498                0.01368385                0.01475428
               1.04300258                9.99142023               33.03426321                1.00000000               -0.03245412               -0.03264041                0.10831101               -0.00050674                0.01712579                0.00121483
               2.04267297                9.98777335               33.03288477                0.99999999               -0.03349287               -0.03373504                0.11184991               -0.00055296                0.01707088               -0.00329603
               3.04233272                9.98412175               33.03143908                0.28149738               -0.63069069               -0.03483445                0.11537232                0.69781956                0.15371685               -0.00448913
               4.03005916                9.99443428               33.03280252                0.01000000               -0.98787166                0.27952126                0.12170795                0.57796270                0.28655822                0.00353930
               5.02257529                9.99980772               33.03492388                0.01000001               -0.64949730                0.18870498                0.12850908                0.19840564                0.33915958                0.02461365
               6.01706921               10.00311373               33.03788033                0.01000001               -0.52567049                0.16527868                0.13613835                0.07918590                0.42217598                0.04401038
               7.01206188               10.00446428               33.04204272                0.01000004               -0.51681515                0.14950298                0.14594477               -0.01470593                0.57125450                0.07048677
               8.00673291               10.00443094               33.04832145                0.01000002               -0.56936871                0.20443484                0.15863219               -0.23855140                0.75653495                0.16144136
               9.00067451                9.99995812               33.05656902                1.00000000               -0.32901360               -0.05185696                0.17334750               -0.19551731                0.41428525                0.00030384
              10.00015264                9.99939479               33.05653687                1.00000000               -0.05218676               -0.05222733                0.17447217               -0.00033270                0.00034228               -0.00034701
               0.00022290                0.00330596               34.02818404                1.00000000               -0.02434563               -0.02306660                0.07707639                0.00127568               -0.00335899                0.00390342
               0.99997944                0.00174885               34.02851929                1.00000000               -0.02552598               -0.02556201                0.08509206                0.00125208               -0.00361377               -0.00127726
               1.99971238                0.00019239               34.02884668                0.01000001               -0.02726461               -0.02805708                0.09310756                0.03008449                0.02638868               -0.00156272
               2.99943415               -0.00078658               34.02978404                0.01000000               -0.04597940                0.01635642                0.08560524                0.05341641                0.09668691                0.04039873
               3.99879279                0.00121316               34.03200522                0.01000000               -0.12319743                0.03371185                0.09733436                0.14412383                0.14344017               -0.00202821
               4.99697020                0.00630996               34.03390363                0.01000000               -0.35856174                0.05740365                0.09528478                0.37915367                0.15445858               -0.01048836
               5.99162156                0.01641052               34.03637995                0.14366430               -0.28191723               -0.02783806                0.09205701                0.42030849                0.09433523               -0.00110035
               6.99133186                0.01813665               34.03757912                0.99927200               -0.03024028               -0.03029790                0.10121052                0.00156855                0.01831830               -0.00467158
               7.99101675                0.01985519               34.03852987                1.00000000               -0.03262690               -0.03259120                0.10867976                0.00112943                0.00790242               -0.00053603
               8.99067932                0.02157316               34.03951715                1.00000000               -0.03484588               -0.03482947                0.11615936                0.00112086                0.00786494                0.00095902
               9.99031983                0.02329231               34.04046525                1.00000000               -0.03594861               -0.03717622                0.12360024                0.00113134                0.00590778                0.00547515
               0.00179277                1.00307529               34.02805316                0.99999999               -0.02440200               -0.02307699                0.07729875                0.00007207                0.00140965                0.00448139
               1.00154875                1.00149323               34.02838554                0.01000000               -0.02559150               -0.02566065                0.08531434                0.00004882                0.00349858               -0.00322344
               2.00128094                0.99991182               34.02875830                0.01000000               -0.10454092               -0.04763461                0.09333007               -0.00982461                0.05564978                0.04983490
               2.99945793                0.99937698               34.03013726                0.01000001               -0.22975916                0.00661445                0.09533846                0.10259920                0.08572993                0.04709669
               3.99668576                1.00155027               34.03185206                0.01000000               -0.31474373                0.02340245                0.09741063                0.30166254                0.10034501                0.00324483
               4.99316306                1.00688400               34.03346981                0.01000000               -0.33872288                0.01028141                0.09668198                0.59459344                0.10814766               -0.00107869
               5.98991130                1.01613214               34.03557697                0.01000001               -0.17689248               -0.22192270                0.09222016                0.55372088                0.06698545               -0.01977488
               6.98962521                1.01783367               34.03669210                0.99743457               -0.03007531               -0.03031621                0.10136409                0.00037194                0.00920199               -0.00456532
               7.98930979                1.01952928               34.03763701                1.00000000               -0.03266193               -0.03263759                0.10878930                0.00001615                0.00123264               -0.00047220
               8.98897197                1.02122486               34.03859121                0.99999999               -0.03489007               -0.03485776                0.11625558               -0.00004977                0.00119758                0.00062373
               9.98861199                1.02292055               34.03953539                1.00000000               -0.03599774               -0.03719238                0.12370582               -0.00008796                0.00060445                0.00685087
               0.00338848                2.00284442               34.02792911                0.01000001               -0.02445802               -0.02433609                0.07752122               -0.02088180                0.00190734                0.10159436
               1.00314390                2.00123563               34.02821326                0.01000000               -0.08781713               -0.07881150                0.08553625               -0.04143717                0.06220784                0.09350515
               2.00163213                1.99923970               34.02970337                0.01000001               -0.16481087               -0.08879619                0.10085822                0.03563169                0.08403020                0.09016235
               2.99984768                1.99934571               34.03068615                0.01000000               -0.21565552               -0.05026265                0.09131208                0.27489369                0.06985400                0.05867160
               3.99731902                2.00168120               34.03179779                0.01000000               -0.27837363               -0.03623505                0.09694563                0.54487206                0.07020246                0.02409878
               4.99428021                2.00651559               34.03311333                0.01000001               -0.27863595               -0.09776574                0.09942119                0.75092820                0.06275118                0.01697684
               5.99174630                2.01197207               34.03439553                0.01000000               -0.31690249               -0.30752152                0.10093032                0.80476820                0.05538372               -0.00954448
               6.98794216                2.01753033               34.03580343                0.01000000               -0.20602101               -0.17698963                0.10146261                0.48305468                0.01910002                0.00414656
               7.98762588                2.01920244               34.03674386                0.10581917               -0.03275504               -0.03613807                0.10913636                0.00413833               -0.00555518               -0.01977529
               8.98728705                2.02087600               34.03765887                0.99999996               -0.03495930               -0.03490060                0.11652437                0.00001564               -0.00395534               -0.00175424
               9.98692670                2.02254846               34.03863467                1.00000000               -0.03603573               -0.03722602                0.12373731               -0.00009362               -0.00113684                0.00687900
               0.00459271                3.00258857               34.02973698                0.01000005               -0.02679769               -0.01223000                0.08539197                0.00165142                0.01269124                0.19960392
               1.00432473                2.99991700               34.03001606                0.01000001               -0.03546029               -0.16619048                0.09207551                0.05850072                0.02153087                0.16850497
               2.00388350                2.99813589               34.03047960                0.01000000               -0.09052169               -0.16197445                0.09381703                0.26716162                0.04289257                0.08988332
               3.00251430                2.99837173               34.03115790                0.01000000               -0.17350950               -0.13854294                0.09806252                0.51066981                0.05384556                0.06136479
               4.00041331                3.00082557               34.03200740                0.01000196               -0.23117685               -0.12868246                0.10062549                0.73269118                0.05999168                0.04807381
               4.99789076                3.00492869               34.03301524                0.01000000               -0.27106911               -0.17384531                0.10385027                0.89747796                0.06017437                0.04428833
               5.99499193                3.00998171               34.03413135                0.01000001               -0.29174165               -0.22056928                0.10571446                0.91378131                0.04496241                0.05323711
               6.99205593                3.01429388               34.03508837                0.01000001               -0.44725225               -0.27024173                0.10333448                0.95212178               -0.00365176                0.05110730
               7.98604688                3.01880652               34.03546522                0.01000001               -0.32148344               -0.20388099                0.16967774                0.77237392               -0.01230199                0.05535609
               8.98562626                3.02052685               34.03668823                0.01000000               -0.03908459               -0.23989994                0.11687798                0.59239321                0.00866637                0.07289866
               9.98526519                3.02217603               34.03770755                0.59614544               -0.03610655               -0.51588623                0.12371257                0.68704203               -0.00179667                0.06160931
               0.00876466                4.00259982               34.03149000                0.01000001                0.00019328               -0.04961499                0.09088654                0.13766152               -0.00333124                0.20726153
               1.00876659                3.99791182               34.03140305                0.01000000               -0.01220105               -0.24448476                0.09517998                0.29514973                0.00365911                0.14468945
               2.00852063                3.99600021               34.03144554                0.01000000               -0.06975966               -0.23684741                0.09854183                0.53786150                0.02231282                0.09482097
               3.00737139                3.99657485               34.03176262                0.01000004               -0.15523729               -0.20222285                0.10200278                0.72573148                0.04714443                0.06391969
               4.00541589                3.99910756               34.03239283                0.01000000               -0.21488831               -0.19435497                0.10581577                0.88766862                0.06729138                0.05826290
               5.00307363                4.00303869               34.03329587                0.01000001               -0.23795755               -0.20673181                0.10902553                0.99031407                0.07782687                0.07015442
               6.00065674                4.00756068               34.03435296                0.01000001               -0.24569236               -0.24726181                0.11173691                1.04993395                0.07403625                0.09187014
               6.99815978                4.01212549               34.03539130                0.01000003               -0.19081733               -0.27566291                0.11782811                1.03539240                0.06064911                0.12415443
               7.99684039                4.01512482               34.03637941                0.01000000               -0.11971862               -0.37726831                0.11408278                1.11030165                0.04313695                0.17546494
               8.99576541                4.01607800               34.03725444                0.01000000                0.02643938               -0.45237760                0.12673273                0.80210586                0.02095009                0.16672077
               9.99736918                4.01223074               34.03790508                0.01000000                0.16037695               -0.71827032                0.13006037                0.60764734                0.01913064                0.11702468
               0.01672193                5.00159627               34.03337175                0.01000002                0.01054078               -0.31354686                0.09706418                0.40194786               -0.00930054                0.23740906
               1.01682734                4.99502730               34.03283969                0.01000000               -0.03721109               -0.26411112                0.10082741                0.63255934               -0.00276198                0.15698267
               2.01597771                4.99339895               34.03242281                0.01000001               -0.14528802               -0.22617436                0.10405536                0.75276741                0.01807237                0.07539369
               3.01392158                4.99432727               34.03239209                0.01000000               -0.21374319               -0.23880304                0.10701893                0.88244090                0.05451468                0.05253387
               4.01170284                4.99693847               34.03290343                0.01000001               -0.23388310               -0.22012678                0.11065691                0.97385319                0.09248138                0.05728792
               5.00924392                5.00079405               34.03383623                0.01000001               -0.23995211               -0.22119260                0.11447699                1.02409986                0.11636914                0.08286422
               6.00690380                5.00503647               34.03504792                0.01000003               -0.20221406               -0.24931832                0.11856258                0.99715899                0.12593596                0.12206895
               7.00519963                5.00878062               34.03637732                0.01000000               -0.13016981               -0.32320249                0.12211411                0.92925814                0.12070352                0.16932594
               8.00430041                5.01126115               34.03763988                0.01000001               -0.03185892               -0.38232732                0.12690906                0.77226046                0.09790026                0.20976722
               9.00456246                5.01147930               34.03859287                0.01000000                0.04061288               -0.41540037                0.13188256                0.52177816                0.05749519                0.22528666
              10.00511266                5.00781062               34.03901586                0.01000001                0.05502078               -0.30736987                0.13792618                0.25502205                0.03541696                0.19160093
               0.02994155                5.99632888               34.03574557                0.33865440               -0.03264531               -0.27821921                0.10455048                0.47645627               -0.00320548                0.14540754
               1.02961510                5.99262960               34.03464660                0.01000001               -0.28327709               -0.13613269                0.10851133                0.58216737               -0.02157438                0.09616638
               2.02427601                5.99147672               34.03317199                0.01000000               -0.40672084               -0.24120010                0.10880395                0.80887490               -0.00639115                0.04773818
               3.02148068                5.99179879               34.03292202                0.01000001               -0.29249196               -0.24353134                0.11189988                0.88167838                0.07843725                0.02671539
               4.01842617                5.99470502               34.03341867                0.01000001               -0.30115290               -0.22416922                0.11510018                1.01247238                0.13239320                0.04339908
               5.01545763                5.99861483               34.03452775                0.01000003               -0.29064135               -0.18182957                0.11977484                0.97331096                0.17131463                0.08380836
               6.01261335                6.00257431               34.03606702                0.01000000               -0.24686812               -0.20582617                0.12441112                0.84705542                0.19119746                0.13763287
               7.01052026                6.00566144               34.03782356                0.01000001               -0.15132119               -0.27317958                0.12957074                0.66363051                0.19006379                0.20114154
               8.00958692                6.00747827               34.03951335                0.01000000               -0.04343811               -0.34544305                0.13489386                0.47475728                0.16117531                0.26357183
               9.00965150                6.00776999               34.04075662                0.01000002                0.01100227               -0.33548898                0.14024977                0.25975752                0.09770754                0.30755780
              10.00980697                6.00608334               34.04114084                0.01000001                0.01554662               -0.11934350                0.14509614                0.12508964                0.05776575                0.30092910
               0.03364962                6.99603189               34.03626115                0.99999999               -0.03267701               -0.03067361                0.10676159               -0.00064170               -0.01019276                0.03520731
               1.03332285                6.99230465               34.03497557                0.99999999               -0.03317985               -0.03275338                0.11037670               -0.00064842               -0.01027209                0.01252641
               2.03298602                6.98857494               34.03368041                0.01000000               -0.24980018               -0.16222587                0.11405621                0.47997726                0.03051900                0.00892098
               3.02832685                6.98945664               34.03320569                0.01000001               -0.39248887               -0.36543264                0.11211263                0.93584843                0.10349586               -0.02270375
               4.02513624                6.99245509               34.03380513                0.01000095               -0.37430023               -0.15359084                0.12174373                0.98599519                0.18619430                0.01924195
               5.02084084                6.99715746               34.03523403                0.01000000               -0.41689705               -0.08976386                0.12389982                0.88194339                0.23715158                0.07574823
               6.01679830                7.00091995               34.03724561                0.01000001               -0.36362780               -0.09634019                0.12985628                0.62943661                0.26985814                0.13788111
               7.01356828                7.00331703               34.03967462                0.01000000               -0.25556524               -0.16189482                0.13620035                0.35382809                0.27974499                0.21700312
               8.01168700                7.00435229               34.04213839                0.01000002               -0.12078728               -0.25824084                0.14266822                0.10975367                0.24843815                0.33352538
               9.01115254                7.00476952               34.04406365                0.01000002               -0.03496184               -0.28714801                0.14857033               -0.00698050                0.15354712                0.42720987
              10.01098776                7.00542375               34.04462455                0.01000001               -0.01647771               -0.07416883                0.15306722               -0.03016663                0.08736890                0.47946246
               0.03738320                7.99571541               34.03641352                1.00000000               -0.03241243               -0.03159142                0.10592484                0.00000364               -0.00105607                0.02102620
               1.03705908                7.99197453               34.03509874                0.99999999               -0.03298202               -0.03294705                0.10987841                0.00013439               -0.00078827                0.00322464
               2.03672356                7.98823220               34.03378549                0.12506008               -0.03707850               -0.03429397                0.11393681                0.00018180                0.02341145               -0.01469619
               3.03631751                7.98449013               34.03295363                0.01000001               -0.31391489               -0.26640536                0.16272260                0.75998373                0.14760944               -0.09388073
               4.03044526                7.99163320               34.03398293                0.01000000               -0.58429366               -0.04396131                0.11869971                1.02482039                0.25434490                0.00748928
               5.02463163                7.99681956               34.03583590                0.01000001               -0.57013775                0.04697052                0.12785600                0.70077200                0.30325567                0.06049509
               6.01904251                8.00064751               34.03837443                0.01000000               -0.52335752                0.04103307                0.13425165                0.40413846                0.34982612                0.11811397
               7.01416448                8.00242354               34.04161257                0.01000002               -0.43565006               -0.00347372                0.14199154                0.07101669                0.40730294                0.19734630
               8.01032951                8.00231346               34.04566917                0.01000002               -0.28620262               -0.08987079                0.15063144               -0.24905462                0.39338003                0.33592536
               9.00844043                8.00202703               34.04888834                0.01000001               -0.12171709               -0.21610881                0.15784614               -0.43656502                0.26290401                0.71781948
              10.00789517                8.00459997               34.05041135                0.01000000               -0.05452657               -0.27714363                0.16281436               -0.31132671                0.17977948                0.69233789
               0.04113145                8.99540006               34.03663838                1.00000000               -0.03227007               -0.03153123                0.10554827                0.00000360                0.00249366                0.01981993
               1.04080874                8.99164571               34.03523724                0.99999998               -0.03286937               -0.03285265                0.10955062                0.00003060                0.00172157                0.00274453
               2.04047406                8.98788906               34.03382062                0.99999997               -0.03416130               -0.03420456                0.11380908               -0.00013862               -0.00408843               -0.01062747
               3.04012552                8.98412854               34.03230596                0.01000001               -0.35854148               -0.03577149                0.11837362                0.56313151                0.15513780               -0.05125653
               4.03330323                8.99157586               34.03408038                0.01000000               -0.71417729                0.14310417                0.12551979                0.73459497                0.31280749               -0.00248986
               5.02584197                8.99809687               34.03621713                0.01000000               -0.70130722                0.16224039                0.12972795                0.44753309                0.34395573                0.03763036
               6.01927708                9.00174061               34.03915088                0.01000002               -0.62596510                0.14083745                0.13737879                0.19159411                0.41181131                0.07203579
               7.01332267                9.00324755               34.04313455                0.01000002               -0.60873339                0.11922945                0.14622779               -0.04016605                0.51295997                0.12280191
               8.00710242                9.00255488               34.04852195                0.01000001               -0.65939703                0.11844445                0.15673072               -0.30503534                0.77943547                0.22891415
               9.00013473                9.00044734               34.05826672                0.99999998               -0.37435255               -0.10491743                0.17269013               -0.52051852                0.48798224                0.46748989
               9.99961537                8.99988088               34.05824496                1.00000000               -0.05193650               -0.26205733                0.17363470               -0.44227535               -0.00038579                0.38951841
               0.04489198                9.99508479               34.03676342                1.00000000               -0.03212952               -0.03152732                0.10517991               -0.00067709                0.01366092                0.01480077
               1.04457068                9.99131748               34.03535046                1.00000000               -0.03270107               -0.03282256                0.10919303               -0.00063975                0.01707141                0.00129442
               2.04423796                9.98754811               34.03400989                0.99999999               -0.03386731               -0.03409530                0.11318290               -0.00074883                0.01697077               -0.00323752
               3.04389334                9.98377470               34.03260199                0.30435710               -0.65345637               -0.03538333                0.11711488                0.72414074                0.15471919               -0.00450473
               4.03116883                9.99449529               34.03402647                0.01000003               -1.02378951                0.29194234                0.12336114                0.60104329                0.29013797                0.00183280
               5.02341755               10.00006436               34.03621923                0.01000000               -0.67225631                0.19674960                0.13057846                0.20600617                0.34438808                0.02653794
               6.01772371               10.00346426               34.03925168                0.01000001               -0.54353255                0.17236486                0.13832428                0.08185055                0.42914273                0.04535915
               7.01254690               10.00480813               34.04351114                0.01000000               -0.53473460                0.15605796                0.14787942               -0.01667301                0.58071555                0.07195628
               8.00702901               10.00468235               34.04991344                0.01000002               -0.59214203                0.21274704                0.15984386               -0.25131273                0.76849671                0.16399254
               9.00070406                9.99992869               34.05830224                1.00000000               -0.34232159               -0.05186557                0.17330553               -0.20924376                0.42084421                0.00031651
              10.00018258                9.99935882               34.05828047                1.00000000               -0.05214755               -0.05220615                0.17425295               -0.00026514                0.00035690               -0.00035661
              -0.00018602                0.00347476               35.02895045                1.00000000               -0.02420742               -0.02282990                0.07620583                0.00143821               -0.00335936                0.00390361
               0.99957191                0.00186871               35.02936997                1.00000000               -0.02550812               -0.02558131                0.08504312                0.00138232               -0.00361412               -0.00127722
               1.99930382                0.00026403               35.02978163                0.01000000               -0.03374851               -0.02833251                0.09388018                0.03595496                0.04164803               -0.00156301
               2.99889693               -0.00064756               35.03110844                0.01000001               -0.06024782                0.00483484                0.12142937                0.03004840                0.10024097                0.01977620
               3.99809886                0.00133697               35.03288828                0.01000000               -0.13083103                0.03519303                0.09244676                0.15160853                0.12334377               -0.00053797
               4.99628031                0.00663793               35.03484663                0.01000000               -0.37043493                0.06229311                0.09227618                0.39913100                0.14971192               -0.00992887
               5.99069016                0.01720151               35.03729417                0.13413517               -0.29386621               -0.02764756                0.09103322                0.44115579                0.09009517               -0.00108416
               6.99040299                0.01897603               35.03858787                0.99859940               -0.03003160               -0.03013185                0.10054122                0.00171042                0.01926926               -0.00471279
               7.99008953                0.02074192               35.03961449                1.00000000               -0.03249630               -0.03255144                0.10828211                0.00117764                0.00792221               -0.00051970
               8.98975306                0.02250798               35.04067797                1.00000000               -0.03479692               -0.03486670                0.11604293                0.00116695                0.00788624                0.00096339
               9.98939359                0.02427620               35.04170212                1.00000000               -0.03594724               -0.03726861                0.12379539                0.00113804                0.00591312                0.00543509
               0.00143441                1.00324646               35.02882291                1.00000000               -0.02433197               -0.02287059                0.07664979                0.00011153                0.00140988                0.00448148
               1.00119109                1.00161290               35.02923956                0.01000000               -0.02564537               -0.02572000                0.08548866                0.00005580                0.00349914               -0.00322350
               2.00092150                0.99998071               35.02969659                0.01000000               -0.12650701               -0.05072938                0.09432820               -0.01996427                0.06056497                0.05661243
               2.99866095                0.99940079               35.03125810                0.01000001               -0.24746504                0.00467551                0.10913087                0.11649374                0.09320558                0.02282144
               3.99597220                1.00168890               35.03278013                0.01000000               -0.31607969                0.02486992                0.09443486                0.32744554                0.09056948                0.00715376
               4.99233936                1.00726086               35.03442870                0.01000000               -0.35197676                0.01359249                0.09497819                0.62652789                0.10119305                0.00060506
               5.98893267                1.01692503               35.03649477                0.01000001               -0.18447337               -0.23047109                0.09152057                0.58179549                0.06198689               -0.01555965
               6.98864989                1.01867471               35.03770346                0.99651486               -0.02986669               -0.03018880                0.10091598                0.00046281                0.01008408               -0.00462035
               7.98833533                1.02041640               35.03872461                1.00000000               -0.03261486               -0.03260340                0.10867812               -0.00000409                0.00125079               -0.00045390
               8.98799759                1.02215931               35.03975477                0.99999999               -0.03492927               -0.03492833                0.11642759               -0.00002349                0.00119706                0.00065669
               9.98763675                1.02390352               35.04077461                1.00000000               -0.03608442               -0.03731310                0.12415279               -0.00008726                0.00059582                0.00676795
               0.00308334                2.00301735               35.02870219                0.01000000               -0.02445639               -0.02214451                0.07709359               -0.01699615                0.00190702                0.10512731
               1.00283877                2.00135431               35.02907061                0.01000000               -0.09833464               -0.08035188                0.08593433               -0.03978560                0.06898659                0.09679453
               2.00111664                1.99924945               35.03078054                0.01000001               -0.16600774               -0.09026818                0.11602323                0.04718004                0.16287934                0.12420185
               2.99951862                1.99944595               35.03152186                0.01000000               -0.21644710               -0.04698399                0.08793835                0.31062070                0.07755355                0.05186212
               3.99678770                2.00183437               35.03277157                0.01000000               -0.29719373               -0.03370453                0.09881361                0.57823220                0.07501054                0.02878025
               4.99357474                2.00690977               35.03410225                0.01000001               -0.29377427               -0.09910071                0.09923440                0.79096375                0.05847798                0.02074379
               5.99091222                2.01259209               35.03540374                0.01000000               -0.33269338               -0.31931878                0.10122536                0.84441997                0.04869992               -0.00390830
               6.98692087                2.01837225               35.03681757                0.01000000               -0.21536826               -0.18420019                0.10129467                0.50315628                0.01555676                0.00888510
               7.98660485                2.02008985               35.03783486                0.11095890               -0.03276960               -0.03311772                0.10909638                0.00068172               -0.00554797               -0.00087544
               8.98626548                2.02180941               35.03882595                0.99999998               -0.03507071               -0.03500159                0.11685482                0.00000217               -0.00396147               -0.00160684
               9.98590344                2.02352994               35.03987581                1.00000000               -0.03620466               -0.03743457                0.12448027               -0.00006230               -0.00117900                0.00670844
               0.00442056                3.00280357               35.03058405                0.01000005               -0.02572828               -0.00818638                0.08327189                0.00597537                0.01559024                0.20696913
               1.00416328                3.00000586               35.03094253                0.01000001               -0.03235476               -0.17044248                0.09090649                0.06685679                0.02343295                0.16832301
               2.00377347                2.99817535               35.03139293                0.01000000               -0.09374189               -0.16310856                0.09057590                0.29375220                0.03558372                0.09375918
               3.00228844                2.99846111               35.03214430                0.01000000               -0.18502238               -0.14183203                0.09972988                0.53358553                0.06167350                0.07905169
               4.00007302                3.00101481               35.03300701                0.01000001               -0.24437626               -0.12935151                0.10141422                0.76659088                0.05982275                0.05313949
               4.99740092                3.00527884               35.03405665                0.01000000               -0.28572162               -0.17884920                0.10484197                0.93967897                0.05631389                0.04963716
               5.99435859                3.01053866               35.03517808                0.01000001               -0.30928327               -0.22835127                0.10637556                0.95537519                0.03908619                0.05919579
               6.99121525                3.01499071               35.03620128                0.01000001               -0.47233872               -0.28110331                0.11214313                0.99936697                0.00053238                0.05871311
               7.98491181                3.01975405               35.03693611                0.01000001               -0.33288522               -0.20977656                0.13655740                0.80926660               -0.03195379                0.08002855
               8.98455755                3.02145928               35.03785920                0.01000000               -0.03586839               -0.25002403                0.11730934                0.61673166               -0.00991956                0.07893813
               9.98419444                3.02315482               35.03895045                0.62517072               -0.03631020               -0.53934554                0.12480054                0.71881488               -0.00172565                0.06451681
               0.00879826                4.00285362               35.03238996                0.01000000                0.00058676               -0.04798832                0.08865860                0.14508953               -0.00299765                0.21204057
               1.00880413                3.99794546               35.03234861                0.01000000               -0.01309118               -0.25145207                0.09398975                0.31106997                0.00193943                0.14893228
               2.00853644                3.99598728               35.03242741                0.01000000               -0.07266351               -0.24420038                0.09902704                0.56255759                0.02165147                0.10213053
               3.00735086                3.99660931               35.03277950                0.01000060               -0.16173291               -0.20930759                0.10260499                0.75874679                0.04570088                0.07000777
               4.00530178                3.99924734               35.03345453                0.01000000               -0.22531923               -0.20069143                0.10695935                0.92666088                0.06666971                0.06512957
               5.00284448                4.00333279               35.03438805                0.01000001               -0.24969648               -0.21348989                0.11013897                1.03434654                0.07481323                0.07604311
               6.00030785                4.00802506               35.03547654                0.01000001               -0.25758279               -0.25665508                0.11344608                1.09608759                0.07025270                0.09985079
               6.99769282                4.01275019               35.03657261                0.01000003               -0.19931200               -0.28598296                0.11881284                1.08670269                0.05481104                0.13398607
               7.99632161                4.01589432               35.03759778                0.01000000               -0.12467398               -0.39744762                0.12298598                1.16437751                0.04215086                0.17540794
               8.99519934                4.01680893               35.03854331                0.01000000                0.02835150               -0.47336670                0.12882821                0.83588391                0.02079819                0.17642481
               9.99688864                4.01274303               35.03921308                0.01000000                0.16893012               -0.75232790                0.13208901                0.63477111                0.01608648                0.12369000
               0.01713867                5.00184380               35.03433266                0.01000000                0.01123515               -0.32568984                0.09492188                0.42281704               -0.01021618                0.24438659
               1.01725102                4.99497682               35.03384172                0.01000000               -0.03889495               -0.27102834                0.09960637                0.66548251               -0.00354040                0.16352950
               2.01636077                4.99329134               35.03346209                0.01000001               -0.15238549               -0.23319082                0.10378478                0.79056961                0.01655092                0.08079751
               3.01420331                4.99427495               35.03346371                0.01000000               -0.22390097               -0.24755680                0.10782049                0.92403641                0.05327266                0.05853632
               4.01188275                4.99700098               35.03401420                0.01000001               -0.24465931               -0.22821367                0.11174983                1.01801458                0.09112251                0.06245344
               5.00931013                5.00100904               35.03498610                0.01000001               -0.25099060               -0.22889632                0.11580179                1.06931542                0.11480875                0.08899753
               6.00686294                5.00540555               35.03623909                0.01000003               -0.21150401               -0.25851023                0.11995982                1.04045645                0.12352351                0.12946652
               7.00508005                5.00927105               35.03760626                0.01000000               -0.13611598               -0.33609797                0.12404114                0.96903032                0.11792120                0.17760840
               8.00414062                5.01180510               35.03890408                0.01000001               -0.03267657               -0.40132723                0.12832995                0.80541838                0.09677866                0.21959155
               9.00442651                5.01199194               35.03992052                0.01000000                0.04405242               -0.43495465                0.13405170                0.54478819                0.05872730                0.23287130
              10.00502167                5.00810827               35.04040443                0.01000000                0.05951546               -0.32288991                0.13992257                0.26612933                0.03668061                0.19891907
               0.03098858                5.99633982               35.03678062                0.30885603               -0.03223285               -0.28958953                0.10242506                0.50223178               -0.00321835                0.15032248
               1.03066625                5.99252489               35.03572352                0.01000001               -0.29694397               -0.13854846                0.10682999                0.61116302               -0.02320700                0.10096135
               2.02504970                5.99132346               35.03425828                0.01000000               -0.42721513               -0.24660494                0.10853392                0.84645272               -0.00820245                0.05270445
               3.02212194                5.99165817               35.03405125                0.01000001               -0.30608564               -0.25680728                0.11232614                0.92141622                0.07726852                0.02866770
               4.01892798                5.99468307               35.03457480                0.01000001               -0.31478657               -0.23230449                0.11664271                1.05971506                0.13160491                0.04917403
               5.01582621                5.99875486               35.03573154                0.01000003               -0.30365038               -0.18738300                0.12096787                1.01708779                0.17100323                0.08916406
               6.01285498                6.00285486               35.03731785                0.01000000               -0.25761640               -0.21291572                0.12597423                0.88346277                0.19105190                0.14406770
               7.01067389                6.00602823               35.03912512                0.01000001               -0.15729454               -0.28383272                0.13109689                0.69168232                0.19024678                0.20909906
               8.00970909                6.00786777               35.04087015                0.01000000               -0.04409745               -0.35974536                0.13648827                0.49495384                0.16167366                0.27278212
               9.00979194                6.00810984               35.04216600                0.01000008                0.01347506               -0.35091214                0.14188527                0.27086298                0.09811001                0.31593259
              10.00997859                6.00628523               35.04259966                0.01000001                0.01866500               -0.12657228                0.14698009                0.13054898                0.05816351                0.30779385
               0.03481316                6.99605201               35.03732091                0.99999999               -0.03225184               -0.03002817                0.10510479               -0.00067708               -0.01054222                0.03624362
               1.03449065                6.99220585               35.03607414                0.99999999               -0.03283079               -0.03232845                0.10921198               -0.00069598               -0.01055440                0.01356003
               2.03415655                6.98835924               35.03481791                0.01000000               -0.26093084               -0.16530758                0.11340839                0.49468445                0.02674564                0.01171185
               3.02927203                6.98913881               35.03431068                0.01000001               -0.40880945               -0.39044153                0.11856999                0.98299747                0.10400234                0.00318272
               4.02598036                6.99235489               35.03502678                0.01000003               -0.38959683               -0.15452279                0.11944250                1.04009231                0.18796766                0.02098951
               5.02148009                6.99726138               35.03647998                0.01000000               -0.43607646               -0.09104650                0.12583375                0.92112201                0.23747516                0.08036179
               6.01725883                7.00114724               35.03855257                0.01000001               -0.37896594               -0.09880841                0.13155375                0.65584779                0.27191793                0.14335340
               7.01390077                7.00359440               35.04104442                0.01000000               -0.26503703               -0.16800265                0.13789325                0.36823455                0.28204547                0.22378266
               8.01195809                7.00461019               35.04357213                0.01000002               -0.12372279               -0.26934611                0.14425457                0.11410626                0.25065397                0.34158580
               9.01142632                7.00497370               35.04555652                0.01000002               -0.03381140               -0.30042147                0.15011282               -0.00698370                0.15489722                0.43565457
              10.01128186                7.00557682               35.04616254                0.01000001               -0.01444560               -0.07893990                0.15470186               -0.03075404                0.08803454                0.48702143
               0.03866736                7.99573926               35.03746845                1.00000000               -0.03222611               -0.03132224                0.10501309                0.00011629               -0.00111912                0.02083720
               1.03834510                7.99187832               35.03619536                0.99999999               -0.03284684               -0.03280201                0.10943959                0.00009738               -0.00073590                0.00323882
               2.03801043                7.98801731               35.03492604                0.23279279               -0.02794306               -0.03427412                0.11383577               -0.01533792                0.04796935               -0.01426955
               3.03778624                7.98384934               35.03462626                0.01000001               -0.32015856               -0.26711031                0.10208749                0.79156313                0.13999472               -0.07406565
               4.03160725                7.99159261               35.03514493                0.01000000               -0.61649668               -0.04045807                0.12484775                1.07858655                0.23550100                0.00828974
               5.02545631                7.99693393               35.03712961                0.01000001               -0.59841665                0.05142818                0.12925141                0.72727782                0.30925643                0.06417510
               6.01963892                8.00087869               35.03972505                0.01000000               -0.54403396                0.04385799                0.13626710                0.41999248                0.35323591                0.12227948
               7.01457563                8.00266818               35.04304145                0.01000002               -0.45135087               -0.00338355                0.14379634                0.07285319                0.41228891                0.20265869
               8.01061190                8.00248085               35.04718269                0.01000002               -0.29449975               -0.09447901                0.15213856               -0.26014890                0.39830950                0.34299311
               9.00868563                8.00210141               35.05047253                0.01000001               -0.12273176               -0.22805547                0.15905073               -0.45262475                0.26626607                0.72922983
              10.00815727                8.00470643               35.05204454                0.01000000               -0.05283636               -0.28692501                0.16389680               -0.32216842                0.18208360                0.70098559
               0.04253736                8.99542557               35.03769279                1.00000000               -0.03228143               -0.03146853                0.10534766                0.00011533                0.00246460                0.01985851
               1.04221455                8.99154981               35.03633394                0.99999998               -0.03292926               -0.03293238                0.10981716                0.00003135                0.00184420                0.00288070
               2.04187878                8.98767376               35.03496316                0.99999996               -0.03432785               -0.03436168                0.11445428               -0.00013861               -0.00356786               -0.01040473
               3.04152799                8.98379660               35.03349880                0.01000000               -0.37056389               -0.02048747                0.11940159                0.57481291                0.15645309               -0.07509402
               4.03446750                8.99154573               35.03533097                0.01000000               -0.73942081                0.14930701                0.12400333                0.75653832                0.31661258                0.00387126
               5.02673957                8.99828995               35.03752345                0.01000000               -0.72715293                0.17001679                0.13189787                0.46300994                0.34773436                0.03935117
               6.01992444                9.00202440               35.04053513                0.01000001               -0.64919495                0.14703059                0.13950089                0.19790095                0.41721981                0.07448924
               7.01375567                9.00352672               35.04460618                0.01000002               -0.63012787                0.12410250                0.14817419               -0.04324901                0.51999467                0.12579043
               8.00732188                9.00272061               35.05009603                0.01000001               -0.68037152                0.12234835                0.15813760               -0.32071459                0.79042734                0.23326600
               9.00014824                9.00041259               35.05999470                0.99999998               -0.38467183               -0.11039978                0.17290053               -0.54217799                0.49523573                0.47445626
               9.99962844                8.99983832               35.05998148                0.99999999               -0.05197986               -0.26948934                0.17366241               -0.45512486               -0.00039842                0.39442453
               0.04642119                9.99510989               35.03781738                1.00000000               -0.03236483               -0.03156792                0.10569613               -0.00063844                0.01362731                0.01481935
               1.04609754                9.99121968               35.03644707                1.00000000               -0.03301642               -0.03301317                0.11017866               -0.00069138                0.01694502                0.00142092
               2.04576086                9.98733007               35.03514843                0.99999998               -0.03435081               -0.03436829                0.11466693               -0.00079585                0.01667080               -0.00328784
               3.04541052                9.98343959               35.03378138                0.34041157               -0.67580921               -0.03570116                0.11910163                0.75068729                0.15542281               -0.00509073
               4.03224468                9.99457875               35.03526974                0.01000000               -1.05863432                0.30330191                0.12579869                0.62245179                0.29304398                0.00228148
               5.02423784               10.00033427               35.03753544                0.01000000               -0.69422556                0.20443222                0.13278380                0.21185384                0.34933357                0.02825236
               6.01836016               10.00381930               35.04064682                0.01000001               -0.56116995                0.17948989                0.14089735                0.08437038                0.43533454                0.04643241
               7.01301444               10.00515023               35.04500031                0.01000000               -0.55242101                0.16235022                0.15005027               -0.01869758                0.58915382                0.07340427
               8.00731174               10.00492782               35.05151833                0.01000002               -0.61450378                0.22072093                0.16119727               -0.26385442                0.77923763                0.16643024
               9.00072436                9.99989341               35.06003513                0.99999999               -0.35542138               -0.05191804                0.17328257               -0.22294676                0.42683264                0.00032914
              10.00020332                9.99931665               35.06002193                1.00000000               -0.05210458               -0.05216745                0.17404416               -0.00018945                0.00037153               -0.00036621
              -0.00068333                0.00363911               36.02970815                1.00000000               -0.02406928               -0.02259377                0.07533717                0.00159966               -0.00336174                0.00390258
               0.99907598                0.00198412               36.03022015                1.00000000               -0.02549043               -0.02560027                0.08499435                0.00151193               -0.00361633               -0.00127728
               1.99880686                0.00033121               36.03072429                0.01000000               -0.03718287               -0.02860540                0.09465259                0.03295890                0.04509939               -0.00155777
               2.99833232               -0.00069037               36.03221263                0.01000001               -0.06426903                0.01103678                0.10830507                0.04499181                0.09829516                0.01000124
               3.99752148                0.00141869               36.03385415                0.01000000               -0.13868865                0.03913667                0.09525026                0.16238624                0.11844086               -0.00335395
               4.99555855                0.00694724               36.03574916                0.01000000               -0.39196332                0.06932446                0.09164373                0.41982075                0.14415005               -0.00765982
               5.98968222                0.01798764               36.03820062                0.12455817               -0.30808156               -0.02762635                0.09040755                0.46260433                0.08729965               -0.00110650
               6.98939692                0.01981121               36.03958995                0.99793806               -0.02985592               -0.02996384                0.09986358                0.00185829                0.02011828               -0.00473643
               7.98908510                0.02162456               36.04069551                1.00000000               -0.03237530               -0.03247187                0.10791158                0.00122139                0.00794108               -0.00052396
               8.98874941                0.02343882               36.04183801                1.00000000               -0.03476578               -0.03488132                0.11597211                0.00122385                0.00789560                0.00096437
               9.98838978                0.02525604               36.04294116                1.00000000               -0.03596294               -0.03738153                0.12403000                0.00116531                0.00590769                0.00541187
               0.00098766                1.00341318               36.02958616                1.00000000               -0.02426121               -0.02266458                0.07600170                0.00015007                0.00141104                0.00448030
               1.00074505                1.00172812               36.03009532                0.04571620               -0.02569826               -0.02577845                0.08566012                0.00006413                0.00350086               -0.00322269
               2.00047370                1.00004515               36.03064486                0.01000000               -0.12532753               -0.01519086                0.09532185                0.06617434                0.06161799                0.07108788
               2.99823850                0.99942000               36.03231987                0.01000001               -0.25735779                0.00935610                0.10326325                0.14201481                0.10272912                0.01367515
               3.99532654                1.00181006               36.03374076                0.01000000               -0.33831096                0.03056184                0.09601995                0.34689205                0.08774452                0.00877926
               4.99147228                1.00764048               36.03536937                0.01000000               -0.37251338                0.01776443                0.09536412                0.65801842                0.09471005                0.00520568
               5.98787627                1.01771138               36.03740738                0.01000001               -0.19376196               -0.23885274                0.09113509                0.60969277                0.05738600               -0.01078975
               6.98759704                1.01951157               36.03871041                0.99556934               -0.02963852               -0.03004958                0.10045567                0.00068587                0.01085444               -0.00463884
               7.98728350                1.02129984               36.03981057                1.00000000               -0.03255659               -0.03255602                0.10850818               -0.00000600                0.00126357               -0.00043511
               8.98694591                1.02309001               36.04091976                0.99999999               -0.03496421               -0.03496936                0.11656693               -0.00000785                0.00120122                0.00067285
               9.98658422                1.02488222               36.04201845                1.00000000               -0.03616902               -0.03746224                0.12461607               -0.00009755                0.00058964                0.00672435
               0.00268979                2.00318582               36.02947098                0.01000001               -0.02445095               -0.01864933                0.07666695               -0.01173285                0.00191324                0.10732731
               1.00244528                2.00146855               36.02993194                0.01000000               -0.01256609               -0.08613326                0.08632614                0.00405150                0.08346221                0.09803468
               2.00243847                2.00002739               36.03202384                0.01000001               -0.15187823               -0.08404751                0.07609625                0.04739571                0.15624800                0.11230331
               2.99940772                1.99949675               36.03244492                0.01000000               -0.30998148               -0.03624412                0.10486836                0.29488572                0.06205754                0.05011762
               3.99623884                2.00202993               36.03377407                0.01000000               -0.32950606               -0.03023269                0.10108533                0.60883231                0.07413079                0.03356128
               4.99281760                2.00730252               36.03509802                0.01000001               -0.31169282               -0.10024256                0.10089073                0.82771736                0.05307836                0.02671803
               5.99000498                2.01321058               36.03642004                0.01000000               -0.34977121               -0.33092743                0.10218156                0.88302186                0.04215466                0.00423830
               6.98582217                2.01921021               36.03782933                0.01000000               -0.22492236               -0.18992379                0.10104295                0.52371788                0.01139877                0.01454727
               7.98550654                2.02097344               36.03892579                0.12375501               -0.03276509               -0.03278368                0.10910096               -0.00021977               -0.00552015                0.00735727
               8.98516687                2.02273943               36.03999596                0.99999996               -0.03515664               -0.03508768                0.11715826                0.00004840               -0.00396416               -0.00156182
               9.98480340                2.02450679               36.04112428                1.00000000               -0.03634667               -0.03765651                0.12519280               -0.00006669               -0.00120020                0.00663934
               0.00418755                3.00304019               36.03140242                0.01000002               -0.02030384               -0.00469019                0.08058010                0.00140653                0.01508338                0.21222913
               1.00398451                3.00000545               36.03183419                0.01000001               -0.03970690               -0.17386332                0.08676792                0.08233290                0.01982449                0.17121253
               2.00339341                2.99836420               36.03229112                0.01000000               -0.09254149               -0.20268675                0.09813607                0.23869824                0.03418421                0.08183467
               3.00213368                2.99869511               36.03315250                0.01000000               -0.18479980               -0.14205796                0.10003986                0.53458855                0.06014588                0.08332840
               3.99969742                3.00120540               36.03403569                0.01000003               -0.26438559               -0.13134843                0.10507448                0.79212053                0.05497571                0.05701655
               4.99684597                3.00563563               36.03511208                0.01000000               -0.30341971               -0.18362165                0.10678828                0.98088588                0.05145895                0.05534812
               5.99362902                3.01109283               36.03625886                0.01000001               -0.32687108               -0.23569473                0.10887277                0.99748521                0.03440566                0.06543033
               6.99030855                3.01571309               36.03733123                0.01000001               -0.49395664               -0.29049944                0.11338956                1.04319607                0.00351201                0.06863106
               7.98374989                3.02064416               36.03819637                0.01000001               -0.34475129               -0.21542141                0.11342354                0.84406694               -0.03387051                0.08417140
               8.98341352                3.02238825               36.03903442                0.01000000               -0.03508592               -0.25971314                0.11775349                0.64420635               -0.01807732                0.08434983
               9.98304817                3.02412909               36.04020356                0.65558889               -0.03653520               -0.56281184                0.12577343                0.75148160               -0.00174255                0.06826004
               0.00878740                4.00309202               36.03326317                0.01000000               -0.00194736               -0.04734224                0.08590136                0.15552412               -0.00336476                0.21800306
               1.00876793                3.99799128               36.03328284                0.01000000               -0.01323132               -0.25412344                0.09303449                0.32621163                0.00171129                0.15312966
               2.00852277                3.99597366               36.03342609                0.01000000               -0.07548163               -0.25900902                0.09921042                0.59788170                0.02013814                0.10789311
               3.00725829                3.99665559               36.03381472                0.01000179               -0.16910176               -0.22344331                0.10500528                0.78652676                0.04304508                0.07297951
               4.00514074                3.99940296               36.03453202                0.01000000               -0.23552018               -0.20690654                0.10864057                0.96399908                0.06335101                0.06932136
               5.00254789                4.00363009               36.03549865                0.01000001               -0.26317559               -0.22025598                0.11214750                1.07814849                0.07081425                0.08143273
               5.99987723                4.00849669               36.03662188                0.01000001               -0.27065660               -0.26541674                0.11552239                1.14476123                0.06666197                0.10642789
               6.99713476                4.01340023               36.03776755                0.01000002               -0.20822563               -0.29664043                0.11943076                1.13764190                0.05164983                0.14093408
               7.99571271                4.01666501               36.03883913                0.01000000               -0.12843431               -0.41317770                0.12465730                1.21583893                0.03879021                0.17636851
               8.99456607                4.01754517               36.03983101                0.01000000                0.03193249               -0.49371104                0.12844464                0.87043357                0.01833396                0.18515194
               9.99635136                4.01325056               36.04054686                0.01000000                0.17852918               -0.78633336                0.13421087                0.66205252                0.01411531                0.13077252
               0.01749950                5.00209334               36.03527019                0.01000000                0.01276047               -0.33724641                0.09254481                0.44316317               -0.01049063                0.25115191
               1.01762710                4.99492298               36.03483182                0.01000000               -0.04063812               -0.27874372                0.09832236                0.69980265               -0.00398105                0.16906457
               2.01668674                4.99318402               36.03449850                0.01000001               -0.15960941               -0.23993323                0.10373204                0.82823625                0.01571285                0.08435325
               3.01443492                4.99422625               36.03454850                0.01000000               -0.23419199               -0.25652139                0.10859592                0.96672443                0.05179820                0.06217028
               4.01200290                4.99706727               36.03513843                0.01000001               -0.25598551               -0.23635153                0.11317951                1.06207543                0.08894718                0.06723637
               5.00931521                5.00123051               36.03615226                0.01000001               -0.26243933               -0.23629283                0.11738615                1.11519902                0.11232652                0.09432539
               6.00675411                5.00578449               36.03744711                0.01000003               -0.22110694               -0.26772510                0.12165815                1.08566766                0.12093709                0.13606605
               7.00489307                5.00978028               36.03885814                0.01000000               -0.14161953               -0.34974812                0.12619188                1.01171267                0.11584826                0.18477062
               8.00392172                5.01238061               36.04020648                0.01000001               -0.03282110               -0.41995708                0.13108339                0.84002774                0.09554132                0.22744333
               9.00423665                5.01251403               36.04127391                0.01000000                0.04783659               -0.45462626                0.13624418                0.56699691                0.05811746                0.24000991
              10.00487845                5.00840242               36.04181431                0.01000001                0.06418068               -0.33847238                0.14201071                0.27641656                0.03652732                0.20552013
               0.03199139                5.99634709               36.03779407                0.27995033               -0.03180879               -0.30122091                0.10018702                0.52857275               -0.00324710                0.15480590
               1.03167330                5.99241641               36.03678320                0.01000001               -0.31035771               -0.14094859                0.10502939                0.64077796               -0.02426535                0.10497356
               2.02578423                5.99117499               36.03534267                0.01000000               -0.44818816               -0.25213020                0.10792338                0.88532025               -0.00972189                0.05729336
               3.02270953                5.99152516               36.03516855                0.01000001               -0.32031235               -0.26404766                0.11272125                0.96320188                0.07666106                0.03846092
               4.01937798                5.99467593               36.03575152                0.01000001               -0.32874435               -0.23812576                0.11748486                1.10512344                0.13042758                0.05256930
               5.01613465                5.99890423               36.03694711                0.01000003               -0.31685902               -0.19319437                0.12226093                1.06078043                0.16950081                0.09479577
               6.01304080                6.00314219               36.03858651                0.01000000               -0.26808778               -0.22023382                0.12769224                0.92095696                0.19037254                0.15028748
               7.01077289                6.00640526               36.04044550                0.01000001               -0.16306440               -0.29519647                0.13301712                0.72101224                0.18980268                0.21652553
               8.00977952                6.00826587               36.04224312                0.01000000               -0.04443489               -0.37545673                0.13838910                0.51568209                0.16167031                0.28078808
               9.00988419                6.00845265               36.04359433                0.01000001                0.01616980               -0.36689773                0.14384726                0.28193311                0.09832748                0.32370575
              10.01010291                6.00648111               36.04408045                0.01000002                0.02187179               -0.13415593                0.14923838                0.13574390                0.05830949                0.31418005
               0.03593232                6.99606893               36.03836325                0.99999999               -0.03175541               -0.02934104                0.10324182               -0.00071025               -0.01085248                0.03710318
               1.03561476                6.99210401               36.03715981                0.99999999               -0.03239636               -0.03184497                0.10784222               -0.00070167               -0.01070599                0.01449272
               2.03528439                6.98814142               36.03594858                0.01000000               -0.27083707               -0.16867198                0.11257216                0.51545511                0.03126326                0.01370412
               3.03019802                6.98894529               36.03557709                0.01000001               -0.42790461               -0.38522322                0.11760388                1.01761591                0.10071551               -0.02328971
               4.02672630                6.99230476               36.03619398                0.01000001               -0.40667334               -0.15905611                0.11801042                1.08476349                0.18094329                0.03114575
               5.02206455                6.99736662               36.03775071                0.01000000               -0.45270373               -0.09223232                0.12716549                0.95885272                0.23905339                0.08467337
               6.01767222                7.00137982               36.03987668                0.01000001               -0.39374599               -0.10158233                0.13333110                0.68321592                0.27269886                0.14889042
               7.01418963                7.00387635               36.04243249                0.01000000               -0.27421214               -0.17451509                0.13973310                0.38356958                0.28378800                0.23044320
               8.01218798                7.00487148               36.04502348                0.01000002               -0.12647838               -0.28082259                0.14604519                0.11924129                0.25240017                0.34964044
               9.01166007                7.00517608               36.04706591                0.01000002               -0.03257860               -0.31395965                0.15183912               -0.00662312                0.15594293                0.44384570
              10.01153641                7.00571931               36.04771859                0.01000001               -0.01236592               -0.08401823                0.15660416               -0.03118195                0.08853785                0.49403742
               0.03990701                7.99576027               36.03851378                1.00000000               -0.03202415               -0.03103128                0.10400878                0.00023087               -0.00110020                0.02065607
               1.03958677                7.99177951               36.03728753                0.99999999               -0.03274810               -0.03262021                0.10890997                0.00008895               -0.00080801                0.00327227
               2.03925205                7.98780155               36.03606220                0.24765203               -0.03441263               -0.03414207                0.11358529               -0.00026822                0.00724632               -0.01403300
               3.03889852                7.98382070               36.03499538                0.01000001               -0.33000611               -0.27368794                0.06828343                0.81910028                0.13655197               -0.06304231
               4.03265193                7.99149480               36.03647989                0.01000000               -0.63309380               -0.03881426                0.12587775                1.10617106                0.26759560                0.01126144
               5.02623664                7.99705959               36.03842093                0.01000001               -0.62282685                0.05557182                0.13082115                0.75718444                0.30583285                0.06726451
               6.02019539                8.00111054               36.04109977                0.01000000               -0.56420089                0.04644045                0.13820730                0.43609528                0.35662653                0.12632434
               7.01495262                8.00291496               36.04448850                0.01000002               -0.46653872               -0.00359257                0.14569110                0.07554490                0.41637994                0.20793027
               8.01086462                8.00264941               36.04871194                0.01000002               -0.30243610               -0.09934603                0.15374316               -0.27035210                0.40271356                0.34997368
               9.00890390                8.00217345               36.05206936                0.01000000               -0.12358980               -0.24011071                0.16036575               -0.46773686                0.26926405                0.74007725
              10.00839282                8.00480074               36.05368929                0.01000000               -0.05110816               -0.29636625                0.16511010               -0.33239933                0.18413363                0.70879650
               0.04389845                8.99544830               36.03874534                1.00000000               -0.03231938               -0.03141374                0.10516743                0.00023751                0.00248792                0.01990208
               1.04357526                8.99145161               36.03743358                0.99999998               -0.03303081               -0.03299398                0.11009023                0.00010214                0.00186321                0.00296074
               2.04323783                8.98745858               36.03610971                0.99999996               -0.03442414               -0.03448674                0.11499677                0.00024744               -0.00348902               -0.01006128
               3.04288677                8.98347154               36.03469399                0.01000000               -0.38135028               -0.03564784                0.12001703                0.60259286                0.15584795               -0.03396209
               4.03561083                8.99152847               36.03656045                0.01000000               -0.76471346                0.15842827                0.12371457                0.78151181                0.31804539               -0.00002286
               5.02759250                8.99847806               36.03885508                0.01000000               -0.75360375                0.17729210                0.13392405                0.47853295                0.35155420                0.04091776
               6.02053875                9.00230862               36.04194090                0.01000000               -0.67154235                0.15294912                0.14166947                0.20482935                0.42149870                0.07655760
               7.01416166                9.00380450               36.04609803                0.01000002               -0.65081548                0.12865021                0.15019262               -0.04591140                0.52623254                0.12876695
               8.00752244                9.00288456               36.05168470                0.01000004               -0.70038291                0.12584744                0.15961617               -0.33581547                0.80039938                0.23756164
               9.00015400                9.00037387               36.06172473                0.99999998               -0.39443024               -0.11595223                0.17310891               -0.56296829                0.50196292                0.48097676
               9.99963384                8.99979198               36.06171821                0.99999999               -0.05201602               -0.27650729                0.17368062               -0.46700854               -0.00040192                0.39888629
               0.04790515                9.99513199               36.03887734                1.00000000               -0.03266151               -0.03163064                0.10633518               -0.00056646                0.01361963                0.01485502
               1.04757853                9.99111963               36.03755403                1.00000000               -0.03340402               -0.03319763                0.11126674               -0.00068104                0.01694815                0.00148291
               2.04723707                9.98711182               36.03630322                0.99999998               -0.03490256               -0.03467613                0.11628812               -0.00067090                0.01669242               -0.00308327
               3.04688048                9.98310774               36.03498402                0.36747041               -0.69807138               -0.03637933                0.12131325                0.77694852                0.15655529               -0.00492024
               4.03327564                9.99466337               36.03654244                0.01000000               -1.09266687                0.31348991                0.12838792                0.64136564                0.29557543                0.00544652
               5.02502715               10.00060543               36.03887491                0.01000000               -0.71550542                0.21273717                0.13525676                0.21877181                0.35273838                0.02813352
               6.01896553               10.00416952               36.04206963                0.01000001               -0.57843403                0.18608987                0.14359689                0.08680474                0.44036871                0.04736362
               7.01345847               10.00548797               36.04651214                0.01000000               -0.56932948                0.16834631                0.15232797               -0.02047727                0.59632041                0.07476008
               8.00757894               10.00516636               36.05313738                0.01000002               -0.63606777                0.22818082                0.16263422               -0.27602789                0.78863050                0.16871303
               9.00073711                9.99985441               36.06176789                0.99999999               -0.36812629               -0.05194565                0.17326795               -0.23647725                0.43218566                0.00033503
              10.00021642                9.99927060               36.06176135                1.00000000               -0.05206922               -0.05213831                0.17383824               -0.00012326                0.00037032               -0.00037110
              -0.00127725                0.00379680               37.03045719                1.00000000               -0.02393027               -0.02235677                0.07447906                0.00175995               -0.00337015                0.00390777
               0.99848345                0.00209284               37.03106985                0.99999999               -0.02547096               -0.02561861                0.08494691                0.00164121               -0.00362336               -0.00128087
               1.99821333                0.00039172               37.03167468                0.01000000               -0.03752377               -0.02888054                0.09541660                0.03385363                0.04564405               -0.00155218
               2.99773297               -0.00066204               37.03327454                0.01000001               -0.06410911                0.01040290                0.10632664                0.04391491                0.11434703                0.00570457
               3.99693115                0.00149668               37.03479328                0.01000000               -0.14580597                0.04478906                0.09529020                0.16996125                0.11444571               -0.00535361
               4.99481685                0.00724430               37.03667950                0.01000000               -0.41678937                0.07718075                0.09613977                0.43846706                0.13610075               -0.00490027
               5.98859536                0.01876585               37.03910232                0.11532844               -0.32531955               -0.02760403                0.08982738                0.48420207                0.08248588               -0.00120893
               6.98831046                0.02064037               37.04058514                0.99727134               -0.02975332               -0.02978133                0.09915230                0.00210529                0.02069709               -0.00474554
               7.98800029                0.02250131               37.04177272                1.00000000               -0.03225667               -0.03238924                0.10752151                0.00126570                0.00796145               -0.00052012
               8.98766533                0.02436376               37.04299741                1.00000000               -0.03474267               -0.03489477                0.11591339                0.00126900                0.00791412                0.00096599
               9.98730544                0.02622986               37.04418272                1.00000000               -0.03598867               -0.03749841                0.12429190                0.00118378                0.00591364                0.00540788
               0.00044432                1.00357324               37.03034294                1.00000000               -0.02419151               -0.02245847                0.07535312                0.00018810                0.00141018                0.00448267
               1.00020240                1.00183665               37.03095276                0.06174255               -0.02575061               -0.02583555                0.08582410                0.00006975                0.00350622               -0.00322965
               1.99992930                1.00010292               37.03160302                0.01000000               -0.12913803               -0.02712325                0.09631905                0.05603184                0.05885039                0.03673005
               2.99761964                0.99944199               37.03332336                0.01000001               -0.26258540                0.01388566                0.09539159                0.15591121                0.12287277                0.02245828
               3.99467760                1.00194457               37.03470053                0.01000000               -0.35263512                0.03569920                0.09912882                0.36300886                0.08489909                0.01409463
               4.99056694                1.00801610               37.03633598                0.01000000               -0.39691257                0.02285667                0.09885317                0.68593624                0.08495281                0.00919080
               5.98673934                1.01848981               37.03831747                0.01000001               -0.20515770               -0.24702440                0.09079213                0.63775487                0.05094325               -0.00537893
               6.98646378                1.02034256               37.03971258                0.99460662               -0.02940424               -0.02989935                0.09996626                0.00101242                0.01135873               -0.00463346
               7.98615126                1.02217742               37.04089478                1.00000000               -0.03250201               -0.03250579                0.10833108               -0.00001173                0.00127176               -0.00043030
               8.98581374                1.02401481               37.04208611                0.99999999               -0.03500443               -0.03501190                0.11670841               -0.00000806                0.00120640                0.00066715
               9.98545117                1.02585488               37.04326693                1.00000000               -0.03625725               -0.03761257                0.12508230               -0.00012476                0.00058938                0.00671807
               0.00219968                2.00334763               37.03023553                0.01000000               -0.02445188               -0.01586347                0.07624323               -0.00643274                0.00191282                0.10838200
               1.00195516                2.00157613               37.03079713                0.01000000               -0.02355281               -0.08787215                0.08669739               -0.00148579                0.04911854                0.09656951
               2.00172863                1.99984926               37.03230246                0.01000001               -0.14728122               -0.08465623                0.05303811                0.06245469                0.07559504                0.08028852
               2.99900954                1.99961568               37.03361922                0.01000000               -0.30557048               -0.03420615                0.10686565                0.32442821                0.06429858                0.04859092
               3.99561722                2.00221067               37.03479328                0.01000000               -0.35096007               -0.02736923                0.10432164                0.63105540                0.05656026                0.03984818
               4.99199034                2.00770143               37.03612006                0.01000001               -0.32966060               -0.10154650                0.10328217                0.86273396                0.04502812                0.03186975
               5.98902400                2.01382537               37.03744737                0.01000000               -0.36736183               -0.34221962                0.10325334                0.92145789                0.03335273                0.01285752
               6.98464310                2.02004238               37.03883842                0.01000000               -0.23480972               -0.19587277                0.10078333                0.54550183                0.00638751                0.02064424
               7.98432781                2.02185120               37.04001687                0.12981250               -0.03276958               -0.03266432                0.10913551                0.00005456               -0.00552530                0.00287044
               8.98398771                2.02366352               37.04116912                0.99999999               -0.03525038               -0.03517890                0.11748581                0.00007404               -0.00397570               -0.00158438
               9.98362280                2.02547761               37.04237967                1.00000000               -0.03649069               -0.03787198                0.12586989               -0.00008355               -0.00120681                0.00664130
               0.00385868                3.00325597               37.03219565                0.01000000               -0.01876138               -0.00008638                0.07865485                0.00692098                0.00978327                0.21542630
               1.00367106                3.00007921               37.03267789                0.01000001               -0.03599155               -0.17828510                0.08472699                0.09370516                0.01967490                0.17677575
               2.00313885                2.99840979               37.03335565                0.01000000               -0.09621349               -0.19557496                0.09855345                0.26786802                0.03638472                0.10410641
               3.00174679                2.99875787               37.03414509                0.01000000               -0.19629471               -0.14713910                0.10115028                0.55418434                0.04265889                0.06678038
               3.99921295                3.00139719               37.03510850                0.01000002               -0.27699379               -0.13398203                0.10756103                0.82474803                0.04675569                0.05834846
               4.99620692                3.00598517               37.03619241                0.01000000               -0.31927025               -0.18900853                0.10896430                1.02143980                0.04355151                0.05972954
               5.99282755                3.01164542               37.03735554                0.01000001               -0.34294657               -0.24299992                0.11020731                1.03940583                0.02958592                0.07155806
               6.98934799                3.01642510               37.03846907                0.01000001               -0.51481651               -0.30002125                0.11277574                1.08720922               -0.00657744                0.07673511
               7.98253122                3.02152414               37.03920458                0.01000001               -0.35795882               -0.22198112                0.10243794                0.87961401               -0.03891570                0.09109633
               8.98218881                3.02331123               37.04021427                0.01000001               -0.03549535               -0.26955200                0.11824166                0.67219417               -0.01363534                0.08904118
               9.98182131                3.02509744               37.04146592                0.67924775               -0.03675005               -0.58649443                0.12666584                0.78444298               -0.00174643                0.07233540
               0.00869162                4.00334591               37.03410799                0.01000001               -0.00161763               -0.04600137                0.08353960                0.16379765               -0.00388916                0.22480322
               1.00867544                3.99801042               37.03420930                0.01000000               -0.01421472               -0.26107293                0.09197610                0.34319377                0.00170876                0.15756747
               2.00840732                3.99593776               37.03441162                0.01000000               -0.07848071               -0.26739867                0.09936679                0.62409885                0.01832755                0.10331702
               3.00710583                3.99667290               37.03487961                0.01000001               -0.17612250               -0.22966660                0.10608720                0.82229133                0.04040881                0.07346538
               4.00488487                3.99953103               37.03562734                0.01000000               -0.24674634               -0.21354884                0.11026819                1.00466701                0.05735212                0.06961480
               5.00217090                4.00392126               37.03663100                0.01000001               -0.27563413               -0.22690400                0.11390686                1.12376965                0.06581095                0.08508643
               5.99937219                4.00896537               37.03778698                0.01000001               -0.28311657               -0.27415857                0.11704815                1.19344796                0.06217574                0.11199390
               6.99650857                4.01404196               37.03896123                0.01000008               -0.21691146               -0.30682926                0.11958138                1.18679346                0.04893886                0.14649871
               7.99503396                4.01741158               37.04009093                0.01000000               -0.13251410               -0.42870801                0.12433872                1.26674924                0.03595448                0.18910935
               8.99385829                4.01827248               37.04111220                0.01000000                0.03526392               -0.51412042                0.12827455                0.90641848                0.01535354                0.19352471
               9.99573924                4.01374772               37.04189730                0.01000000                0.18809529               -0.82061774                0.13564608                0.69002942                0.01322777                0.13798069
               0.01780560                5.00233594               37.03618356                0.01000000                0.01374934               -0.35015134                0.09020618                0.46486856               -0.01025049                0.25761684
               1.01794309                4.99485775               37.03580816                0.01000000               -0.04236218               -0.28570252                0.09690486                0.73413890               -0.00397089                0.17310178
               2.01695835                4.99306182               37.03553673                0.01000001               -0.16718689               -0.24592525                0.10332336                0.86846910                0.01511649                0.08666408
               3.01459935                4.99416454               37.03563562                0.01000000               -0.24502113               -0.26370477                0.10902025                1.01024418                0.05004602                0.06372039
               4.01205793                4.99712621               37.03627779                0.01000001               -0.26756907               -0.24260647                0.11422260                1.10778250                0.08658331                0.06958661
               5.00924797                5.00144709               37.03733383                0.01000001               -0.27410620               -0.24344616                0.11878288                1.16231888                0.10931437                0.09811081
               6.00657581                5.00616225               37.03867225                0.01000003               -0.23051620               -0.27671651                0.12319488                1.13166369                0.11838032                0.14144534
               7.00463765                5.01028852               37.04013010                0.01000000               -0.14700614               -0.36287811                0.12779384                1.05462433                0.11370111                0.19143494
               8.00363568                5.01294998               37.04152575                0.01000001               -0.03283069               -0.43725210                0.13257414                0.87500016                0.09364730                0.23363614
               9.00398103                5.01302882               37.04264541                0.01000000                0.05178611               -0.47402632                0.13778283                0.58989906                0.05677244                0.24733319
              10.00467140                5.00868509               37.04324465                0.01000002                0.06903728               -0.35415847                0.14389901                0.28729163                0.03562119                0.21171441
               0.03294537                5.99634288               37.03878436                0.25245456               -0.03130270               -0.31307878                0.09771088                0.55521920               -0.00332474                0.15868261
               1.03263234                5.99229637               37.03782411                0.01000001               -0.32377256               -0.14331873                0.10300893                0.67122416               -0.02511854                0.10813088
               2.02646992                5.99101925               37.03641675                0.01000000               -0.46930122               -0.25740150                0.10695679                0.92543067               -0.01029866                0.05994400
               3.02324632                5.99139880               37.03630568                0.01000001               -0.33559741               -0.26591769                0.11263805                1.00506131                0.07593171                0.03808290
               4.01975797                5.99467890               37.03692450                0.01000001               -0.34325381               -0.24383868                0.11760649                1.15106049                0.12858675                0.05475605
               5.01638124                5.99905234               37.03817676                0.01000003               -0.32969642               -0.19830285                0.12349115                1.10413159                0.16876284                0.09872922
               6.01316404                6.00343104               37.03987169                0.01000000               -0.27839557               -0.22752317                0.12925989                0.95936443                0.18961934                0.15582005
               7.01081333                6.00678440               37.04178546                0.01000001               -0.16851900               -0.30641293                0.13483062                0.75137942                0.18927580                0.22308335
               8.00979366                6.00866653               37.04363794                0.01000000               -0.04460856               -0.39079014                0.14032894                0.53722718                0.16126312                0.28812248
               9.00992116                6.00879195               37.04504294                0.01000001                0.01894419               -0.38266173                0.14575762                0.29335291                0.09798805                0.33086202
              10.01017254                6.00666456               37.04558443                0.01000000                0.02513861               -0.14181799                0.15143483                0.14105298                0.05808646                0.31994991
               0.03700299                6.99607436               37.03938574                0.99999999               -0.03117915               -0.02862921                0.10113870               -0.00067418               -0.01107820                0.03774586
               1.03669120                6.99199138               37.03823098                0.99999999               -0.03192264               -0.03131860                0.10631456               -0.00061984               -0.01083805                0.01520795
               2.03636454                6.98791379               37.03706935                0.01000000               -0.28251339               -0.17218675                0.11159256                0.54162003                0.02695632                0.01529680
               3.03104093                6.98884618               37.03666276                0.01000001               -0.44694675               -0.39636030                0.11079590                1.05944640                0.09795837               -0.03041389
               4.02742560                6.99224944               37.03738699                0.01000008               -0.42312356               -0.16137593                0.11959508                1.12052482                0.18486176                0.03075692
               5.02257846                6.99748104               37.03902329                0.01000000               -0.46972859               -0.09387425                0.12785404                0.99670943                0.24028298                0.08926479
               6.01803103                7.00161179               37.04121919                0.01000001               -0.40743625               -0.10450381                0.13496098                0.71095315                0.27387882                0.15380342
               7.01442974                7.00416026               37.04383909                0.01000000               -0.28291804               -0.18115803                0.14155596                0.40000557                0.28515955                0.23672540
               8.01237267                7.00513417               37.04649303                0.01000002               -0.12898332               -0.29237158                0.14785982                0.12534920                0.25377603                0.35717095
               9.01185007                7.00537559               37.04859330                0.01000002               -0.03127073               -0.32739103                0.15362512               -0.00565181                0.15671064                0.45152909
              10.01174726                7.00584873               37.04929463                0.01000001               -0.01028129               -0.08909058                0.15856976               -0.03130921                0.08883031                0.50024113
               0.04109786                7.99577030               37.03954863                1.00000000               -0.03173415               -0.03071546                0.10289619                0.00035245               -0.00109566                0.02051754
               1.04078052                7.99167000               37.03837356                0.99999999               -0.03251769               -0.03244262                0.10827213                0.00007294               -0.00084644                0.00328816
               2.04044751                7.98757552               37.03719775                0.26069290               -0.03404632               -0.03411382                0.11353800               -0.00071796               -0.00223937               -0.01391812
               3.04009959                7.98347159               37.03599192                0.01000001               -0.34569472               -0.28587346                0.10589221                0.85145691                0.14012285               -0.07326744
               4.03353361                7.99145138               37.03766248                0.01000002               -0.65732564               -0.03833589                0.12055281                1.14724803                0.27625976                0.01473225
               5.02695308                7.99717485               37.03974603                0.01000001               -0.64148666                0.05866436                0.13234860                0.78506630                0.30988710                0.06999515
               6.02070388                8.00134096               37.04248919                0.01000000               -0.58310141                0.04869530                0.13992477                0.45334097                0.35892287                0.13010735
               7.01529105                8.00316124               37.04595527                0.01000002               -0.48092824               -0.00409187                0.14757442                0.07924621                0.42023820                0.21300502
               8.01108532                8.00281910               37.05025755                0.01000002               -0.30987424               -0.10438854                0.15538160               -0.27933034                0.40663273                0.35673446
               9.00909357                8.00224413               37.05367984                0.01000001               -0.12426171               -0.25209944                0.16173489               -0.48162155                0.27193410                0.75019600
              10.00860008                8.00488274               37.05534674                0.01000000               -0.04934869               -0.30523709                0.16638348               -0.34182905                0.18591202                0.71556805
               0.04521063                8.99546006               37.03979614                1.00000000               -0.03231908               -0.03136568                0.10497808                0.00036333                0.00250418                0.01994858
               1.04488744                8.99134252               37.03853574                0.99999998               -0.03310207               -0.03307857                0.11035334                0.00007762                0.00188976                0.00303163
               2.04454859                8.98723151               37.03726310                0.99999997               -0.03466143               -0.03470714                0.11573583                0.00017018               -0.00344470               -0.00991131
               3.04419421                8.98312872               37.03589914                0.01000000               -0.39406395               -0.03552378                0.12116725                0.62270123                0.15515796               -0.02455745
               4.03666731                8.99148272               37.03780526                0.01000000               -0.79020024                0.16361535                0.12596901                0.81286455                0.31844769                0.00286679
               5.02839021                8.99865432               37.04020193                0.01000000               -0.77779214                0.18412210                0.13549332                0.49576531                0.35540199                0.04160604
               6.02111147                9.00258569               37.04336852                0.01000005               -0.69268435                0.15840711                0.14379967                0.21252613                0.42550902                0.07859515
               7.01453652                9.00407842               37.04761003                0.01000002               -0.67041479                0.13279853                0.15219633               -0.04786246                0.53183394                0.13162706
               8.00770317                9.00304640               37.05328836                0.01000001               -0.71912597                0.12888084                0.16111191               -0.35007659                0.80942066                0.24172300
               9.00015400                9.00033360               37.06345688                0.99999998               -0.40348599               -0.12151678                0.17332557               -0.58259385                0.50814856                0.48704140
               9.99963345                8.99974398               37.06345509                0.99999999               -0.05205481               -0.28299026                0.17369513               -0.47777552               -0.00040608                0.40283065
               0.04934019                9.99514298               37.03994409                1.00000000               -0.03295759               -0.03170724                0.10701555               -0.00049880                0.01366961                0.01489731
               1.04901062                9.99100843               37.03867241                1.00000000               -0.03377367               -0.03340923                0.11242006               -0.00076254                0.01705430                0.00153648
               2.04866472                9.98688137               37.03747419                0.99999998               -0.03541035               -0.03501370                0.11790617               -0.00075241                0.01687970               -0.00298243
               3.04830241                9.98276112               37.03620764                0.41649882               -0.71997112               -0.03675967                0.12336976                0.80293557                0.15771753               -0.00493997
               4.03426530                9.99472369               37.03783750                0.01000000               -1.12684967                0.32409647                0.13056021                0.66460753                0.29780845                0.00793157
               5.02576542               10.00085729               37.04024058                0.01000004               -0.73674960                0.22029690                0.13789080                0.22679205                0.35532229                0.02801661
               6.01953031               10.00450910               37.04351876                0.01000001               -0.59461612                0.19234108                0.14615138                0.08987968                0.44462816                0.04820678
               7.01387309               10.00581721               37.04804687                0.01000000               -0.58508490                0.17387855                0.15459618               -0.02196151                0.60245809                0.07601221
               8.00782861               10.00539672               37.05477101                0.01000002               -0.65644922                0.23503178                0.16408663               -0.28762687                0.79671260                0.17081950
               9.00074411                9.99981380               37.06350049                0.99999999               -0.38024039               -0.05198033                0.17325449               -0.24967795                0.43689800                0.00033489
              10.00022380                9.99922294               37.06349869                1.00000000               -0.05203102               -0.05210460                0.17362432               -0.00005075                0.00037289               -0.00037238
              -0.00197606                0.00394577               38.03119774                1.00000000               -0.02379197               -0.02212830                0.07364723                0.00192024               -0.00340850                0.00393088
               0.99778602                0.00219269               38.03191909                0.99999999               -0.02544444               -0.02564400                0.08489340                0.00179215               -0.00365570               -0.00130023
               1.99751505                0.00044348               38.03263262                0.01626626               -0.01426808               -0.02915038                0.09612828                0.03317453                0.04552822               -0.00153781
               2.99750066               -0.00067392               38.03433916                0.01000001               -0.05548069                0.01984022                0.06991307                0.06246128                0.08973619               -0.01469367
               3.99640544                0.00149712               38.03575996                0.01000000               -0.17645673                0.05948313                0.10728573                0.17115537                0.08990816                0.00115915
               4.99397153                0.00753626               38.03767195                0.01000000               -0.44895731                0.08474711                0.09798898                0.46008920                0.11896256               -0.00368917
               5.98742629                0.01953316               38.03999716                0.10657592               -0.34155361               -0.02744157                0.08900779                0.50548332                0.07390373               -0.00133757
               6.98714045                0.02146142               38.04157300                0.99659233               -0.02971172               -0.02958088                0.09838179                0.00248975                0.02111456               -0.00473384
               7.98683206                0.02337005               38.04284594                1.00000000               -0.03213803               -0.03229688                0.10711269                0.00130123                0.00800998               -0.00050665
               8.98649769                0.02528075               38.04415627                1.00000000               -0.03473163               -0.03491046                0.11587609                0.00130506                0.00795068                0.00096640
               9.98613743                0.02719578               38.04542700                1.00000000               -0.03602671               -0.03761351                0.12456501                0.00119574                0.00592824                0.00540658
              -0.00020377                1.00372449               38.03109322                1.00000000               -0.02411350               -0.02225099                0.07471525                0.00022193                0.00144052                0.00450085
               0.99955509                1.00193625               38.03181180                0.07813696               -0.02580618               -0.02589387                0.08599679                0.00010932                0.00353212               -0.00325928
               1.99928010                1.00015197               38.03257125                0.01000000               -0.09783197               -0.02814696                0.09736426                0.06007295                0.05022181                0.02693055
               2.99759845                0.99952448               38.03422771                0.01000001               -0.26340998                0.01603791                0.08600999                0.13210979                0.10601091                0.01496943
               3.99401190                1.00209195               38.03572333                0.01000000               -0.40220266                0.04608967                0.10800200                0.36615083                0.06957253                0.01620919
               4.98955440                1.00838373               38.03734644                0.01000000               -0.42466781                0.02736142                0.10070894                0.71296670                0.06630065                0.01007380
               5.98551855                1.01925875               38.03922322                0.01000001               -0.21537450               -0.25517481                0.09023743                0.66546317                0.04173207                0.00063496
               6.98524691                1.02116561               38.04070974                0.99364437               -0.02915683               -0.02974079                0.09946067                0.00141485                0.01167875               -0.00461687
               7.98493541                1.02304708               38.04197719                1.00000000               -0.03245136               -0.03245032                0.10815552               -0.00003472                0.00128253               -0.00041863
               8.98459788                1.02493164               38.04325393                0.99999999               -0.03505277               -0.03505800                0.11686554               -0.00002837                0.00121196                0.00065190
               9.98423435                1.02681964               38.04452009                0.99999998               -0.03635262               -0.03775724                0.12554513               -0.00016279                0.00058800                0.00671809
               0.00160486                2.00350075               38.03099585                0.01000001               -0.02441339               -0.01241121                0.07584890               -0.00146816                0.00195593                0.10884060
               1.00136072                2.00167481               38.03166589                0.01000000               -0.02382899               -0.09037269                0.08704196                0.00213540                0.03935341                0.09511763
               2.00112828                1.99988054               38.03308460                0.01000001               -0.15789231               -0.09073975                0.08396519                0.06729148                0.07984248                0.08727858
               2.99820288                1.99964684               38.03458223                0.01000000               -0.31295356               -0.03770736                0.10062984                0.30869659                0.05910657                0.04763646
               3.99486921                2.00241891               38.03586050                0.01000000               -0.35694051               -0.02768239                0.10601061                0.65049798                0.04470612                0.03849804
               4.99106407                2.00808349               38.03716367                0.01000001               -0.34577647               -0.10322253                0.10496555                0.89631596                0.03175873                0.03360926
               5.98795368                2.01442967               38.03848511                0.01000000               -0.38418248               -0.35371861                0.10367553                0.96043261                0.02202525                0.02147657
               6.98338042                2.02086661               38.03984499                0.01000000               -0.24441694               -0.20203129                0.10056214                0.56862131                0.00055412                0.02573365
               7.98306534                2.02272104               38.04110850                0.13348017               -0.03279257               -0.03275207                0.10921052                0.00019726               -0.00557170               -0.00013988
               8.98272457                2.02457959               38.04234568                0.99999999               -0.03535822               -0.03528240                0.11783218                0.00005905               -0.00401541               -0.00162997
               9.98235817                2.02644063               38.04364168                1.00000000               -0.03663925               -0.03807377                0.12651852               -0.00011654               -0.00122079                0.00665398
               0.00341874                3.00347626               38.03297551                0.01000001               -0.02007281                0.00497127                0.07796445                0.01035973                0.00584470                0.21837484
               1.00321801                3.00012879               38.03352873                0.01000001               -0.03824184               -0.18312259                0.08588383                0.09993297                0.01378112                0.17730717
               2.00265390                2.99833718               38.03426219                0.01000000               -0.09920029               -0.20108096                0.09261649                0.28661405                0.02966351                0.11064805
               3.00123401                2.99877034               38.03517550                0.01000000               -0.20343462               -0.15062361                0.10277791                0.59244981                0.03897383                0.06649358
               3.99858521                3.00153830               38.03618691                0.01000001               -0.28820198               -0.13964760                0.10838782                0.86080653                0.03801985                0.05573547
               4.99546997                3.00631928               38.03729136                0.01000000               -0.33205639               -0.19465433                0.11007603                1.06432349                0.03473733                0.06217219
               5.99194408                3.01218437               38.03846301                0.01000001               -0.35710044               -0.25049059                0.11081546                1.08212687                0.02183939                0.07680788
               6.98832796                3.01712499               38.03958675                0.01000001               -0.53588532               -0.30987208                0.11176668                1.13184191               -0.01745120                0.08501619
               7.98122638                3.02239204               38.04024513                0.01000001               -0.37242421               -0.22975078                0.10594996                0.91582483               -0.04433482                0.09715833
               8.98087947                3.02422599               38.04139925                0.01000000               -0.03582208               -0.27975303                0.11876352                0.70041644               -0.01072697                0.09351432
               9.98050993                3.02605817               38.04273687                0.70305266               -0.03695385               -0.61045955                0.12750246                0.81759464               -0.00175320                0.07649758
               0.00850699                4.00360017               38.03493396                0.01000001               -0.00085192               -0.04534767                0.08209979                0.17254554               -0.00425735                0.22992072
               1.00849847                3.99801236               38.03512237                0.01000000               -0.01439852               -0.26792913                0.09083099                0.36176241                0.00155697                0.16115464
               2.00821902                3.99585892               38.03541342                0.01000000               -0.08238608               -0.27125007                0.09919792                0.65648566                0.01709358                0.10523422
               3.00685075                3.99663437               38.03593647                0.01000002               -0.18413135               -0.23478746                0.10585041                0.86139062                0.03631713                0.07196712
               4.00453639                3.99962596               38.03673738                0.01000000               -0.25731393               -0.21882296                0.11118352                1.05035948                0.05253133                0.06937417
               5.00170447                4.00419041               38.03777679                0.01000001               -0.28729403               -0.23361590                0.11496549                1.17154809                0.06028986                0.08737908
               5.99879051                4.00941985               38.03896284                0.01000001               -0.29474384               -0.28278415                0.11789845                1.24300601                0.05677543                0.11687268
               6.99580959                4.01466917               38.04015918                0.01000001               -0.22548396               -0.31701197                0.12008172                1.23459052                0.04427120                0.15331715
               7.99428083                4.01812603               38.04132590                0.01000001               -0.13714112               -0.44428576                0.12370660                1.31841728                0.03247575                0.20158545
               8.99306677                4.01898453               38.04239650                0.01000000                0.03824469               -0.53480188                0.12891990                0.94395658                0.01333146                0.20210228
               9.99504572                4.01423144               38.04325979                0.01000002                0.19789551               -0.85542912                0.13677304                0.71881425                0.01281422                0.14534437
               0.01804528                5.00256931               38.03707431                0.01000000                0.01492352               -0.36408078                0.08802585                0.48701073               -0.01016963                0.26325521
               1.01819452                4.99477021               38.03676992                0.01000000               -0.04418374               -0.29280740                0.09546196                0.76914682               -0.00389296                0.17594534
               2.01716161                4.99291218               38.03656497                0.01000001               -0.17498720               -0.25088321                0.10254315                0.90910244                0.01465861                0.08679593
               3.01469477                4.99407459               38.03672890                0.01000000               -0.25626224               -0.26873406                0.10911019                1.05596713                0.04860390                0.06351007
               4.01203636                4.99716185               38.03742288                0.01000001               -0.27938683               -0.24820537                0.11478438                1.15573142                0.08401739                0.07030960
               5.00910704                5.00164697               38.03852792                0.01000001               -0.28554604               -0.25005269                0.11985728                1.21125460                0.10651673                0.10081374
               6.00632544                5.00652869               38.03991101                0.01000002               -0.23967211               -0.28541021                0.12442011                1.17858812                0.11558464                0.14623359
               7.00431359                5.01078475               38.04141402                0.01000000               -0.15230399               -0.37556100                0.12889213                1.09801028                0.11127418                0.19811925
               8.00327936                5.01350632               38.04285796                0.01000001               -0.03302015               -0.45324985                0.13364180                0.91058370                0.09144922                0.24114012
               9.00365319                5.01352996               38.04402956                0.01000000                0.05565145               -0.49312688                0.13899749                0.61369767                0.05517438                0.25507320
              10.00439239                5.00894958               38.04469229                0.01000001                0.07391996               -0.37006568                0.14552536                0.29876004                0.03462138                0.21793145
               0.03384539                5.99631856               38.03974829                0.22644022               -0.03068582               -0.32548671                0.09498126                0.58251493               -0.00343805                0.16173766
               1.03353854                5.99215621               38.03884338                0.01000001               -0.33743527               -0.14557454                0.10078880                0.70212858               -0.02564043                0.11036325
               2.02709669                5.99084125               38.03748181                0.01000000               -0.49090590               -0.26229087                0.10613032                0.96668019               -0.01153979                0.06136900
               3.02372042                5.99125969               38.03742131                0.01000001               -0.35090252               -0.27119087                0.11184241                1.04826897                0.07532034                0.03725185
               4.02007864                5.99466185               38.03810365                0.01000001               -0.35788527               -0.24899666                0.11826769                1.19781500                0.12858568                0.05498955
               5.01656271                5.99918935               38.03941694                0.01000002               -0.34270759               -0.20321625                0.12460888                1.14903835                0.16834288                0.10163928
               6.01322449                6.00371165               38.04117171                0.01000000               -0.28852751               -0.23451548                0.13067494                0.99885796                0.18910732                0.16059704
               7.01079216                6.00715795               38.04314211                0.01000001               -0.17385953               -0.31718478                0.13639252                0.78273844                0.18863444                0.22933311
               8.00974730                6.00906103               38.04504970                0.01000000               -0.04473507               -0.40555211                0.14193113                0.55969802                0.16057286                0.29515490
               9.00989746                6.00912199               38.04650948                0.01000001                0.02171869               -0.39800973                0.14744381                0.30542939                0.09739949                0.33787416
              10.01018167                6.00683013               38.04710914                0.01000000                0.02842084               -0.14938820                0.15336705                0.14671257                0.05767210                0.32543387
               0.03802028                6.99605957               38.04038602                0.99892442               -0.03058822               -0.02791688                0.09900642               -0.00059291               -0.01118990                0.03824842
               1.03771439                6.99185872               38.03928610                1.00000000               -0.03142708               -0.03078490                0.10474022               -0.00055154               -0.01091959                0.01576814
               2.03739174                6.98766636               38.03818043                0.01000000               -0.29374220               -0.17559069                0.11059681                0.56421272                0.02511203                0.01635996
               3.03183955                6.98865077               38.03779301                0.01000001               -0.46643688               -0.40703597                0.11402920                1.10156881                0.09727993               -0.03648690
               4.02806300                6.99218191               38.03858589                0.01000001               -0.44007709               -0.16453412                0.12091251                1.16381224                0.18697526                0.03099658
               5.02303801                6.99758264               38.04030779                0.01000000               -0.48644960               -0.09542512                0.12913437                1.03507138                0.24277751                0.09174503
               6.01833401                7.00183838               38.04257590                0.01000001               -0.42095132               -0.10741437                0.13646695                0.73992696                0.27541349                0.15835392
               7.01461898                7.00444105               38.04526360                0.01000000               -0.29123629               -0.18769161                0.14329049                0.41768846                0.28657437                0.24262798
               8.01250928                7.00539528               38.04798068                0.01000002               -0.13131501               -0.30361254                0.14960450                0.13270541                0.25490965                0.36439439
               9.01199268                7.00556976               38.05013841                0.01000002               -0.02994572               -0.34040941                0.15533412               -0.00387650                0.15723689                0.45880388
              10.01191037                7.00596182               38.05088998                0.01000001               -0.00823167               -0.09392424                0.16041396               -0.03101431                0.08893667                0.50578680
               0.04223524                7.99576022               38.04057171                1.00000000               -0.03145214               -0.03038796                0.10175971                0.00048206               -0.00106715                0.02046886
               1.04192072                7.99154051               38.03945297                0.99999999               -0.03231743               -0.03226654                0.10763936                0.00004582               -0.00086838                0.00332360
               2.04158889                7.98732944               38.03833296                0.27132277               -0.03422405               -0.03412262                0.11348493               -0.00038716               -0.00579864               -0.01385283
               3.04123624                7.98311897               38.03711322                0.01000001               -0.35829410               -0.29430498                0.11395120                0.88249766                0.13885814               -0.07077329
               4.03442301                7.99137117               38.03889095                0.01000004               -0.68142847               -0.03855635                0.12441063                1.18879375                0.28404028                0.01544142
               5.02760767                7.99728085               38.04106790                0.01000001               -0.66292000                0.06164961                0.13326795                0.81457362                0.31372933                0.07245122
               6.02116461                8.00156336               38.04389827                0.01000000               -0.60093197                0.05062921                0.14173431                0.47150479                0.36232788                0.13366391
               7.01558903                8.00340411               38.04743999                0.01000001               -0.49459580               -0.00478040                0.14940819                0.08424655                0.42385005                0.21787456
               8.01127270                8.00298878               38.05181958                0.01000002               -0.31678192               -0.10948642                0.15700334               -0.28677904                0.41025765                0.36322496
               9.00925339                8.00231380               38.05530406                0.01000000               -0.12477139               -0.26378569                0.16308931               -0.49397914                0.27432672                0.75957814
              10.00877727                8.00495164               38.05701696                0.01000000               -0.04761249               -0.31325888                0.16762055               -0.35026951                0.18743881                0.72132231
               0.04646934                8.99545181               38.04084490                1.00000000               -0.03232420               -0.03130851                0.10475894                0.00049049                0.00251328                0.02001017
               1.04614609                8.99121339               38.03964065                0.99999998               -0.03318988               -0.03317412                0.11064177                0.00004399                0.00190656                0.00309985
               2.04580554                8.98698391               38.03842442                0.99999996               -0.03491614               -0.03497304                0.11655122                0.00009067               -0.00340988               -0.00980192
               3.04544777                8.98276467               38.03711733                0.01000000               -0.40642735               -0.03635094                0.12250671                0.64310825                0.15518409               -0.02096023
               4.03767699                8.99141079               38.03907983                0.01000000               -0.81552396                0.16931740                0.12885701                0.84134108                0.32079872                0.00477825
               5.02913729                8.99881563               38.04156495                0.01000000               -0.80180772                0.19038116                0.13748377                0.51424237                0.35924747                0.04328792
               6.02164084                9.00285097               38.04481689                0.01000002               -0.71293976                0.16349081                0.14592026                0.22085051                0.42967785                0.08050157
               7.01487850                9.00434545               38.04914196                0.01000002               -0.68884119                0.13652140                0.15420453               -0.04895363                0.53705110                0.13441138
               8.00786401                9.00320555               38.05490694                0.01000000               -0.73641299                0.13143322                0.16260768               -0.36322604                0.81758642                0.24571935
               9.00015024                9.00029405               38.06519124                0.99999997               -0.41173604               -0.12699575                0.17355211               -0.60074576                0.51380158                0.49264533
               9.99962929                8.99969664               38.06519211                0.99999999               -0.05209447               -0.28878464                0.17370705               -0.48723059               -0.00041018                0.40626031
               0.05072190                9.99513405               38.04101765                1.00000000               -0.03323916               -0.03177638                0.10768331               -0.00044535                0.01372126                0.01492806
               1.05038951                9.99087703               38.03980243                1.00000000               -0.03412372               -0.03363597                0.11358976               -0.00086189                0.01714921                0.00157569
               2.05003943                9.98662998               38.03866135                0.99999997               -0.03589923               -0.03539273                0.11954764               -0.00086508                0.01699614               -0.00291957
               3.04967153                9.98239195               38.03745142                0.46213407               -0.74202783               -0.03727218                0.12546044                0.82875269                0.15859396               -0.00498605
               4.03519887                9.99475752               38.03915365                0.01000001               -1.16095940                0.33467353                0.13288385                0.68701425                0.29964594                0.00940664
               5.02645234               10.00108847               38.04163272                0.01000001               -0.75735309                0.22728390                0.14059526                0.23528760                0.35811130                0.02870368
               6.02005181               10.00483318               38.04499266                0.01000001               -0.60984832                0.19822128                0.14870495                0.09340083                0.44853628                0.04901529
               7.01425537               10.00613454               38.04960406                0.01000000               -0.59961179                0.17890959                0.15686504               -0.02309917                0.60788262                0.07719416
               8.00805957               10.00561744               38.05641912                0.01000002               -0.67539910                0.24118904                0.16554710               -0.29847670                0.80357942                0.17273702
               9.00074739                9.99977389               38.06523298                0.99999999               -0.39160520               -0.05201627                0.17324482               -0.26235934                0.44098521                0.00033582
              10.00022747                9.99917595               38.06523384                1.00000000               -0.05199202               -0.05206923                0.17339973                0.00002422                0.00037469               -0.00037443
              -0.00278813                0.00408445               39.03193013                1.00000000               -0.02364200               -0.02193123                0.07278624                0.00210666               -0.00349469                0.00385548
               0.99697545                0.00228142               39.03276772                0.99999999               -0.02540224               -0.02567540                0.08477206                0.00191942               -0.00373957               -0.00141053
               1.99670383                0.00048371               39.03359724                0.01000000               -0.02875471               -0.02941637                0.09674591                0.03067928                0.00810475               -0.00148340
               2.99640036               -0.00073300               39.03467281                0.01000001               -0.06536533                0.02313112                0.09878843                0.07421143                0.05032275                0.04135438
               3.99539652                0.00159311               39.03693899                0.01000000               -0.17207299                0.05751033                0.10444037                0.18310715                0.08720775                0.00074420
               4.99295890                0.00782154               39.03863928                0.01000000               -0.46120642                0.09043212                0.09375770                0.47811060                0.09162862               -0.00177875
               5.98617239                0.02028699               39.04088247                0.09820020               -0.35374605               -0.02724182                0.08807703                0.52636202                0.06600018               -0.00150667
               6.98588398                0.02227220               39.04255278                0.99488536               -0.02975877               -0.02939827                0.09768564                0.00302531                0.02153554               -0.00463943
               7.98557722                0.02422867               39.04391498                1.00000000               -0.03203450               -0.03221843                0.10676506                0.00132904                0.00813826               -0.00044876
               8.98524329                0.02618777               39.04531493                1.00000000               -0.03473271               -0.03493355                0.11587313                0.00133647                0.00802120                0.00096006
               9.98488256                0.02815181               39.04667402                1.00000000               -0.03607241               -0.03772452                0.12483872                0.00120751                0.00593775                0.00539949
              -0.00096403                1.00386514               39.03183724                0.99667333               -0.02409547               -0.02211496                0.07428470                0.00029459                0.00154623                0.00444474
               0.99879502                1.00202466               39.03267270                0.09546718               -0.02590707               -0.02599372                0.08632662                0.00012168                0.00363248               -0.00343095
               1.99851783                1.00018955               39.03355031                0.01000000               -0.11036235               -0.02899131                0.09846415                0.05894741                0.03628740                0.02217236
               2.99658777                0.99949831               39.03504356                0.01000001               -0.27837566                0.01768076                0.10863222                0.14970409                0.03564325                0.04027523
               3.99295032                1.00216821               39.03686057                0.01000000               -0.40973529                0.04619716                0.10665371                0.38804727                0.05097395                0.00461435
               4.98839306                1.00872586               39.03835016                0.01000000               -0.43698182                0.03035711                0.09846033                0.74441820                0.04263035                0.01160223
               5.98421068                1.02001457               39.04012222                0.01000001               -0.22248395               -0.26359404                0.08957874                0.69315736                0.03233272                0.00668633
               6.98394339                1.02197822               39.04170179                0.99252674               -0.02889797               -0.02960768                0.09903366                0.00193674                0.01196205               -0.00456083
               7.98363272                1.02390649               39.04305789                1.00000000               -0.03241502               -0.03241035                0.10802988               -0.00006553                0.00132431               -0.00038285
               8.98329508                1.02583844               39.04442342                0.99999999               -0.03510580               -0.03510886                0.11703717               -0.00004966                0.00122606                0.00062507
               9.98293061                1.02777456               39.04577784                0.99999998               -0.03644795               -0.03789485                0.12599435               -0.00019628                0.00057797                0.00670868
               0.00089871                2.00364215               39.03175251                0.01000000               -0.02452346               -0.00898948                0.07587184                0.00359714                0.00202333                0.10921589
               1.00065348                2.00176154               39.03253797                0.01000000               -0.02447912               -0.09278942                0.08779346                0.00633602                0.03472625                0.09397769
               2.00040913                1.99990388               39.03398177                0.01000001               -0.16188552               -0.09478073                0.09203787                0.07132911                0.07683610                0.08465726
               2.99741577                1.99962061               39.03563182                0.01000000               -0.32396126               -0.03823995                0.10580685                0.33134774                0.06548751                0.05159262
               3.99392991                2.00251705               39.03691349                0.01000000               -0.37074322               -0.02666004                0.10663098                0.68576227                0.02991075                0.02696517
               4.99000090                2.00842869               39.03821937                0.01000001               -0.35733631               -0.10551863                0.10445446                0.93652755                0.01914723                0.03546397
               5.98678318                2.01501511               39.03952088                0.01000000               -0.39850578               -0.36553651                0.10314164                1.00048190                0.00995330                0.03019287
               6.98203079                2.02168005               39.04084967                0.01000000               -0.25337462               -0.20834921                0.10042064                0.59194106               -0.00546247                0.03080271
               7.98171569                2.02358047               39.04220108                0.13644990               -0.03282836               -0.03282966                0.10932046                0.00024207               -0.00566108               -0.00140480
               8.98137422                2.02548560               39.04352576                0.99999999               -0.03546479               -0.03538709                0.11817993                0.00004396               -0.00408505               -0.00168817
               9.98100639                2.02739391               39.04491004                1.00000000               -0.03678298               -0.03826380                0.12713852               -0.00014938               -0.00124672                0.00665513
               0.00286913                3.00368535               39.03375494                0.01000000               -0.02091248                0.01016838                0.07796370                0.01489978                0.00365570                0.22009783
               1.00266001                3.00016888               39.03439557                0.01000001               -0.03918935               -0.18846067                0.08721566                0.10911106                0.01142924                0.17756577
               2.00208535                2.99829393               39.03520798                0.01000000               -0.10292273               -0.20821101                0.09568751                0.30452967                0.02879243                0.11474139
               3.00060155                2.99873351               39.03620065                0.01000000               -0.21139293               -0.15308868                0.10373449                0.62167600                0.03546840                0.06248554
               3.99785749                3.00163501               39.03727626                0.01000000               -0.29879958               -0.14172585                0.10875568                0.90236279                0.03235947                0.05450626
               4.99462556                3.00661549               39.03839393                0.01000000               -0.34442673               -0.19982020                0.11032132                1.11095796                0.02560196                0.06374095
               5.99096895                3.01270384               39.03957185                0.01000001               -0.37043583               -0.25801444                0.11087462                1.12689369                0.01345265                0.08226451
               6.98721685                3.01781124               39.04070440                0.01000001               -0.55684682               -0.31995113                0.11196705                1.17731012               -0.02810020                0.09362519
               7.97983202                3.02324990               39.04132358                0.01000001               -0.38671611               -0.23750092                0.10894346                0.95249648               -0.04975334                0.10339773
               8.97948252                3.02513070               39.04258954                0.01000001               -0.03605109               -0.29006940                0.11929173                0.72881004               -0.00958819                0.09812169
               9.97911099                3.02700928               39.04401597                0.72789466               -0.03715282               -0.63473574                0.12829286                0.85098684               -0.00176004                0.08067483
               0.00822966                4.00384552               39.03574998                0.01000001               -0.00025382               -0.04493175                0.08123447                0.18177397               -0.00483307                0.23325171
               1.00822712                3.99799233               39.03602592                0.01000000               -0.01472829               -0.27566176                0.09022727                0.38043534                0.00066734                0.16286566
               2.00793509                3.99573966               39.03639558                0.01000000               -0.08594574               -0.27822897                0.09841270                0.68868498                0.01576497                0.10578504
               3.00650821                3.99655884               39.03699662                0.01000002               -0.19199577               -0.23918030                0.10604748                0.90274199                0.03418664                0.07142520
               4.00409518                3.99968254               39.03785101                0.01000000               -0.26784844               -0.22344370                0.11163433                1.09776075                0.04814307                0.06878410
               5.00115124                4.00443228               39.03893031                0.01000001               -0.29849350               -0.23961345                0.11558053                1.22184456                0.05505415                0.08969942
               5.99812531                4.00985482               39.04014495                0.01000001               -0.30601521               -0.29128897                0.11853211                1.29405981                0.05084310                0.12197541
               6.99503093                4.01528103               39.04136286                0.01000097               -0.23395750               -0.32716326                0.12079583                1.28374824                0.03889016                0.16067604
               7.99344616                4.01883045               39.04256506                0.01000001               -0.14199490               -0.46004558                0.12441378                1.37101433                0.02865610                0.21370624
               8.99219104                4.01968421               39.04369060                0.01000000                0.04113981               -0.55566968                0.12996708                0.98182059                0.01155365                0.21113265
               9.99426895                4.01469919               39.04463276                0.01000000                0.20779187               -0.89074634                0.13784030                0.74786743                0.01233377                0.15288279
               0.01821099                5.00278672               39.03794408                0.01000000                0.01635807               -0.37897993                0.08605188                0.50973053               -0.01005882                0.26726571
               1.01837457                4.99465564               39.03771740                0.01000000               -0.04592268               -0.30024382                0.09410569                0.80507647               -0.00365530                0.17762709
               2.01729254                4.99272935               39.03758759                0.01000001               -0.18305274               -0.25542442                0.10190032                0.95101823                0.01431412                0.08707194
               3.01471352                4.99394990               39.03781783                0.01000000               -0.26766406               -0.27395509                0.10898566                1.10297313                0.04733973                0.06295537
               4.01193926                4.99716614               39.03857348                0.01000001               -0.29116735               -0.25334274                0.11534176                1.20560984                0.08209241                0.07068082
               5.00889017                5.00182322               39.03973097                0.01000001               -0.29689282               -0.25635141                0.12077978                1.26203624                0.10382847                0.10323633
               6.00600140                5.00687806               39.04116065                0.01000008               -0.24869966               -0.29383655                0.12550277                1.22702264                0.11264164                0.15099968
               7.00391618                5.01126797               39.04270794                0.01000000               -0.15761396               -0.38797776                0.12995240                1.14240099                0.10837442                0.20513393
               8.00284912                5.01404899               39.04419858                0.01000001               -0.03329941               -0.46917657                0.13463866                0.94704596                0.08902853                0.24928061
               9.00325019                5.01401730               39.04542536                0.01000000                0.05946259               -0.51218105                0.14020082                0.63820192                0.05367502                0.26312907
              10.00403837                5.00919436               39.04615516                0.01000001                0.07881839               -0.38618263                0.14699821                0.31059098                0.03374182                0.22441624
               0.03468642                5.99626592               39.04068398                0.20194665               -0.03004045               -0.33854011                0.09215492                0.61055537               -0.00352456                0.16396969
               1.03438602                5.99198745               39.03983988                0.01000001               -0.35126113               -0.14792474                0.09855931                0.73345416               -0.02572193                0.11167116
               2.02766120                5.99063117               39.03853936                0.01000000               -0.51275674               -0.26697611                0.10547551                1.00798097               -0.01181116                0.06186220
               3.02413088                5.99107974               39.03854252                0.01000001               -0.36635718               -0.27626841                0.11225871                1.09260315                0.07517254                0.03639637
               4.02033405                5.99461568               39.03928985                0.01000001               -0.37254197               -0.25420328                0.11909551                1.24682923                0.12854250                0.05526457
               5.01668004                5.99930525               39.04066893                0.01000008               -0.35565214               -0.20791254                0.12582158                1.19581137                0.16820657                0.10405387
               6.01322101                6.00397809               39.04248519                0.01000000               -0.29860071               -0.24128781                0.13206397                1.03991533                0.18859685                0.16513820
               7.01070803                6.00752147               39.04451331                0.01000001               -0.17916323               -0.32765155                0.13784905                0.81545508                0.18789988                0.23558778
               8.00963775                6.00944692               39.04647656                0.01000000               -0.04491626               -0.41984020                0.14340083                0.58330257                0.15970573                0.30243250
               9.00980970                6.00944059               39.04799182                0.01000001                0.02444597               -0.41301065                0.14897484                0.31819672                0.09668022                0.34499191
              10.01012667                6.00697554               39.04865177                0.01000003                0.03169637               -0.15688554                0.15507158                0.15271871                0.05717588                0.33088235
               0.03897904                6.99601591               39.04136587                0.99685304               -0.03006312               -0.02725607                0.09704797               -0.00049850               -0.01130805                0.03873335
               1.03867841                6.99169715               39.04032578                0.99984223               -0.03095794               -0.03027620                0.10324164               -0.00051019               -0.01099369                0.01629192
               2.03835988                6.98738983               39.03928128                0.01000000               -0.30486658               -0.17883546                0.10956617                0.58687401                0.02447176                0.01689600
               3.03258107                6.98842453               39.03894334                0.01000001               -0.48547766               -0.41739669                0.11551356                1.14400698                0.09719280               -0.03812972
               4.02865032                6.99208207               39.03980524                0.01000183               -0.45685398               -0.16747077                0.12269756                1.20830622                0.18890151                0.03141389
               5.02344399                6.99766497               39.04160598                0.01000000               -0.50334183               -0.09692693                0.13065621                1.07552681                0.24491601                0.09411758
               6.01858349                7.00205230               39.04394853                0.01000001               -0.43437725               -0.11024180                0.13811431                0.77036547                0.27715759                0.16247858
               7.01475645                7.00471494               39.04670489                0.01000000               -0.29937145               -0.19405495                0.14498783                0.43692983                0.28795085                0.24839256
               8.01259606                7.00565218               39.04948512                0.01000001               -0.13354737               -0.31447900                0.15126105                0.14154013                0.25587974                0.37146385
               9.01208550                7.00575709               39.05169999                0.01000002               -0.02866084               -0.35288628                0.15693061               -0.00112580                0.15760160                0.46585366
              10.01202284                7.00605665               39.05250291                0.01000001               -0.00626593               -0.09842387                0.16208757               -0.03022489                0.08891139                0.51089789
               0.04331399                7.99572080               39.04158382                1.00000000               -0.03120886               -0.03007986                0.10070055                0.00063085               -0.00106360                0.02044984
               1.04300190                7.99138193               39.04052634                0.99999999               -0.03213475               -0.03210425                0.10706248                0.00006504               -0.00088832                0.00338818
               2.04267129                7.98705446               39.03946745                0.27935245               -0.03415605               -0.03413696                0.11342872               -0.00031509               -0.00775252               -0.01376779
               3.04231878                7.98273180               39.03827095                0.01000001               -0.37057755               -0.30266094                0.11694596                0.91366089                0.13913834               -0.07033977
               4.03525974                7.99126627               39.04015069                0.01000001               -0.70492142               -0.03832451                0.12700808                1.23101270                0.28790730                0.01680058
               5.02822035                7.99736671               39.04241139                0.01000001               -0.68406944                0.06451429                0.13538725                0.84505399                0.31737120                0.07465701
               6.02157835                8.00177325               39.04532388                0.01000000               -0.61868009                0.05245135                0.14358158                0.49090938                0.36569289                0.13704245
               7.01584675                8.00364037               39.04894343                0.01000001               -0.50759752               -0.00561849                0.15128996                0.09075633                0.42743686                0.22260404
               8.01142640                8.00315734               39.05339762                0.01000002               -0.32320123               -0.11454666                0.15860889               -0.29239779                0.41359634                0.36951961
               9.00938272                8.00238286               39.05694163                0.01000001               -0.12516725               -0.27497536                0.16439892               -0.50454567                0.27647590                0.76830581
              10.00892306                8.00500706               39.05869915                0.01000000               -0.04596658               -0.32021673                0.16877099               -0.35754657                0.18872019                0.72619032
               0.04766939                8.99541432               39.04189132                1.00000000               -0.03233521               -0.03123815                0.10452590                0.00062769                0.00253198                0.02004860
               1.04734604                8.99105506               39.04074858                0.99999998               -0.03328449               -0.03327798                0.11096124                0.00003897                0.00193427                0.00315535
               2.04700370                8.98670709               39.03959412                0.99999996               -0.03517765               -0.03526649                0.11742279                0.00003114               -0.00335180               -0.00970525
               3.04664249                8.98237131               39.03834928                0.01000000               -0.41840196               -0.03692857                0.12391086                0.66358534                0.15567979               -0.01891668
               4.03863567                8.99131558               39.04038240                0.01000000               -0.84022001                0.17489537                0.13145316                0.87005560                0.32309006                0.00615331
               5.02983809                8.99895526               39.04295161                0.01000000               -0.82538249                0.19645517                0.13990763                0.53270154                0.36281303                0.04475517
               6.02212802                9.00310133               39.04628692                0.01000002               -0.73253004                0.16823100                0.14820757                0.22993267                0.43371271                0.08249483
               7.01518749                9.00460257               39.05069412                0.01000002               -0.70612003                0.13982502                0.15628284               -0.04912690                0.54192328                0.13710203
               8.00800562                9.00336125               39.05654051                0.01000001               -0.75213130                0.13348870                0.16412679               -0.37500531                0.82492919                0.24957049
               9.00014486                9.00025758               39.06692792                0.99999997               -0.41910533               -0.13229127                0.17378894               -0.61712815                0.51893208                0.49781725
               9.99962351                8.99965231               39.06692923                0.99999999               -0.05213538               -0.29375333                0.17371579               -0.49520103               -0.00041433                0.40921624
               0.05204505                9.99509604               39.04209775                1.00000000               -0.03351469               -0.03182785                0.10831905               -0.00040117                0.01374990                0.01493580
               1.05170990                9.99071637               39.04094420                1.00000000               -0.03446951               -0.03386902                0.11475179               -0.00095908                0.01720494                0.00159378
               2.05135566                9.98634914               39.03986515                0.99999997               -0.03639570               -0.03579547                0.12121444               -0.00096151                0.01704401               -0.00288132
               3.05098199                9.98199323               39.03871685                0.49530853               -0.76393757               -0.03780845                0.12764699                0.85470190                0.15932812               -0.00500031
               4.03607691                9.99476417               39.04049518                0.01000003               -1.19466791                0.34485906                0.13553996                0.70925370                0.30159591                0.01028425
               5.02708863               10.00129582               39.04305248                0.01000000               -0.77736091                0.23405603                0.14347216                0.24373903                0.36085936                0.02938513
               6.02052969               10.00513787               39.04649285                0.01000001               -0.62421705                0.20365404                0.15146904                0.09722030                0.45210969                0.04985482
               7.01460429               10.00643688               39.05118417                0.01000000               -0.61292037                0.18343031                0.15924168               -0.02385781                0.61260897                0.07830700
               8.00827128               10.00582711               39.05808195                0.01000002               -0.69275977                0.24658634                0.16706068               -0.30842513                0.80924423                0.17448286
               9.00074909                9.99973704               39.06696538                0.99999999               -0.40208529               -0.05205462                0.17323816               -0.27433254                0.44444227                0.00033649
              10.00022958                9.99913200               39.06696669                1.00000000               -0.05195176               -0.05203152                0.17316499                0.00010282                0.00037662               -0.00037631
              -0.00372112                0.00420866               40.03265346                1.00000000               -0.02347542               -0.02176541                0.07188025                0.00232429               -0.00356597                0.00385157
               0.99604412                0.00235453               40.03361453                0.99999999               -0.02534054               -0.02571461                0.08456784                0.00200650               -0.00380199               -0.00145275
               1.99577206                0.00050768               40.03456754                0.01000001               -0.04393775               -0.02967819                0.09727009                0.03914814                0.03547573               -0.00146054
               2.99516537               -0.00058835               40.03631493                0.01000001               -0.07944724               -0.00406794                0.17219812                0.04162812                0.08197348                0.00976517
               3.99418312                0.00166886               40.03784876                0.01000000               -0.16523728                0.05408878                0.09432030                0.18752968                0.06566152               -0.00420547
               4.99186062                0.00807892               40.03954710                0.01000002               -0.46751594                0.09567629                0.08892464                0.49620798                0.08818260               -0.00068128
               5.98483280                0.02102354               40.04175870                0.09028598               -0.36609793               -0.02694767                0.08697310                0.54766156                0.06057136               -0.00172260
               6.98453866                0.02307061               40.04352671                0.99163887               -0.03000649               -0.02931006                0.09731738                0.00376730                0.02202076               -0.00449060
               7.98423267                0.02507526               40.04498124                1.00000000               -0.03197956               -0.03219404                0.10660442                0.00137821                0.00830468               -0.00036794
               8.98389907                0.02708298               40.04647374                1.00000000               -0.03473372               -0.03496626                0.11589751                0.00138250                0.00810246                0.00094711
               9.98353800                0.02909614               40.04792377                1.00000000               -0.03610744               -0.03783400                0.12511356                0.00122482                0.00594154                0.00539292
              -0.00184375                1.00399100               40.03257891                0.99240720               -0.02415723               -0.02206439                0.07412095                0.00041452                0.00162369                0.00445358
               0.99791468                1.00209738               40.03353833                0.11351090               -0.02606325               -0.02615171                0.08684469                0.00008817                0.00369725               -0.00351301
               1.99763498                1.00021090               40.03454053                0.01000000               -0.14568092               -0.02958335                0.09960925                0.05363377                0.04845981                0.01887198
               2.99500106                0.99937097               40.03640035                0.01000001               -0.29551007                0.00549752                0.14702396                0.17071946                0.07618433                0.00465644
               3.99172478                1.00220975               40.03785641                0.01000000               -0.39278499                0.04368342                0.09894809                0.41807294                0.04096085                0.00961074
               4.98714536                1.00903569               40.03931564                0.01000000               -0.44556040                0.03350395                0.09608297                0.77616603                0.03295888                0.01530456
               5.98281357                1.02075407               40.04101479                0.01000001               -0.22974392               -0.27198252                0.08876608                0.72157346                0.02436536                0.01244058
               6.98255048                1.02277751               40.04269041                0.99203539               -0.02866521               -0.02952790                0.09875590                0.00257741                0.01226059               -0.00445147
               7.98224027                1.02475332               40.04413779                1.00000000               -0.03240133               -0.03239999                0.10798743               -0.00004222                0.00136387               -0.00032384
               8.98190245                1.02673331               40.04559467                0.99999999               -0.03515959               -0.03516357                0.11721945               -0.00003351                0.00123835                0.00059545
               9.98153708                1.02871780               40.04703998                0.99999998               -0.03653747               -0.03802708                0.12642534               -0.00021635                0.00056931                0.00669719
               0.00007441                2.00376737               40.03251329                0.01000000               -0.02484177               -0.00551286                0.07642477                0.00913014                0.00209132                0.10917722
               0.99982599                2.00183149               40.03342176                0.01000000               -0.02516310               -0.09526127                0.08908106                0.01137618                0.03152452                0.09257716
               1.99957115                1.99991601               40.03492536                0.01000001               -0.16225430               -0.09963513                0.09601021                0.07398970                0.07375768                0.08188625
               2.99658091                1.99952160               40.03669837                0.01000000               -0.33456405               -0.03578620                0.10904429                0.37502757                0.05951458                0.02898124
               3.99287987                2.00254253               40.03799312                0.01000000               -0.38706428               -0.02594203                0.10884454                0.72708674                0.02323063                0.03103884
               4.98883962                2.00874900               40.03925275                0.01000001               -0.36787092               -0.10762589                0.10330158                0.97912139                0.00973386                0.04089032
               5.98552245                2.01558389               40.04054794                0.01000000               -0.41243291               -0.37742377                0.10274825                1.04100700                0.00012087                0.03955331
               6.98059096                2.02248005               40.04185341                0.01000000               -0.26232133               -0.21466056                0.10022609                0.61535526               -0.01125739                0.03607125
               7.98027602                2.02442726               40.04329491                0.13952739               -0.03285243               -0.03286476                0.10939107                0.00027791               -0.00578953               -0.00170031
               8.97993391                2.02637970               40.04470928                0.99999997               -0.03556657               -0.03548617                0.11852623                0.00006048               -0.00416889               -0.00173647
               9.97956469                2.02833560               40.04618445                1.00000000               -0.03692231               -0.03844323                0.12772805               -0.00017074               -0.00126697                0.00664879
               0.00221060                3.00388075               40.03453479                0.01000001               -0.02170454                0.01543513                0.07805476                0.02034292                0.00232641                0.22089924
               1.00199356                3.00019216               40.03527305                0.01000001               -0.03929684               -0.19418294                0.08816595                0.11888369                0.00981998                0.17628099
               2.00142467                2.99821819               40.03617594                0.01000000               -0.10592321               -0.21605034                0.09742435                0.32277829                0.02740423                0.11411710
               2.99987509                2.99865525               40.03725019                0.01000000               -0.21927741               -0.15379550                0.10516577                0.64854244                0.03241345                0.05787736
               3.99703912                3.00169091               40.03836202                0.01000008               -0.30943375               -0.14190520                0.10883927                0.94568049                0.02527940                0.05308285
               4.99368642                3.00688317               40.03949779                0.01000000               -0.35682265               -0.20508241                0.11070173                1.15933382                0.01803474                0.06812584
               5.98990267                3.01320559               40.04068050                0.01000001               -0.38360986               -0.26566691                0.11113606                1.17267473                0.00555050                0.08872067
               6.98601422                3.01848430               40.04182609                0.01000001               -0.57782455               -0.33004528                0.11256249                1.22333767               -0.03757693                0.10272091
               7.97834617                3.02409602               40.04242400                0.01000001               -0.40094523               -0.24510543                0.11039125                0.98947427               -0.05525224                0.10991051
               8.97799532                3.02602359               40.04378508                0.01000000               -0.03621525               -0.30041718                0.11981070                0.75745714               -0.00940839                0.10295270
               9.97762187                3.02794894               40.04530273                0.75320207               -0.03734478               -0.65928457                0.12903726                0.88470422               -0.00176933                0.08491887
               0.00785845                4.00407607               40.03655865                0.01000000                0.00077703               -0.04500632                0.08051955                0.19151869               -0.00516389                0.23501540
               1.00786622                3.99794784               40.03692691                0.01000000               -0.01474142               -0.28416831                0.09004717                0.40016346                0.00032230                0.16301546
               2.00756362                3.99559500               40.03738167                0.01000000               -0.08935875               -0.28541791                0.09881619                0.72103285                0.01492618                0.10512751
               3.00607904                3.99644569               40.03805742                0.01000001               -0.19990307               -0.24337323                0.10646595                0.94450016                0.03199524                0.06985801
               4.00356556                3.99970442               40.03897007                0.01000000               -0.27837165               -0.22771425                0.11226797                1.14638042                0.04425777                0.06895328
               5.00051161                4.00464735               40.04008840                0.01000001               -0.30953719               -0.24550515                0.11625215                1.27380738                0.04976989                0.09255373
               5.99737481                4.01027056               40.04133349                0.01000001               -0.31721619               -0.29985722                0.11936334                1.34652135                0.04499751                0.12771487
               6.99416729                4.01587914               40.04257510                0.01000001               -0.24243001               -0.33736582                0.12175713                1.33417619                0.03334207                0.16843604
               7.99252621                4.01952515               40.04381418                0.01000001               -0.14685741               -0.47577918                0.12549683                1.42442807                0.02468033                0.22520640
               8.99123014                4.02037136               40.04499584                0.01000000                0.04409318               -0.57661354                0.13105051                1.01997811                0.00967348                0.22043048
               9.99340808                4.01514991               40.04601659                0.01000001                0.21779394               -0.92650197                0.13891908                0.77714278                0.01169640                0.16062531
               0.01829745                5.00298062               40.03879535                0.01000000                0.01804423               -0.39499574                0.08427095                0.53304985               -0.00990448                0.26951917
               1.01847790                4.99450879               40.03865203                0.01000000               -0.04749943               -0.30832913                0.09296204                0.84158615               -0.00330121                0.17781248
               2.01734746                4.99250984               40.03860298                0.01000001               -0.19111082               -0.26051001                0.10145886                0.99366000                0.01432974                0.08661558
               3.01465568                4.99378779               40.03890862                0.01000000               -0.27911988               -0.27917980                0.10930685                1.15105563                0.04656916                0.06227599
               4.01176507                4.99713662               40.03972972                0.01000001               -0.30296225               -0.25845156                0.11612834                1.25713997                0.08031142                0.07108944
               5.00859643                5.00197307               40.04094352                0.01000001               -0.30818828               -0.26259672                0.12187459                1.31458625                0.10122646                0.10583461
               6.00560130                5.00720845               40.04242107                0.01000008               -0.25766404               -0.30220087                0.12670932                1.27705738                0.10950684                0.15597240
               7.00344315                5.01173698               40.04401307                0.01000000               -0.16293905               -0.40031968                0.13117568                1.18817471                0.10526338                0.21233144
               8.00234252                5.01458044               40.04555074                0.01000001               -0.03365180               -0.48510035                0.13585972                0.98455133                0.08643684                0.25770130
               9.00277012                5.01449132               40.04683358                0.01000000                0.06325532               -0.53120821                0.14145995                0.66320887                0.05212633                0.27133124
              10.00360763                5.00941890               40.04763226                0.01000001                0.08375096               -0.40249432                0.14838421                0.32261842                0.03287280                0.23108510
               0.03546311                5.99617616               40.04159139                0.17905522               -0.02943790               -0.35231089                0.08943347                0.63935123               -0.00358597                0.16541178
               1.03516873                5.99178125               40.04081457                0.01000001               -0.36526402               -0.15053456                0.09640060                0.76549289               -0.02529900                0.11207951
               2.02815782                5.99038480               40.03959132                0.01000000               -0.53476772               -0.27168242                0.10491924                1.04984963               -0.01138224                0.06168111
               3.02447337                5.99086210               40.03966648                0.01000001               -0.38173732               -0.28140166                0.11256888                1.13771817                0.07535288                0.03583728
               4.02052308                5.99453539               40.04048556                0.01000001               -0.38709314               -0.25936354                0.12009276                1.29733227                0.12875119                0.05555096
               5.01673151                5.99939542               40.04193337                0.01000008               -0.36855156               -0.21252654                0.12720873                1.24438742                0.16805081                0.10641313
               6.01315205                6.00422654               40.04381299                0.01000000               -0.30863586               -0.24795921                0.13359292                1.08271363                0.18796678                0.16963184
               7.01055879                6.00787275               40.04589909                0.01000001               -0.18445722               -0.33790978                0.13937000                0.84974276                0.18693004                0.24190989
               8.00946290                6.00982314               40.04791771                0.01000000               -0.04514689               -0.43384676                0.14486213                0.60818533                0.15864708                0.30983767
               9.00965585                6.00974720               40.04948898                0.01000002                0.02711919               -0.42771462                0.15043446                0.33168469                0.09586882                0.35218854
              10.01000529                6.00710002               40.05021057                0.01000001                0.03494327               -0.16432502                0.15662514                0.15903895                0.05661814                0.33632419
               0.03987429                6.99593440               40.04232698                0.99485119               -0.02951822               -0.02661944                0.09502897               -0.00033910               -0.01154261                0.03928338
               1.03957911                6.99149810               40.04135094                0.99713298               -0.03053388               -0.02978837                0.10193222               -0.00038048               -0.01122236                0.01680988
               2.03926361                6.98707619               40.04037175                0.01000000               -0.31598257               -0.18217803                0.10899625                0.60965341                0.02438187                0.01684678
               3.03325946                6.98815975               40.04010328                0.01000001               -0.50426102               -0.42779302                0.11600266                1.18677752                0.09787244               -0.03953975
               4.02917839                6.99194935               40.04103984                0.01000000               -0.47332098               -0.17026871                0.12396509                1.25402084                0.19058113                0.03204280
               5.02379304                6.99772253               40.04292091                0.01000000               -0.52000742               -0.09835304                0.13229891                1.11751571                0.24686222                0.09636276
               6.01877824                7.00224926               40.04533819                0.01000001               -0.44758150               -0.11303594                0.13992077                0.80253168                0.27873451                0.16647268
               7.01484141                7.00497878               40.04816336                0.01000000               -0.30732301               -0.20028924                0.14675259                0.45797400                0.28916153                0.25405704
               8.01263178                7.00590350               40.05100590                0.01000001               -0.13572387               -0.32496785                0.15289138                0.15208829                0.25664168                0.37847526
               9.01212693                7.00593703               40.05327702                0.01000002               -0.02745151               -0.36476060                0.15843788                0.00272105                0.15781180                0.47274991
              10.01208275                7.00613240               40.05413173                0.01000001               -0.00441763               -0.10254492                0.16360596               -0.02889556                0.08876907                0.51567828
               0.04432893                7.99564377               40.04258572                1.00000000               -0.03095984               -0.02977724                0.09963504                0.00073027               -0.00113622                0.02040281
               1.04401933                7.99118549               40.04159422                0.99999999               -0.03198451               -0.03197297                0.10659416                0.00001710               -0.00097868                0.00349711
               2.04368924                7.98674124               40.04060154                0.28569538               -0.03417857               -0.03420442                0.11360222               -0.00025294               -0.00886009               -0.01359663
               3.04333576                7.98230624               40.03945214                0.01000001               -0.38242631               -0.31096588                0.11901230                0.94512027                0.13958108               -0.07022752
               4.03604071                7.99113002               40.04143111                0.01000000               -0.72769252               -0.03799919                0.12855967                1.27400944                0.29141063                0.01790551
               5.02878191                7.99742836               40.04377564                0.01000001               -0.70471413                0.06735550                0.13735239                0.87658996                0.32042666                0.07677024
               6.02194643                8.00196582               40.04676990                0.01000000               -0.63589382                0.05413121                0.14567732                0.51164712                0.36894547                0.14027677
               7.01606403                8.00386697               40.05046579                0.01000001               -0.52000018               -0.00660162                0.15326227                0.09899655                0.43073035                0.22720668
               8.01154643                8.00332378               40.05499175                0.01000002               -0.32913277               -0.11954377                0.16021329               -0.29589826                0.41662676                0.37565342
               9.00948138                8.00245198               40.05859203                0.01000006               -0.12548977               -0.28551942                0.16566074               -0.51307157                0.27837227                0.77644983
              10.00903663                8.00504912               40.06039238                0.01000000               -0.04447464               -0.32594835                0.16982484               -0.36350452                0.18976407                0.73028903
               0.04880546                8.99533886               40.04293541                1.00000000               -0.03234888               -0.03119329                0.10433050                0.00073187                0.00257091                0.02004705
               1.04848197                8.99085864               40.04185987                0.99999998               -0.03338315               -0.03339142                0.11130856                0.00000616                0.00198197                0.00320629
               2.04813780                8.98639210               40.04077288                0.99999873               -0.03544432               -0.03554699                0.11833213                0.00001073               -0.00328707               -0.00959068
               3.04777309                8.98194044               40.03959555                0.01000001               -0.43006707               -0.03747199                0.12539397                0.68447818                0.15639397               -0.01769873
               4.03953646                8.99118937               40.04170889                0.01000000               -0.86420272                0.18038169                0.13364249                0.89918249                0.32535125                0.00717195
               5.03048903                8.99906964               40.04436310                0.01000000               -0.84819407                0.20230332                0.14237144                0.55162310                0.36604821                0.04619685
               6.02257258                9.00333189               40.04778104                0.01000002               -0.75128305                0.17262939                0.15071848                0.23964991                0.43742443                0.08438629
               7.01546337                9.00484675               40.05226761                0.01000002               -0.72218888                0.14268138                0.15848917               -0.04824209                0.54628474                0.13972416
               8.00812880                9.00351263               40.05818948                0.01000004               -0.76616082                0.13502155                0.16568375               -0.38516503                0.83139856                0.25328562
               9.00014016                9.00022664               40.06866702                0.99999997               -0.42552094               -0.13731492                0.17403635               -0.63145349                0.52353104                0.50259209
               9.99961838                8.99961343               40.06866643                0.99999999               -0.05217750               -0.29778045                0.17372138               -0.50153225               -0.00041852                0.41174753
               0.05330400                9.99501990               40.04318403                1.00000000               -0.03377898               -0.03189543                0.10889258               -0.00037067                0.01375250                0.01493541
               1.05296621                9.99051766               40.04209747                1.00000000               -0.03481720               -0.03409830                0.11587495               -0.00105606                0.01723175                0.00158498
               2.05260766                9.98603030               40.04108564                0.99999998               -0.03690782               -0.03617948                0.12288003               -0.00105704                0.01704723               -0.00288733
               3.05222806                9.98155680               40.04000436                0.54182030               -0.78562527               -0.03836370                0.12984159                0.88086424                0.16003128               -0.00499620
               4.03689515                9.99473765               40.04186445                0.01000001               -1.22781034                0.35482854                0.13834515                0.73175086                0.30349485                0.01091984
               5.02767185               10.00147443               40.04450217                0.01000003               -0.79664164                0.24047808                0.14661676                0.25231943                0.36334755                0.02998557
               6.02096232               10.00541841               40.04802204                0.01000001               -0.63766986                0.20865196                0.15453372                0.10128280                0.45515530                0.05063573
               7.01491845               10.00672059               40.05278890                0.01000001               -0.62495401                0.18738420                0.16182094               -0.02420159                0.61645108                0.07933892
               8.00846324               10.00602421               40.05976033                0.01000002               -0.70834749                0.25115885                0.16866562               -0.31730134                0.81359882                0.17606549
               9.00075150                9.99970569               40.06869774                0.99999999               -0.41154203               -0.05209522                0.17323467               -0.28540027                0.44723718                0.00033714
              10.00023240                9.99909352               40.06869714                1.00000000               -0.05191028               -0.05199155                0.17291969                0.00018489                0.00037851               -0.00037820
              -0.00478159                0.00431058               41.03336774                0.99975889               -0.02330741               -0.02161897                0.07103027                0.00253950               -0.00357014                0.00388923
               0.99498534                0.00240477               41.03445908                0.99999999               -0.02527324               -0.02575919                0.08436662                0.00209795               -0.00382696               -0.00143493
               1.99471294                0.00050851               41.03554265                0.01705470               -0.01133685               -0.02993483                0.09774289                0.03554032                0.07027468               -0.00146667
               2.99475860               -0.00070855               41.03811677                0.01000001               -0.06176861               -0.00834601                0.15113869                0.05295792                0.09271663               -0.03696534
               3.99347757                0.00149371               41.03882540                0.01000000               -0.19729948                0.07223609                0.10687443                0.18663665                0.04692343               -0.02464268
               4.99081261                0.00827084               41.04041777                0.01000002               -0.50366785                0.10554624                0.09151675                0.52045664                0.08464403                0.00213534
               5.98340422                0.02174035               41.04262194                0.08256171               -0.38553777               -0.02662070                0.08585048                0.57110711                0.05669048               -0.00183121
               6.98310185                0.02385498               41.04449912                0.98869552               -0.03039672               -0.02924882                0.09708291                0.00476788                0.02285782               -0.00452635
               7.98279628                0.02590822               41.04604706                1.00000000               -0.03195239               -0.03218695                0.10652896                0.00143905                0.00834403               -0.00038114
               8.98246281                0.02796485               41.04763288                1.00000000               -0.03474785               -0.03500410                0.11595201                0.00143758                0.00812726                0.00095153
               9.98210132                0.03002725               41.04917629                0.99999999               -0.03614815               -0.03794223                0.12539443                0.00124582                0.00595781                0.00538822
              -0.00285039                1.00409439               41.03331966                0.98815415               -0.02422673               -0.02203760                0.07405991                0.00053786                0.00167144                0.00447368
               0.99690735                1.00214718               41.03440959                0.13215343               -0.02623046               -0.02631977                0.08740537                0.00006702                0.00373390               -0.00352422
               1.99662501                1.00020916               41.03554249                0.01000000               -0.10558849               -0.03011583                0.10077790                0.04777737                0.07104775                0.01626752
               2.99479558                0.99920799               41.03798404                0.01000001               -0.28853811                0.00294710                0.15161396                0.13933051                0.16235294               -0.05056484
               3.99085424                1.00221607               41.03883953                0.01000000               -0.44508613                0.05692526                0.10509462                0.42404390                0.03049488                0.01053155
               4.98589385                1.00932631               41.04027182                0.01000000               -0.47655131                0.03967498                0.09829600                0.80431134                0.02515816                0.02076102
               5.98132322                1.02147415               41.04189754                0.01000001               -0.24141270               -0.27999438                0.08797742                0.75084599                0.01640792                0.01849614
               6.98106560                1.02356249               41.04367691                0.99137165               -0.02837384               -0.02945901                0.09852803                0.00345094                0.01279686               -0.00447257
               7.98075574                1.02558635               41.04521763                1.00000000               -0.03239679               -0.03239798                0.10797518                0.00000269                0.00137694               -0.00033052
               8.98041766                1.02761480               41.04676781                0.99999999               -0.03521805               -0.03521950                0.11741184               -0.00000101                0.00124171                0.00059256
               9.98005138                1.02964783               41.04830634                0.99999998               -0.03662859               -0.03815593                0.12684535               -0.00022823                0.00056771                0.00669008
              -0.00087641                2.00386982               41.03328101                0.01000000               -0.02516919               -0.00182084                0.07713726                0.01533119                0.00210767                0.10852950
               0.99887190                2.00187837               41.03431959                0.01000000               -0.02579578               -0.09789156                0.09045063                0.01721388                0.02898322                0.09062418
               1.99860768                1.99990620               41.03590197                0.01000001               -0.16668000               -0.10446049                0.09902848                0.07516505                0.07172289                0.07826760
               2.99553830                1.99935039               41.03781270                0.01000000               -0.33837696               -0.03379921                0.10882328                0.34970938                0.04867629               -0.00394503
               3.99184014                2.00263222               41.03909038                0.01000000               -0.39487681               -0.02481777                0.11018776                0.74875920                0.01656439                0.03896935
               4.98764076                2.00906434               41.04028541                0.01000001               -0.38275948               -0.10919719                0.10464995                1.01410843                0.00085881                0.04735740
               5.98418495                2.01614047               41.04157584                0.01000000               -0.42910454               -0.38907209                0.10354691                1.08149546               -0.00965907                0.04950849
               6.97905867                2.02326580               41.04285419                0.01000000               -0.27204610               -0.22092653                0.09999155                0.63880016               -0.01729572                0.04177824
               7.97874402                2.02526026               41.04438891                0.14253970               -0.03286834               -0.03287552                0.10943187                0.00034439               -0.00582026               -0.00174013
               8.97840131                2.02726046               41.04589629                0.99999998               -0.03566543               -0.03558081                0.11887124                0.00009143               -0.00419565               -0.00175284
               9.97803072                2.02926413               41.04746460                1.00000000               -0.03705893               -0.03861540                0.12829408               -0.00018587               -0.00128220                0.00664303
               0.00143914                3.00405797               41.03531604                0.01000001               -0.02238907                0.02077201                0.07816854                0.02645075                0.00125489                0.22045689
               1.00121525                3.00018934               41.03615889                0.01000001               -0.03914305               -0.20023593                0.08896274                0.13003142                0.00835730                0.17350830
               2.00065628                2.99811995               41.03715647                0.01000000               -0.10757557               -0.22455090                0.09846941                0.34190503                0.02489287                0.11207336
               2.99906374                2.99853201               41.03830397                0.01000000               -0.22704032               -0.15264105                0.10568311                0.68105902                0.02866376                0.05161752
               3.99611548                3.00171972               41.03945304                0.01000007               -0.31979837               -0.14691548                0.10968685                0.98597847                0.01784174                0.05184978
               4.99266778                3.00714236               41.04060797                0.01000000               -0.36819054               -0.21133574                0.11169395                1.20577219                0.01069214                0.07337021
               5.98875167                3.01369270               41.04179457                0.01000001               -0.39729811               -0.27359579                0.11209751                1.21776085               -0.00230550                0.09551608
               6.98472181                3.01914396               41.04295565                0.01000001               -0.59918461               -0.34015165                0.11342956                1.26972708               -0.04706865                0.11232372
               7.97676797                3.02492884               41.04353140                0.01000001               -0.41530968               -0.25262096                0.11135346                1.02671110               -0.06104610                0.11684685
               8.97641562                3.02690319               41.04498575                0.01000002               -0.03638313               -0.31080663                0.12032753                0.78637360               -0.00941726                0.10800188
               9.97604031                3.02887552               41.04659671                0.77901171               -0.03753075               -0.68409775                0.12974183                0.91876642               -0.00177337                0.08925788
               0.00738986                4.00428527               41.03736037                0.01000000                0.00206847               -0.04568039                0.07983948                0.20185861               -0.00534407                0.23522652
               1.00741054                3.99787365               41.03782686                0.01000000               -0.01433733               -0.29325550                0.08997355                0.42077916                0.00002616                0.16169382
               2.00710311                3.99541518               41.03837190                0.01000000               -0.09254140               -0.29339665                0.09930445                0.75450931                0.01407849                0.10321555
               3.00555972                3.99629757               41.03912594                0.01000001               -0.20768805               -0.24728245                0.10721482                0.98665757                0.02953030                0.06844431
               4.00294935                3.99969391               41.04009637                0.01000000               -0.28882477               -0.23236392                0.11323602                1.19675817                0.04019877                0.06953580
               4.99978322                4.00483763               41.04125535                0.01000001               -0.32053948               -0.25237066                0.11746106                1.32651075                0.04433932                0.09568611
               5.99653856                4.01066855               41.04253222                0.01000001               -0.32830690               -0.30873476                0.12060481                1.39977322                0.03896870                0.13368234
               6.99321708                4.01646277               41.04379801                0.01000001               -0.25097699               -0.34766782                0.12297461                1.38546261                0.02760871                0.17623969
               7.99151902                4.02020784               41.04507500                0.01000001               -0.15174937               -0.49146786                0.12662102                1.47854627                0.02049702                0.23667131
               8.99018209                4.02104432               41.04631161                0.01000000                0.04711812               -0.59761986                0.13207566                1.05849577                0.00754316                0.22993266
               9.99246138                4.01558218               41.04741114                0.01000000                0.22792895               -0.96267209                0.13995066                0.80669346                0.01090917                0.16851336
               0.01829954                5.00314436               41.03962950                0.01000001                0.02013836               -0.41213699                0.08259170                0.55691111               -0.00957700                0.27015149
               1.01850092                4.99432423               41.03957664                0.01000000               -0.04884956               -0.31717559                0.09208914                0.87886113               -0.00264136                0.17644279
               2.01732255                4.99225202               41.03961677                0.01000001               -0.19913807               -0.26595782                0.10153701                1.03703271                0.01457687                0.08544365
               3.01451816                4.99358636               41.04000396                0.01000000               -0.29059823               -0.28478758                0.11026345                1.20021996                0.04591191                0.06140178
               4.01151059                4.99707244               41.04089605                0.01000001               -0.31474074               -0.26386643                0.11743632                1.31007156                0.07849860                0.07155324
               5.00822335                5.00209495               41.04216846                0.01000001               -0.31942977               -0.26907544                0.12336975                1.36879909                0.09836781                0.10855086
               6.00512199                5.00751801               41.04369484                0.01000000               -0.26657852               -0.31074736                0.12821937                1.32858595                0.10601875                0.16095608
               7.00289178                5.01219061               41.04533146                0.01000000               -0.16823217               -0.41266961                0.13260103                1.23531439                0.10176802                0.21956278
               8.00175735                5.01509948               41.04691578                0.01000001               -0.03402906               -0.50096639                0.13718975                1.02309819                0.08355730                0.26605421
               9.00221120                5.01495079               41.04825455                0.01000000                0.06705650               -0.55017030                0.14271177                0.68873608                0.05042030                0.27954834
              10.00309848                5.00962208               41.04912284                0.01000001                0.08872795               -0.41898142                0.14967269                0.33485129                0.03192015                0.23779724
               0.03616834                5.99604253               41.04247265                0.15765993               -0.02882311               -0.36685561                0.08678361                0.66879856               -0.00384174                0.16602001
               1.03588011                5.99153014               41.04176790                0.01000001               -0.37933486               -0.15352727                0.09426624                0.79808812               -0.02448206                0.11171795
               2.02858164                5.99009602               41.04063774                0.01000000               -0.55682056               -0.27677396                0.10465865                1.09221526               -0.01019141                0.06089212
               3.02474370                5.99060182               41.04079390                0.01000001               -0.39697247               -0.28691393                0.11312788                1.18364163                0.07586279                0.03415566
               4.02064219                5.99441658               41.04169171                0.01000001               -0.40150320               -0.26475290                0.12153837                1.34940113                0.12898339                0.05547973
               5.01671363                5.99945612               41.04321311                0.01000004               -0.38137850               -0.21724998                0.12893402                1.29482806                0.16770213                0.10855362
               6.01301462                6.00445360               41.04515705                0.01000000               -0.31858657               -0.25465824                0.13536721                1.12734998                0.18694827                0.17401567
               7.01034190                6.00820938               41.04730071                0.01000001               -0.18969100               -0.34806098                0.14101182                0.88575495                0.18560334                0.24814855
               8.00922080                6.01018851               41.04937380                0.01000000               -0.04538412               -0.44759159                0.14636112                0.63447126                0.15732159                0.31719609
               9.00943422                6.01004092               41.05100051                0.01000002                0.02975185               -0.44208790                0.15183664                0.34593711                0.09490885                0.35932886
              10.00981584                6.00720255               41.05178427                0.01000001                0.03816208               -0.17168339                0.15803343                0.16567905                0.05597445                0.34166161
               0.04070028                6.99580725               41.04326645                0.98926706               -0.02910895               -0.02610493                0.09342366               -0.00006059               -0.01139519                0.03991529
               1.04040919                6.99125369               41.04236443                0.99471336               -0.03025529               -0.02936019                0.10098609               -0.00021561               -0.01118452                0.01746483
               2.04009517                6.98671654               41.04146121                0.01000000               -0.32693769               -0.18573085                0.10875505                0.63244624                0.02420021                0.01643551
               3.03387044                6.98784808               41.04126340                0.01000001               -0.52254327               -0.43834215                0.11546479                1.22989864                0.09868390               -0.04119168
               4.02964431                6.99177738               41.04228454                0.01000001               -0.48937755               -0.17306275                0.12481225                1.30120621                0.19300417                0.03169774
               5.02408289                6.99774995               41.04425196                0.01000000               -0.53642888               -0.09980942                0.13420200                1.16119606                0.24890767                0.09823588
               6.01891573                7.00242484               41.04674694                0.01000001               -0.46054580               -0.11588345                0.14195051                0.83659677                0.28004432                0.17018829
               7.01487197                7.00522939               41.04963995                0.01000000               -0.31502499               -0.20645609                0.14859833                0.48101999                0.28998117                0.25957056
               8.01261523                7.00614765               41.05254295                0.01000001               -0.13780344               -0.33508409                0.15449322                0.16457658                0.25712458                0.38531272
               9.01211590                7.00610903               41.05486874                0.01000002               -0.02632172               -0.37595276                0.15986001                0.00780435                0.15786277                0.47945163
              10.01208880                7.00618841               41.05577503                0.01000001               -0.00271040               -0.10621964                0.16496488               -0.02697179                0.08851600                0.52012046
               0.04527425                7.99552043               41.04357652                1.00000000               -0.03077468               -0.02951523                0.09881348                0.00083199               -0.00107045                0.02055819
               1.04496650                7.99094294               41.04265823                0.99999999               -0.03190380               -0.03188733                0.10631239                0.00000017               -0.00099089                0.00362180
               2.04463617                7.98638140               41.04173949                0.29217769               -0.03428371               -0.03426818                0.11389183               -0.00004240               -0.00950935               -0.01362605
               3.04428083                7.98183498               41.04065119                0.01000001               -0.39358637               -0.31914785                0.11902798                0.97689216                0.14021592               -0.07062234
               4.03676445                7.99095532               41.04272189                0.01000008               -0.74953696               -0.03758495                0.12887061                1.31778906                0.29459532                0.01879336
               5.02929009                7.99745993               41.04515844                0.01000001               -0.72486641                0.07013617                0.13918141                0.90923119                0.32422224                0.07857020
               6.02226712                8.00213593               41.04823743                0.01000000               -0.65252962                0.05560350                0.14811818                0.53382929                0.37181099                0.14325341
               7.01623950                8.00408026               41.05200868                0.01000001               -0.53172153               -0.00777220                0.15527811                0.10918356                0.43356347                0.23159433
               8.01163269                8.00348683               41.05660188                0.01000002               -0.33449774               -0.12446312                0.16178658               -0.29697223                0.41924923                0.38157000
               9.00954954                8.00252186               41.06025484                0.01000004               -0.12575183               -0.29526571                0.16686233               -0.51930194                0.28002260                0.78403330
              10.00911765                8.00507815               41.06209565                0.01000000               -0.04318915               -0.33029521                0.17077095               -0.36799431                0.19056623                0.73370012
               0.04987190                8.99521695               41.04397793                1.00000000               -0.03236820               -0.03114560                0.10416011                0.00084823                0.00257228                0.02008088
               1.04954822                8.99061594               41.04297475                0.99999998               -0.03348067               -0.03350311                0.11167702                0.00003309                0.00200379                0.00324816
               2.04920229                8.98603118               41.04196077                0.99999998               -0.03569287               -0.03577647                0.11925860                0.00013627               -0.00319085               -0.00954516
               3.04883436                8.98146512               41.04085716                0.01000000               -0.44135740               -0.03796424                0.12688369                0.70587397                0.15713317               -0.01693492
               4.04037514                8.99102568               41.04305525                0.01000000               -0.88737296                0.18580650                0.13527409                0.92860489                0.32780426                0.00851627
               5.03108690                8.99915267               41.04579904                0.01000000               -0.87015721                0.20787349                0.14495229                0.57095654                0.36929300                0.04751083
               6.02297199                9.00353691               41.04930129                0.01000001               -0.76910765                0.17663278                0.15347731                0.25001087                0.44064243                0.08615565
               7.01570475                9.00507394               41.05386391                0.01000002               -0.73689062                0.14504147                0.16077789               -0.04615027                0.54991797                0.14215332
               8.00823418                9.00365838               41.05985418                0.01000000               -0.77831059                0.13599451                0.16723060               -0.39342480                0.83691279                0.25684746
               9.00013854                9.00020372               41.07040865                0.99999997               -0.43089272               -0.14197623                0.17429454               -0.64341951                0.52759376                0.50700039
               9.99961633                8.99958250               41.07040366                0.99999999               -0.05222094               -0.30075708                0.17372380               -0.50608612               -0.00042270                0.41390609
               0.05449322                9.99489751               41.04427560                1.00000000               -0.03402901               -0.03194311                0.10934360               -0.00033163                0.01378922                0.01488878
               1.05415293                9.99027288               41.04326170                1.00000000               -0.03517522               -0.03430668                0.11693044               -0.00111048                0.01730463                0.00156370
               2.05378972                9.98566587               41.04232275                0.99999999               -0.03745641               -0.03653037                0.12457402               -0.00111583                0.01706579               -0.00287389
               3.05340380                9.98107569               41.04131368                0.59198795               -0.80703617               -0.03894299                0.13207989                0.90722345                0.16075060               -0.00498944
               4.03764899                9.99467145               41.04326208                0.01000020               -1.26029077                0.36457720                0.14145407                0.75447109                0.30547398                0.01161894
               5.02819799               10.00161740               41.04598482                0.01000001               -0.81514648                0.24647280                0.15014718                0.26096557                0.36551639                0.03059053
               6.02134607               10.00566859               41.04958353                0.01000001               -0.65014834                0.21316749                0.15796583                0.10559137                0.45739823                0.05129203
               7.01519502               10.00698108               41.05442059                0.01000000               -0.63558242                0.19071409                0.16459774               -0.02406614                0.61913982                0.08022901
               8.00863442               10.00620672               41.06145527                0.01000002               -0.72189948                0.25483331                0.17033905               -0.32491380                0.81646777                0.17748063
               9.00075703                9.99968234               41.07043008                0.99999999               -0.41980296               -0.05213819                0.17323436               -0.29533559                0.44932752                0.00033775
              10.00023836                9.99906301               41.07042508                1.00000000               -0.05186750               -0.05194922                0.17266360                0.00027065                0.00038033               -0.00038010
              -0.00597520                0.00438259               42.03407407                0.99790371               -0.02321204               -0.02153834                0.07045124                0.00272417               -0.00351317                0.00398184
               0.99379268                0.00242481               42.03530186                0.99999999               -0.02524634               -0.02584197                0.08430071                0.00218763               -0.00379758               -0.00138050
               1.99351987                0.00047865               42.03652239                0.03136753               -0.00278653               -0.03017279                0.09818114                0.02181127                0.07552303               -0.00148739
               2.99373694               -0.00106220               42.03933770                0.01000001               -0.03496429               -0.02740576                0.10029776                0.15486846                0.04299893               -0.02540051
               3.99282058                0.00114775               42.03998625                0.01000000               -0.19899886                0.10076522                0.11422817                0.19641835                0.01176547               -0.03201883
               4.98975697                0.00841353               42.04137744                0.01000000               -0.54676617                0.11697429                0.09924642                0.54775308                0.05988201                0.00351920
               5.98188526                0.02243572               42.04347571                0.07498377               -0.40931390               -0.02656347                0.08512900                0.59568781                0.04821416               -0.00200433
               6.98157069                0.02462451               42.04546837                0.98583784               -0.03097319               -0.02915222                0.09676325                0.00610194                0.02384589               -0.00456282
               7.98126580                0.02672649               42.04711182                1.00000000               -0.03191511               -0.03216302                0.10641053                0.00149363                0.00833504               -0.00041132
               8.98093239                0.02883216               42.04879278                1.00000000               -0.03477349               -0.03503973                0.11602028                0.00148514                0.00811236                0.00095782
               9.98057033                0.03094381               42.05043166                0.99999999               -0.03620609               -0.03805099                0.12568553                0.00126904                0.00595921                0.00538593
              -0.00399017                1.00416721               42.03406011                0.98394825               -0.02433016               -0.02205034                0.07413385                0.00064769                0.00173298                0.00452378
               0.99576652                1.00216639               42.03528644                0.15142165               -0.02641698               -0.02650621                0.08800845                0.00008638                0.00377984               -0.00348899
               1.99548149                1.00017692               42.03655609                0.01000000               -0.04077215               -0.03056293                0.10188519                0.02449874                0.08602947                0.01409276
               2.99495108                0.99866374               42.03943263                0.01000001               -0.27172932                0.00924909                0.11716700                0.13037785                0.12482824               -0.06856796
               3.99004690                1.00215540               42.03995830                0.01000000               -0.51802836                0.07803262                0.11380317                0.44187032               -0.00781539                0.00083475
               4.98459051                1.00958327               42.04128156                0.01000000               -0.51551264                0.04732372                0.10251639                0.83145230                0.00293761                0.02219568
               5.97973665                1.02217008               42.04277434                0.01000001               -0.25520971               -0.28793410                0.08776634                0.78124701                0.00539000                0.02533761
               6.97948632                1.02433299               42.04466097                0.99070218               -0.02798678               -0.02938208                0.09827729                0.00480397                0.01338311               -0.00450320
               7.97917691                1.02640486               42.04629729                1.00000000               -0.03238700               -0.03239039                0.10794620                0.00002454                0.00138099               -0.00034458
               8.97883858                1.02848176               42.04794291                0.99999999               -0.03527752               -0.03527266                0.11760273                0.00001808                0.00124483                0.00061035
               9.97847136                1.03056330               42.04957689                0.99999897               -0.03672189               -0.03828611                0.12726870               -0.00024069                0.00057189                0.00668338
              -0.00196060                2.00394159               42.03405603                0.01000000               -0.02547062                0.00216533                0.07785099                0.02231840                0.00211447                0.10721357
               0.99778469                2.00189468               42.03523077                0.01000000               -0.02634540               -0.10056694                0.09171980                0.02397774                0.02683937                0.08807429
               1.99751249                1.99986739               42.03690593                0.01000001               -0.17093336               -0.10935954                0.10129027                0.07620277                0.06580239                0.07377889
               2.99436602                1.99912278               42.03887484                0.01000000               -0.33870176               -0.01446848                0.10498108                0.30208591                0.04572035               -0.02512675
               3.99073845                2.00270840               42.04019687                0.01000000               -0.39973466               -0.02167455                0.10923930                0.76411404                0.00501752                0.03268207
               4.98637133                2.00936001               42.04134575                0.01000001               -0.39889859               -0.11013241                0.10705935                1.04684303               -0.01269702                0.04973407
               5.98276048                2.01667703               42.04261888                0.01000000               -0.44696727               -0.40052711                0.10511011                1.12245449               -0.02258629                0.05943515
               6.97743199                2.02403687               42.04385324                0.01000000               -0.28214815               -0.22730188                0.09981234                0.66256734               -0.02427837                0.04801151
               7.97711752                2.02607869               42.04548355                0.14606822               -0.03288379               -0.03289976                0.10948881                0.00040364               -0.00580672               -0.00125044
               8.97677431                2.02812670               42.04708670                0.99999995               -0.03575470               -0.03567279                0.11921187                0.00012421               -0.00417152               -0.00171680
               9.97640243                2.03017809               42.04875033                1.00000000               -0.03718845               -0.03878758                0.12885076               -0.00020554               -0.00127552                0.00663007
               0.00055000                3.00421052               42.03609816                0.01000001               -0.02297296                0.02627782                0.07818692                0.03341241                0.00031625                0.21866587
               1.00032027                3.00015505               42.03705230                0.01000001               -0.03862803               -0.20653646                0.08964126                0.14248680                0.00673956                0.16952922
               1.99977744                2.99798973               42.03814533                0.01000000               -0.10842417               -0.23341895                0.09910863                0.36264759                0.02189668                0.10812539
               2.99815179                2.99837437               42.03936385                0.01000000               -0.23427450               -0.15040990                0.10578903                0.71556657                0.02312121                0.04936109
               3.99509195                3.00172191               42.04055576                0.01000003               -0.32965257               -0.15281320                0.11073369                1.02539599                0.01113608                0.05055403
               4.99155874                3.00738063               42.04173167                0.01000000               -0.37915415               -0.21797134                0.11309515                1.25144249                0.00187410                0.07625674
               5.98750887                3.01415954               42.04292245                0.01000001               -0.41113629               -0.28165520                0.11357034                1.26286891               -0.01146593                0.10142346
               6.98333601                3.01978695               42.04409468                0.01000001               -0.62068585               -0.35043698                0.11449806                1.31660142               -0.05720371                0.12225652
               7.97509515                3.02574687               42.04465107                0.01000001               -0.42971769               -0.26022433                0.11240327                1.06431898               -0.06720686                0.12420292
               8.97474166                3.02776830               42.04619163                0.01000000               -0.03653389               -0.32127465                0.12086553                0.81556133               -0.00984950                0.11326880
               9.97436448                3.02978755               42.04789757                0.80545832               -0.03771843               -0.70920195                0.13042519                0.95316336               -0.00177603                0.09366366
               0.00681859                4.00446714               42.03815544                0.01000003                0.00366282               -0.04695739                0.07912972                0.21276157               -0.00550772                0.23399311
               1.00685521                3.99776395               42.03872638                0.01000000               -0.01362335               -0.30292165                0.08999149                0.44246944               -0.00025883                0.15909710
               2.00654612                3.99519901               42.03936776                0.01000000               -0.09550173               -0.30184308                0.09998325                0.78924333                0.01273305                0.10093779
               3.00494518                3.99611458               42.04020171                0.01000008               -0.21530002               -0.25132583                0.10830397                1.02979855                0.02678596                0.06749925
               4.00224012                3.99965214               42.04123479                0.01000000               -0.29913144               -0.23747798                0.11468398                1.24822929                0.03570866                0.07023766
               4.99896255                4.00500058               42.04243762                0.01000001               -0.33142925               -0.25971515                0.11919147                1.37990271                0.03847596                0.09853711
               5.99561153                4.01104393               42.04374558                0.01000001               -0.33929328               -0.31783996                0.12221660                1.45386823                0.03217210                0.13909660
               6.99217668                4.01702813               42.04503459                0.01000001               -0.25944913               -0.35807118                0.12439046                1.43759163                0.02119278                0.18383066
               7.99042255                4.02087420               42.04634660                0.01000002               -0.15659149               -0.50720767                0.12774986                1.53342466                0.01582941                0.24786739
               8.98904485                4.02170121               42.04763736                0.01000000                0.05023239               -0.61874579                0.13305844                1.09748254                0.00519180                0.23958504
               9.99142720                4.01599405               42.04881560                0.01000001                0.23823435               -0.99929189                0.14088770                0.83653329                0.00998885                0.17644914
               0.01821162                5.00327137               42.04044719                0.01000003                0.02261773               -0.43037702                0.08096970                0.58138457               -0.00901448                0.26919225
               1.01843780                4.99409661               42.04049382                0.01000000               -0.04999682               -0.32680633                0.09153009                0.91701420               -0.00165457                0.17354473
               2.01721168                4.99195287               42.04063372                0.01000001               -0.20715777               -0.27204029                0.10213895                1.08165551                0.01530998                0.08381796
               3.01429464                4.99334785               42.04111389                0.01000000               -0.30205700               -0.29144010                0.11173584                1.25054794                0.04513738                0.06060083
               4.01117054                4.99697235               42.04207844                0.01000001               -0.32648200               -0.26978195                0.11945361                1.36409452                0.07599597                0.07231354
               5.00776500                5.00218632               42.04341091                0.01000001               -0.33059295               -0.27587914                0.12533629                1.42440266                0.09481259                0.11105742
               6.00455868                5.00780274               42.04498546                0.01000002               -0.27537113               -0.31945917                0.13003490                1.38155421                0.10182688                0.16562881
               7.00225758                5.01262553               42.04666509                0.01000000               -0.17340562               -0.42504496                0.13417141                1.28386982                0.09768447                0.22643681
               8.00109057                5.01560271               42.04829453                0.01000000               -0.03430586               -0.51671552                0.13854312                1.06274217                0.08026789                0.27421404
               9.00157146                5.01539339               42.04968782                0.01000000                0.07094449               -0.56908129                0.14390532                0.71488505                0.04849141                0.28765985
              10.00250946                5.00980171               42.05062571                0.01000001                0.09380000               -0.43564908                0.15081961                0.34733496                0.03086966                0.24440088
               0.03679579                5.99585960               42.04332706                0.13755303               -0.02817890               -0.38212656                0.08404144                0.69876288               -0.00399054                0.16626193
               1.03651400                5.99122783               42.04269989                0.01000001               -0.39338986               -0.15697750                0.09221090                0.83107330               -0.02286603                0.11069850
               2.02892799                5.98975821               42.04168449                0.01000000               -0.57886693               -0.28248610                0.10531865                1.13474601               -0.00834396                0.05956654
               3.02493666                5.99028578               42.04192904                0.01000001               -0.41222253               -0.29346132                0.11590147                1.23067282                0.07624155                0.03201552
               4.02068354                5.99425650               42.04291633                0.01000001               -0.41582235               -0.27096113                0.12377044                1.40382944                0.12900041                0.05471388
               5.01662021                5.99948300               42.04451205                0.01000001               -0.39400642               -0.22222014                0.13115285                1.34710171                0.16643796                0.11056706
               6.01280341                6.00465475               42.04652033                0.01000000               -0.32830534               -0.26150445                0.13734632                1.17383479                0.18521189                0.17801676
               7.01005411                6.00852723               42.04871933                0.01000001               -0.19469366               -0.35816505                0.14270681                0.92362950                0.18371980                0.25401159
               8.00890954                6.01053989               42.05084494                0.01000000               -0.04552735               -0.46105199                0.14782599                0.66236285                0.15568668                0.32422645
               9.00914356                6.01031958               42.05252571                0.01000002                0.03238549               -0.45608315                0.15315037                0.36109137                0.09380631                0.36624829
              10.00955725                6.00728107               42.05337124                0.01000001                0.04136887               -0.17891390                0.15925206                0.17270096                0.05525328                0.34674192
               0.04145043                6.99562884               42.04419546                0.98155275               -0.02897718               -0.02580746                0.09280644                0.00023905               -0.01135560                0.04100765
               1.04116066                6.99095706               42.04337066                0.99274951               -0.03008907               -0.02901116                0.10040448               -0.00015712               -0.01121871                0.01853339
               2.04084865                6.98630315               42.04254685                0.01000000               -0.33754257               -0.18945202                0.10821146                0.65498294                0.02344774                0.01562084
               3.03440981                6.98747863               42.04241257                0.01000001               -0.53993676               -0.44928744                0.11420584                1.27355004                0.10042560               -0.04858146
               4.03004991                6.99155313               42.04353608                0.01000001               -0.50505114               -0.17606631                0.12658605                1.35025635                0.19564063                0.03047401
               5.02430878                6.99774192               42.04560495                0.01000000               -0.55293859               -0.10151572                0.13666852                1.20750641                0.25084036                0.09921778
               6.01899114                7.00257265               42.04817720                0.01000001               -0.47318797               -0.11891028                0.14420894                0.87246555                0.28044769                0.17366706
               7.01484502                7.00546223               42.05113533                0.01000000               -0.32228322               -0.21261701                0.15036625                0.50628832                0.29023914                0.26458561
               8.01254548                7.00638167               42.05409576                0.01000001               -0.13964585               -0.34479706                0.15598528                0.17926014                0.25734008                0.39175543
               9.01205211                7.00627172               42.05647422                0.01000002               -0.02524841               -0.38634180                0.16116297                0.01431328                0.15782091                0.48583087
              10.01204051                7.00622343               42.05743103                0.01000001               -0.00115986               -0.10932874                0.16611936               -0.02437381                0.08819527                0.52416363
               0.04614412                7.99534345               42.04456199                1.00000000               -0.03075687               -0.02937215                0.09844633                0.00105716               -0.00113163                0.02054757
               1.04583655                7.99064760               42.04372047                0.99999999               -0.03190148               -0.03184674                0.10625432                0.00021339               -0.00112363                0.00370501
               2.04550609                7.98596917               42.04287938                0.30222201               -0.03394322               -0.03426046                0.11399922               -0.00023233               -0.01156954               -0.01361131
               3.04515768                7.98130003               42.04183270                0.01000001               -0.40403564               -0.32696893                0.10856649                1.00887317                0.13832461               -0.06947855
               4.03742537                7.99073517               42.04400852                0.01000001               -0.77034331               -0.03668148                0.12754024                1.36267001                0.30359437                0.01863163
               5.02975082                7.99745268               42.04655927                0.01000000               -0.74464798                0.07257804                0.14297620                0.94307214                0.32784695                0.07982585
               6.02253241                8.00227654               42.04973226                0.01000000               -0.66899842                0.05681233                0.15049615                0.55758142                0.37401497                0.14571976
               7.01637085                8.00427489               42.05357135                0.01000001               -0.54235837               -0.00921594                0.15718280                0.12156103                0.43557723                0.23549501
               8.01168525                8.00364395               42.05822748                0.01000002               -0.33913911               -0.12927419                0.16319545               -0.29526532                0.42155944                0.38709029
               9.00958807                8.00259275               42.06192928                0.01000000               -0.12594474               -0.30401562                0.16796475               -0.52295018                0.28150358                0.79102863
              10.00916635                8.00509449               42.06380780                0.01000000               -0.04217141               -0.33306571                0.17157826               -0.37085567                0.19117181                0.73649399
               0.05086328                8.99504140               42.04501862                1.00000000               -0.03240615               -0.03105609                0.10391487                0.00104748                0.00260202                0.01997787
               1.05053921                8.99032013               42.04409341                0.99999998               -0.03358506               -0.03362886                0.11211832                0.00025788                0.00204892                0.00325987
               2.05019157                8.98561794               42.04315805                1.00000000               -0.03589737               -0.03601516                0.12023553                0.00050135               -0.00315587               -0.00945901
               3.04982127                8.98093925               42.04213322                0.01000001               -0.45204559               -0.03780354                0.12816767                0.72738053                0.15750705               -0.01485299
               4.04115066                8.99081950               42.04441437                0.01000000               -0.90962053                0.19105996                0.13655388                0.95811772                0.33083186                0.01041907
               5.03162886                8.99919348               42.04726215                0.01000000               -0.89150516                0.21309957                0.14827648                0.58996583                0.37244825                0.04878395
               6.02332056                9.00370890               42.05085059                0.01000001               -0.78600090                0.18016145                0.15635350                0.26132679                0.44293144                0.08730139
               7.01590884                9.00527791               42.05548317                0.01000002               -0.74991214                0.14684612                0.16293077               -0.04270201                0.55260931                0.14427005
               8.00832232                9.00379619               42.06153409                0.01000001               -0.78831402                0.13638589                0.16862541               -0.39943204                0.84151439                0.26015180
               9.00014256                9.00019141               42.07215291                0.99999997               -0.43512068               -0.14615848                0.17456379               -0.65269484                0.53116011                0.51109055
               9.99961990                8.99956212               42.07214090                0.99999999               -0.05226549               -0.30257104                0.17372309               -0.50874652               -0.00042704                0.41575206
               0.05560760                9.99472233               42.04537090                0.99999999               -0.03424346               -0.03190632                0.10954845               -0.00029857                0.01393478                0.01483782
               1.05526516                9.98997503               42.04443608                0.99999998               -0.03553011               -0.03451043                0.11786217               -0.00107870                0.01757612                0.00154305
               2.05489699                9.98524886               42.04357712                0.99999999               -0.03807130               -0.03690754                0.12634957               -0.00101130                0.01729820               -0.00284471
               3.05450374                9.98054396               42.04264595                0.63989049               -0.82817495               -0.03952889                0.13469720                0.93362219                0.16186552               -0.00507541
               4.03833349                9.99455637               42.04469353                0.01000000               -1.29215018                0.37368729                0.14533053                0.77681895                0.30729074                0.01295088
               5.02866073               10.00171467               42.04750511                0.01000000               -0.83294873                0.25211921                0.15418934                0.26935762                0.36692505                0.03098685
               6.02167452               10.00587977               42.05118136                0.01000000               -0.66156092                0.21708726                0.16170951                0.11025322                0.45844877                0.05159377
               7.01542951               10.00721182               42.05608085                0.01000004               -0.64457078                0.19339049                0.16739826               -0.02333766                0.62037380                0.08088650
               8.00878310               10.00637167               42.06316711                0.01000002               -0.73306367                0.25754743                0.17196224               -0.33103302                0.81773453                0.17871059
               9.00076824                9.99966958               42.07216243                0.99999999               -0.42665501               -0.05218335                0.17323734               -0.30386137                0.45070428                0.00033812
              10.00025000                9.99904307               42.07215041                1.00000000               -0.05182356               -0.05190467                0.17239638                0.00035970                0.00038237               -0.00038172
              -0.00730745                0.00441812               43.03477676                0.99618147               -0.02314943               -0.02152224                0.07010937                0.00289648               -0.00353704                0.00401499
               0.99246106                0.00240801               43.03614509                0.99999999               -0.02524910               -0.02595245                0.08434150                0.00225430               -0.00386559               -0.00135193
               1.99218757                0.00041138               43.03750627                0.04590622               -0.01531685               -0.03038917                0.09857578                0.01046204                0.05853110               -0.00149528
               2.99215472               -0.00140642               43.04012272                0.01000001               -0.02572124               -0.02940865                0.08089360                0.19841404                0.02088985               -0.01121408
               3.99167314                0.00090924               43.04110996                0.01000000               -0.18169653                0.11129069                0.10492940                0.21455605               -0.01603497               -0.02001154
               4.98852079                0.00853298               43.04240270                0.01000002               -0.56977853                0.12689223                0.10115870                0.57126598                0.02671838                0.00384354
               5.98027757                0.02310301               43.04432452                0.06783225               -0.42890619               -0.02652716                0.08440072                0.61967965                0.03645024               -0.00239608
               6.97994266                0.02537851               43.04643439                0.98316546               -0.03195006               -0.02909519                0.09648027                0.00806646                0.02479867               -0.00465156
               7.97963857                0.02752904               43.04817528                1.00000000               -0.03187249               -0.03213114                0.10626868                0.00154668                0.00823183               -0.00043335
               8.97930521                0.02968374               43.04995329                1.00000000               -0.03479141               -0.03506539                0.11605391                0.00154943                0.00805269                0.00096859
               9.97894274                0.03184452               43.05169001                0.99999999               -0.03624712               -0.03816918                0.12600422                0.00128982                0.00590390                0.00536061
              -0.00526838                1.00420290               43.03480234                0.97985657               -0.02446552               -0.02210348                0.07432790                0.00075107                0.00176054                0.00451544
               0.99448697                1.00214849               43.03616976                0.17102795               -0.02661116               -0.02670081                0.08861954                0.00011620                0.00381920               -0.00347250
               1.99419940                1.00010749               43.03758020                0.01000000               -0.02985205               -0.03094238                0.10293379                0.01215516                0.07256704                0.01195113
               2.99388993                0.99829950               43.04032738                0.01000001               -0.26751990                0.01615253                0.08763333                0.14608497                0.05399296               -0.04214536
               3.98884900                1.00202215               43.04111559                0.01000000               -0.53766821                0.08895811                0.10860915                0.46494176               -0.03599566               -0.00436593
               4.98313656                1.00980191               43.04232215                0.01000000               -0.53986992                0.05379667                0.10341082                0.86298103               -0.02733224                0.02121499
               5.97805160                1.02283774               43.04365286                0.01000001               -0.26631263               -0.29609737                0.08793188                0.81169091               -0.00767553                0.03249612
               6.97781031                1.02508756               43.04564245                0.99004349               -0.02750902               -0.02930915                0.09803733                0.00678830                0.01363291               -0.00456596
               7.97750142                1.02720773               43.04737656                0.99999999               -0.03236701               -0.03237819                0.10789620                0.00006884                0.00137678               -0.00037457
               8.97716297                1.02933308               43.04911986                0.99999999               -0.03532805               -0.03531722                0.11777201                0.00004855                0.00125227                0.00066446
               9.97679486                1.03146282               43.05085172                0.99999999               -0.03681075               -0.03842336                0.12771270               -0.00026547                0.00058011                0.00665698
              -0.00318360                2.00397605               43.03483803                0.01000000               -0.02576047                0.00644900                0.07853614                0.03007237                0.00211327                0.10517322
               0.99655879                2.00187399               43.03615398                0.01000000               -0.02683678               -0.10320840                0.09285590                0.03161924                0.02476875                0.08492355
               1.99627966                1.99979253               43.03792778                0.01000001               -0.16985163               -0.11434311                0.10254134                0.08129510                0.05756091                0.06825483
               2.99316176                1.99891663               43.03991233                0.01000000               -0.34050451               -0.00535729                0.10168744                0.30608404                0.03828724               -0.01593733
               3.98946957                2.00268840               43.04127516                0.01000000               -0.40984691               -0.01646326                0.10671717                0.79068317               -0.00974107                0.02374161
               4.98496482                2.00960892               43.04242659                0.01000001               -0.41219162               -0.11131388                0.10793803                1.08473280               -0.02797195                0.04966686
               5.98122574                2.01718106               43.04367805                0.01000000               -0.46281922               -0.41216338                0.10632516                1.16455730               -0.03842114                0.06901448
               6.97570844                2.02479233               43.04485044                0.01000000               -0.29156569               -0.23399092                0.09959666                0.68696164               -0.03229993                0.05478825
               7.97539442                2.02688148               43.04657868                0.15027990               -0.03286722               -0.03289448                0.10947820                0.00052609               -0.00572473               -0.00039660
               8.97505109                2.02897739               43.04828052                0.99999999               -0.03582344               -0.03575853                0.11955159                0.00018631               -0.00407256               -0.00158849
               9.97467795                2.03107605               43.05004161                1.00000000               -0.03731366               -0.03896534                0.12941394               -0.00023156               -0.00123460                0.00658765
              -0.00046282                3.00433188               43.03687977                0.01000000               -0.02343110                0.03200246                0.07805357                0.04131517               -0.00065018                0.21550843
               0.99930287                3.00008432               43.03795171                0.01000001               -0.03772609               -0.21299571                0.09016177                0.15614997                0.00466008                0.16448599
               1.99878266                2.99782062               43.03913864                0.01000000               -0.10935679               -0.24234924                0.09953258                0.38554080                0.01736373                0.10366236
               2.99711574                2.99819235               43.04041975                0.01000000               -0.24061395               -0.15095538                0.10615203                0.74694530                0.01674104                0.04976931
               3.99397038                3.00169288               43.04166772                0.01000001               -0.33885878               -0.15562120                0.11156713                1.06706620                0.00428719                0.05080353
               4.99033856                3.00757563               43.04286987                0.01000000               -0.39055223               -0.22398949                0.11454624                1.29893571               -0.00824655                0.07772575
               5.98615934                3.01459447               43.04406597                0.01000001               -0.42447181               -0.28967899                0.11505282                1.30957056               -0.02200579                0.10635777
               6.98184913                3.02040774               43.04524561                0.01000001               -0.64162293               -0.36116776                0.11558482                1.36434286               -0.06836529                0.13251006
               7.97332688                3.02654984               43.04577947                0.01000001               -0.44385000               -0.26798791                0.11343867                1.10242974               -0.07375770                0.13212314
               8.97297213                3.02861791               43.04740306                0.01000000               -0.03669789               -0.33187752                0.12146477                0.84497564               -0.01047923                0.11875583
               9.97259292                3.03068352               43.04920522                0.83262043               -0.03792031               -0.73465161                0.13111872                0.98789574               -0.00177007                0.09806716
               0.00613782                4.00461610               43.03894297                0.01000003                0.00552249               -0.04876448                0.07828958                0.22423834               -0.00568444                0.23135865
               1.00619304                3.99761408               43.03962669                0.01000000               -0.01276882               -0.31313499                0.09022915                0.46539372               -0.00070693                0.15562923
               2.00588244                3.99494555               43.04037157                0.01000000               -0.09823181               -0.31044848                0.10108859                0.82547313                0.01098771                0.09876693
               3.00422841                3.99589753               43.04129201                0.01000008               -0.22274128               -0.25606499                0.10999241                1.07454398                0.02338081                0.06732677
               4.00142762                3.99957598               43.04239005                0.01000000               -0.30932297               -0.24278530                0.11673580                1.29973468                0.03036627                0.07118263
               4.99804195                4.00512913               43.04363918                0.01000001               -0.34212906               -0.26669781                0.12125029                1.43427627                0.03167273                0.10085899
               5.99458504                4.01138748               43.04497655                0.01000001               -0.35010137               -0.32693142                0.12405560                1.50924298                0.02425723                0.14377740
               6.99103992                4.01756897               43.04628582                0.01000000               -0.26760950               -0.36865678                0.12588800                1.49107523                0.01389562                0.19095714
               7.98923285                4.02152172               43.04762999                0.01000001               -0.16114967               -0.52322077                0.12890412                1.58919829                0.01058461                0.25896046
               8.98781693                4.02233984               43.04897278                0.01000000                0.05359086               -0.64011410                0.13403074                1.13695084                0.00260180                0.24929704
               9.99030466                4.01638302               43.05022890                0.01000004                0.24877356               -1.03645304                0.14173969                0.86667505                0.00896159                0.18428398
               0.01802599                5.00335659               43.04124889                0.01000003                0.02553106               -0.44983041                0.07927700                0.60675505               -0.00823633                0.26675205
               1.01828130                4.99382162               43.04140725                0.01000000               -0.05086562               -0.33734058                0.09136008                0.95636902               -0.00037996                0.16921836
               2.01700868                4.99161165               43.04165955                0.01000001               -0.21525581               -0.27856651                0.10340635                1.12763045                0.01597394                0.08225605
               3.01397619                4.99307105               43.04223868                0.01000000               -0.31376008               -0.29770408                0.11407018                1.30169017                0.04393948                0.06127706
               4.01073348                4.99683718               43.04328512                0.01000001               -0.33817998               -0.27613805                0.12191585                1.41910975                0.07276250                0.07315829
               5.00721259                5.00224167               43.04467519                0.01000001               -0.34145621               -0.28278538                0.12770714                1.48075525                0.08993884                0.11316017
               6.00390435                5.00805584               43.04629554                0.01000001               -0.28380975               -0.32826427                0.13201164                1.43597384                0.09664460                0.16950828
               7.00153639                5.01303461               43.04801489                0.01000000               -0.17821882               -0.43748020                0.13578501                1.33406778                0.09288153                0.23260536
               8.00033998                5.01608542               43.04968664                0.01000000               -0.03432727               -0.53249560                0.13987111                1.10381665                0.07659038                0.28192370
               9.00084985                5.01581563               43.05113266                0.01000000                0.07500509               -0.58801837                0.14504713                0.74180710                0.04640811                0.29550440
              10.00184008                5.00995446               43.05213923                0.01000001                0.09902325               -0.45254763                0.15181823                0.36014145                0.02976372                0.25070795
               0.03734286                5.99561949               43.04415348                0.11828372               -0.02775027               -0.39820568                0.08139756                0.72961649               -0.00392283                0.16677335
               1.03706536                5.99086727               43.04361211                0.01000001               -0.40786210               -0.16089200                0.09065198                0.86534222               -0.02002192                0.10914598
               2.02918562                5.98937422               43.04274411                0.01000000               -0.60143336               -0.28887909                0.10696254                1.17948565               -0.00390145                0.05761943
               3.02503669                5.98994345               43.04311193                0.01000001               -0.42732133               -0.30491304                0.11805261                1.27962675                0.07657700                0.02958548
               4.02063919                5.99405322               43.04416712                0.01000001               -0.42991506               -0.27712532                0.12724244                1.45806186                0.12584805                0.05498279
               5.01643839                5.99947342               43.04583617                0.01000001               -0.40638062               -0.22772962                0.13354900                1.40074835                0.16380066                0.11205208
               6.01251158                6.00482219               43.04790397                0.01000000               -0.33733491               -0.26847928                0.13932898                1.22179546                0.18233032                0.18129430
               7.00969169                6.00881937               43.05015485                0.01000001               -0.19917131               -0.36827629                0.14427042                0.96357056                0.18129030                0.25894530
               8.00852815                6.01087181               43.05233032                0.01000000               -0.04538266               -0.47426092                0.14917689                0.69216346                0.15387141                0.33059698
               9.00878404                6.01057948               43.05406352                0.01000001                0.03508451               -0.46967751                0.15436263                0.37737305                0.09269299                0.37272842
              10.00922984                6.00733206               43.05496931                0.01000000                0.04458052               -0.18596640                0.16026053                0.18020894                0.05453132                0.35136413
               0.04212277                6.99539247               43.04512258                0.97523310               -0.02893456               -0.02556365                0.09233243                0.00071988               -0.01195319                0.04286264
               1.04183342                6.99060378               43.04437252                0.98382461               -0.03002761               -0.02864926                0.10042549                0.00014427               -0.01172955                0.02039299
               2.04152222                6.98583407               43.04362544                0.01000000               -0.34718512               -0.19381187                0.10873497                0.67379761                0.02153833                0.01414883
               3.03488972                6.98697279               43.04354751                0.01000001               -0.55787377               -0.46093444                0.12646886                1.31710418                0.09850619               -0.05816437
               4.03036474                6.99129467               43.04481626                0.01000000               -0.52155718               -0.18017743                0.12824276                1.40924290                0.19863604                0.02622114
               5.02445858                6.99768708               43.04698533                0.01000000               -0.56852137               -0.10370826                0.14002210                1.25382416                0.25018992                0.10163106
               6.01899431                7.00268625               43.04963112                0.01000001               -0.48501932               -0.12226268                0.14608024                0.91028820                0.27957722                0.17595623
               7.01475819                7.00566908               43.05264727                0.01000000               -0.32855868               -0.21885287                0.15179915                0.53390407                0.28997378                0.26863296
               8.01242314                7.00660021               43.05566265                0.01000001               -0.14105696               -0.35407500                0.15722904                0.19653971                0.25759152                0.39738958
               9.01193705                7.00642208               43.05809200                0.01000002               -0.02420285               -0.39578647                0.16231244                0.02250940                0.15790711                0.49168883
              10.01193908                7.00623513               43.05909741                0.01000001                0.00020316               -0.11169489                0.16703181               -0.02098458                0.08793724                0.52770363
               0.04693465                7.99510822               43.04554545                1.00000000               -0.03080066               -0.02924427                0.09800184                0.00118555               -0.00150646                0.02013212
               1.04662664                7.99029428               43.04478331                0.99999999               -0.03210467               -0.03191223                0.10657852                0.00030496               -0.00155373                0.00388061
               2.04629256                7.98549798               43.04401948                0.31434776               -0.03542332               -0.03449081                0.11469055                0.00038075               -0.02349313               -0.01314431
               3.04591818                7.98072476               43.04282252                0.01000001               -0.40913986               -0.33089911                0.05778890                1.03950758                0.15434994               -0.07554066
               4.03810976                7.99044967               43.04527269                0.01000000               -0.78974452               -0.03728068                0.14120595                1.40863039                0.31509453                0.01903958
               5.03012329                7.99739925               43.04801796                0.01000000               -0.76872088                0.07477175                0.14567237                0.97841723                0.33087474                0.08033144
               6.02273534                8.00237694               43.05124735                0.01000000               -0.68337339                0.05737968                0.15261585                0.58291720                0.37358728                0.14714432
               7.01645582                8.00444231               43.05515233                0.01000001               -0.55146987               -0.01096194                0.15852995                0.13643048                0.43729470                0.23845740
               8.01170594                8.00379031               43.05986579                0.01000002               -0.34282581               -0.13392056                0.16426607               -0.29034869                0.42385357                0.39187368
               9.00959930                8.00266375               43.06361414                0.01000000               -0.12609439               -0.31148490                0.16890636               -0.52371325                0.28310148                0.79737297
              10.00918406                8.00509817               43.06552721                0.01000000               -0.04152460               -0.33400967                0.17221583               -0.37192201                0.19168862                0.73875195
               0.05177435                8.99480759               43.04605623                1.00000000               -0.03245880               -0.03092593                0.10348617                0.00114023                0.00273318                0.01965593
               1.05144976                8.98996553               43.04521711                0.99999998               -0.03374959               -0.03379396                0.11266650                0.00041321                0.00213182                0.00324536
               2.05109936                8.98514426               43.04436548                1.00000000               -0.03607898               -0.03635644                0.12143399                0.00112625               -0.00340772               -0.00923212
               3.05072818                8.98035481               43.04342051                0.01000000               -0.46182538               -0.03880160                0.12968540                0.75056622                0.15686056               -0.00362057
               4.04186285                8.99054906               43.04578633                0.01000000               -0.93142666                0.19612443                0.13969868                0.98267996                0.33219236                0.01380289
               5.03209965                8.99918251               43.04876457                0.01000000               -0.91266253                0.21759797                0.15219617                0.61050833                0.37448597                0.04744068
               6.02360960                9.00383385               43.05242836                0.01000001               -0.80131080                0.18309935                0.15879738                0.27356413                0.44368709                0.08789287
               7.01607343                9.00544984               43.05712252                0.01000002               -0.76074344                0.14805702                0.16457150               -0.03755636                0.55453129                0.14574496
               8.00839473                9.00392180               43.06322669                0.01000005               -0.79592529                0.13622902                0.16963979               -0.40279350                0.84551909                0.26302134
               9.00015493                9.00019238               43.07389992                0.99999997               -0.43814634               -0.14968412                0.17484436               -0.65891710                0.53436606                0.51493059
               9.99963180                8.99955493               43.07387812                0.99999995               -0.05231231               -0.30309001                0.17371832               -0.50944543               -0.00043048                0.41736950
               0.05664157                9.99448970               43.04646657                0.99999999               -0.03433263               -0.03178892                0.10934189               -0.00040784                0.01416738                0.01477197
               1.05629824                9.98961840               43.04561894                0.99999998               -0.03578800               -0.03471292                0.11856645               -0.00109458                0.01808465                0.00145100
               2.05592581                9.98477085               43.04484974                0.99999994               -0.03867687               -0.03734069                0.12808673               -0.00083905                0.01805248               -0.00280394
               3.05552470                9.97994872               43.04400762                0.69111634               -0.84950770               -0.04060841                0.13768959                0.95971752                0.16392878               -0.00498441
               4.03893565                9.99437216               43.04616869                0.01000002               -1.32380208                0.38231016                0.14997611                0.79740478                0.30916370                0.01506643
               5.02904866               10.00175121               43.04906861                0.01000002               -0.84981773                0.25686991                0.15858816                0.27823984                0.36703844                0.02984624
               6.02193930               10.00603893               43.05281772                0.01000000               -0.67159587                0.22050801                0.16534102                0.11558185                0.45800470                0.05139664
               7.01561674               10.00740345               43.05776855                0.01000001               -0.65158829                0.19536111                0.16987347               -0.02187083                0.62015146                0.08121804
               8.00890753               10.00651489               43.06489451                0.01000002               -0.74144615                0.25930925                0.17333051               -0.33538919                0.81751437                0.17973832
               9.00078782                9.99967006               43.07389482                0.99999997               -0.43187435               -0.05223193                0.17324266               -0.31063666                0.45144483                0.00033949
              10.00027005                9.99903637               43.07387301                1.00000000               -0.05177756               -0.05185695                0.17211909                0.00045433                0.00038306               -0.00038464
              -0.00878260                0.00441174               44.03547625                0.99452591               -0.02315405               -0.02154834                0.06982363                0.00294953               -0.00382319                0.00410014
               0.99098586                0.00234843               44.03698869                0.99999999               -0.02522693               -0.02603910                0.08424682                0.00237653               -0.00389727               -0.00134783
               1.99071286                0.00030089               44.03849391                0.06160368               -0.02174059               -0.03064500                0.09904012                0.00402241                0.04339099               -0.00149138
               2.99055105               -0.00169580               44.04095557                0.01000001               -0.02464778               -0.02729680                0.08063942                0.21621836                0.01339927               -0.00686530
               3.99021990                0.00073626               44.04208484                0.01000000               -0.17371313                0.11666218                0.09400391                0.22859678               -0.03002482               -0.01125522
               4.98707678                0.00865151               44.04340061                0.01000000               -0.58186641                0.13321787                0.09695923                0.59272334                0.00217656                0.00622463
               5.97858258                0.02373110               44.04516373                0.06102042               -0.44304408               -0.02646244                0.08377664                0.64121798                0.02672042               -0.00340977
               6.97821590                0.02611535               44.04739797                0.98076054               -0.03355205               -0.02897279                0.09630549                0.01114634                0.02593081               -0.00460855
               7.97791154                0.02831526               44.04923719                1.00000000               -0.03185955               -0.03212959                0.10605344                0.00170174                0.00824013               -0.00054549
               8.97757871                0.03051838               44.05111385                1.00000000               -0.03482839               -0.03505688                0.11613020                0.00159263                0.00781433                0.00109689
               9.97721497                0.03272760               44.05295174                1.00000000               -0.03637437               -0.03827674                0.12627288                0.00135070                0.00570991                0.00518417
              -0.00668980                1.00419626               44.03554667                0.97649997               -0.02451498               -0.02220617                0.07458230                0.00079594                0.00188909                0.00448134
               0.99306505                1.00208804               44.03705883                0.19073250               -0.02674987               -0.02686168                0.08918428                0.00013185                0.00389231               -0.00345216
               1.99277520                0.99999444               44.03861476                0.01000000               -0.02847530               -0.03134199                0.10401648                0.00678459                0.05659839                0.00932020
               2.99249554                0.99803123               44.04118530                0.01000001               -0.27214924                0.02037356                0.08353724                0.15708887                0.02602539               -0.02713345
               3.98733222                1.00190288               44.04213048                0.01000000               -0.54944732                0.09474243                0.09866954                0.48809592               -0.05100503                0.00005169
               4.98150660                1.00998368               44.04334978                0.01000000               -0.55346931                0.05770592                0.10095573                0.89479096               -0.04989117                0.02174740
               5.97626283                1.02346647               44.04453298                0.01000001               -0.27356574               -0.30434413                0.08766966                0.84137906               -0.02062418                0.03926462
               6.97603528                1.02582563               44.04662172                0.98946920               -0.02678961               -0.02929376                0.09800453                0.00984711                0.01368554               -0.00493747
               7.97572704                1.02799397               44.04845522                0.99999999               -0.03234081               -0.03237079                0.10781016                0.00017934                0.00133983               -0.00037377
               8.97538847                1.03016781               44.05029835                0.99999999               -0.03538939               -0.03533236                0.11793561                0.00010438                0.00122444                0.00084738
               9.97501925                1.03234483               44.05213114                0.99999999               -0.03692149               -0.03856304                0.12815596               -0.00026815                0.00059923                0.00652451
              -0.00455025                2.00396762               44.03562675                0.01000000               -0.02594296                0.01097434                0.07910018                0.03850480                0.00212514                0.10246460
               0.99519032                2.00181120               44.03708789                0.01000000               -0.02721896               -0.10579925                0.09370671                0.03979956                0.02226517                0.08125461
               1.99490537                1.99967405               44.03895675                0.01000001               -0.17029674               -0.11876241                0.10152049                0.08909731                0.04676171                0.06198641
               2.99178438                1.99871167               44.04090859                0.01000000               -0.34379993               -0.00205802                0.09950015                0.32095237                0.02461381               -0.00509212
               3.98802937                2.00263111               44.04233122                0.01000000               -0.41876852               -0.01398939                0.10520962                0.82446560               -0.02173248                0.02536052
               4.98340901                2.00980562               44.04350451                0.01000001               -0.42305760               -0.11305655                0.10761556                1.12510315               -0.04168972                0.05099996
               5.97956822                2.01764421               44.04474538                0.01000000               -0.47618297               -0.42391410                0.10698807                1.20770169               -0.05478796                0.07861039
               6.97388535                2.02552948               44.04584517                0.01000000               -0.29976392               -0.24119251                0.09898409                0.71217811               -0.04101689                0.06226338
               7.97357294                2.02766785               44.04767311                0.15572180               -0.03277109               -0.03279719                0.10927522                0.00088823               -0.00554682                0.00112950
               8.97322993                2.02981173               44.04947774                0.99999999               -0.03586901               -0.03583234                0.11991240                0.00031768               -0.00381335               -0.00128696
               9.97285556                2.03195634               44.05133861                1.00000000               -0.03743723               -0.03916125                0.12999522               -0.00026365               -0.00112550                0.00645912
              -0.00160687                3.00441574               44.03765923                0.01000001               -0.02385170                0.03787921                0.07788475                0.05001637               -0.00176579                0.21073962
               0.99815461                2.99997206               44.03885554                0.01000001               -0.03682239               -0.21950993                0.09071103                0.17128023                0.00195888                0.15869094
               1.99765668                2.99761919               44.04013598                0.01000000               -0.10985399               -0.25103030                0.10022158                0.41065981                0.01169223                0.10037732
               2.99595753                2.99799007               44.04148690                0.01000000               -0.24645536               -0.15347433                0.10777488                0.78069162                0.00952194                0.05270664
               3.99272757                3.00162309               44.04278710                0.01000001               -0.34809894               -0.15863602                0.11303056                1.11016973               -0.00423889                0.05282321
               4.98899555                3.00772255               44.04402259                0.01000000               -0.40172816               -0.22965920                0.11623700                1.34827966               -0.01905767                0.07995135
               5.98469301                3.01498819               44.04522351                0.01000001               -0.43701698               -0.29771498                0.11650529                1.35805247               -0.03359962                0.11112679
               6.98025521                3.02100178               44.04640637                0.01000001               -0.66152302               -0.37257381                0.11658840                1.41328177               -0.08011196                0.14330512
               7.97146255                3.02733802               44.04691984                0.01000001               -0.45744446               -0.27608040                0.11463413                1.14118648               -0.08046414                0.14072497
               8.97110632                3.02945116               44.04862093                0.01000001               -0.03688947               -0.34270908                0.12219810                0.87458228               -0.01137687                0.12446147
               9.97072476                3.03156161               44.05051994                0.86078352               -0.03815634               -0.76053126                0.13186933                1.02297652               -0.00174356                0.10237444
               0.00533744                4.00472520               44.03972123                0.01000003                0.00750318               -0.05099244                0.07718334                0.23643260               -0.00587332                0.22711673
               1.00541248                3.99742100               44.04053097                0.01000000               -0.01184461               -0.32382482                0.09100236                0.48965820               -0.00146663                0.15149523
               2.00510055                3.99465344               44.04138954                0.01000000               -0.10090830               -0.31968726                0.10344492                0.86321109                0.00845801                0.09666735
               3.00339431                3.99564218               44.04240156                0.01000003               -0.23001372               -0.26182956                0.11285900                1.11976351                0.01873436                0.06755453
               4.00050028                3.99945839               44.04356951                0.01000000               -0.31924022               -0.24823220                0.11959952                1.35159839                0.02367804                0.07199768
               4.99700951                4.00521244               44.04486263                0.01000001               -0.35251176               -0.27350063                0.12375882                1.48946670                0.02332662                0.10257536
               5.99345004                4.01168991               44.04622670                0.01000001               -0.36041752               -0.33613543                0.12611848                1.56622139                0.01514551                0.14771133
               6.98980116                4.01807800               44.04755235                0.01000000               -0.27513818               -0.37965853                0.12748512                1.54626073                0.00569147                0.19761198
               7.98794728                4.02214624               44.04892468                0.01000001               -0.16515841               -0.53985804                0.13009209                1.64607996                0.00487168                0.26968015
               8.98649799                4.02295755               44.05031797                0.01000000                0.05734589               -0.66192129                0.13506283                1.17700908               -0.00008688                0.25893867
               9.98909420                4.01674572               44.05165040                0.01000001                0.25962098               -1.07430782                0.14259481                0.89715803                0.00789845                0.19183278
               0.01773018                5.00339590               44.04203273                0.01000003                0.02893571               -0.47019105                0.07717545                0.63309786               -0.00728522                0.26301384
               1.01801954                4.99349556               44.04232102                0.01000000               -0.05152280               -0.34877648                0.09169346                0.99699998                0.00093725                0.16372478
               2.01669972                4.99122544               44.04270184                0.01000001               -0.22358396               -0.28543681                0.10562263                1.17537527                0.01627990                0.08030926
               3.01354786                4.99275348               44.04339529                0.01000000               -0.32552199               -0.30367621                0.11705844                1.35419449                0.04142488                0.05965966
               4.01018928                4.99665845               44.04451676                0.01000001               -0.34972491               -0.28166864                0.12495353                1.47375252                0.06765499                0.07354262
               5.00655336                5.00225254               44.04596506                0.01000001               -0.35187036               -0.28992709                0.13033038                1.53784483                0.08372962                0.11381643
               6.00315188                5.00826548               44.04762569                0.01000001               -0.29146269               -0.33724338                0.13408425                1.49186790                0.09028474                0.17197644
               7.00072411                5.01340861               44.04938079                0.01000000               -0.18236374               -0.45021243                0.13740129                1.38638945                0.08743962                0.23758196
               7.99950460                5.01654086               44.05109195                0.01000000               -0.03385389               -0.54852126                0.14121054                1.14675754                0.07268285                0.28891252
               9.00004703                5.01621274               44.05258876                0.01000000                0.07934949               -0.60713705                0.14621746                0.76975149                0.04431055                0.30287749
              10.00109159                5.01007545               44.05366208                0.01000001                0.10445639               -0.46977728                0.15276510                0.37337552                0.02869068                0.25648707
               0.03780007                5.99532138               44.04495501                0.09988979               -0.02771401               -0.41508859                0.07872651                0.76147461               -0.00454810                0.16805421
               1.03752293                5.99044547               44.04451293                0.01000001               -0.42249631               -0.16509185                0.08968720                0.90134972               -0.01681680                0.10742447
               2.02935014                5.98894471               44.04382374                0.01000000               -0.62388664               -0.29573404                0.10906345                1.22639404               -0.00038160                0.05552804
               3.02504520                5.98956866               44.04429009                0.01000001               -0.44369385               -0.30743646                0.12092539                1.32607807                0.07615838                0.03696787
               4.02047627                5.99382501               44.04546118                0.01000001               -0.44429132               -0.28432370                0.12994111                1.51203875                0.12300088                0.05302886
               5.01615937                5.99941390               44.04718303                0.01000001               -0.41724647               -0.23298983                0.13597788                1.45321958                0.15895147                0.11268672
               6.01213134                6.00494505               44.04930691                0.01000000               -0.34529019               -0.27585406                0.14096250                1.27143606                0.17867811                0.18248682
               7.00925357                6.00907375               44.05160474                0.01000000               -0.20265194               -0.37856014                0.14557687                1.00598136                0.17864027                0.26220584
               8.00807830                6.01117581               44.05382847                0.01000000               -0.04475702               -0.48734319                0.15039827                0.72445142                0.15226947                0.33580267
               9.00835842                6.01081481               44.05561296                0.01000001                0.03789903               -0.48289299                0.15553672                0.39514103                0.09183392                0.37848405
              10.00883628                6.00735017               44.05657645                0.01000000                0.04778531               -0.19279216                0.16114452                0.18837815                0.05395257                0.35527039
               0.04271149                6.99509412               44.04604211                0.96963901               -0.02882804               -0.02544660                0.09144327                0.00186974               -0.01239390                0.04566334
               1.04242321                6.99019373               44.04537917                0.96901250               -0.03035338               -0.02824262                0.10145352                0.00125785               -0.01233566                0.02297936
               2.04210442                6.98531076               44.04472155                0.01000000               -0.36170482               -0.19892316                0.11101101                0.70289466                0.03132306                0.01223811
               3.03518911                6.98660475               44.04494195                0.01000001               -0.57598008               -0.48262183                0.12747946                1.38037398                0.09805026               -0.10184958
               4.03058482                6.99097197               44.04610094                0.01000003               -0.53456964               -0.18395615                0.13470177                1.45217762                0.18693821                0.03608517
               5.02449772                6.99759274               44.04840540                0.01000000               -0.58320378               -0.10669136                0.14172678                1.30053556                0.24884519                0.10084282
               6.01892074                7.00274840               44.05109880                0.01000000               -0.49423752               -0.12614287                0.14708666                0.94915559                0.27752500                0.17639849
               7.01461297                7.00583740               44.05417131                0.01000000               -0.33340839               -0.22524814                0.15261255                0.56451656                0.29010016                0.27070389
               8.01225258                7.00679400               44.05724034                0.01000001               -0.14187385               -0.36292144                0.15814372                0.21698455                0.25847473                0.40166781
               9.01177549                7.00655488               44.05972047                0.01000002               -0.02320706               -0.40412605                0.16333233                0.03279309                0.15853611                0.49672411
              10.01178843                7.00621961               44.06077167                0.01000001                0.00129430               -0.11306721                0.16775675               -0.01664184                0.08795688                0.53058636
               0.04763826                7.99481245               44.04652203                1.00000000               -0.03068138               -0.02903661                0.09726897                0.00105112               -0.00183182                0.01980201
               1.04733145                7.98988062               44.04585204                0.99999999               -0.03206240               -0.03221590                0.10722600                0.00015927               -0.00213045                0.00405542
               2.04699701                7.98496624               44.04517319                0.15255133               -0.01699913               -0.03538656                0.11729670               -0.00743983               -0.07822421               -0.01280320
               3.04699146                7.97991622               44.04298848                0.01000001               -0.42325951               -0.34615061                0.12363524                1.07640815                0.14427517               -0.07501440
               4.03853182                7.99014589               44.04683264                0.01000008               -0.82989050               -0.03862104                0.14418164                1.46147410                0.35520915                0.01961010
               5.03039365                7.99728007               44.04947272                0.01000000               -0.78310164                0.07494544                0.14769726                1.01275627                0.32011438                0.07913221
               6.02286979                8.00242219               44.05278458                0.01000000               -0.69476770                0.05739920                0.15320541                0.61021620                0.37432355                0.14687091
               7.01649830                8.00456879               44.05674195                0.01000001               -0.55846385               -0.01304048                0.15901239                0.15416787                0.43916950                0.23971925
               8.01170051                8.00391738               44.06151281                0.01000002               -0.34548131               -0.13830492                0.16481500               -0.28168901                0.42703386                0.39538912
               9.00958867                8.00273229               44.06530741                0.01000004               -0.12632671               -0.31727703                0.16965641               -0.52127986                0.28528813                0.80294955
              10.00917398                8.00508883               44.06725211                0.01000000               -0.04146954               -0.33279474                0.17270106               -0.37102313                0.19235240                0.74055572
               0.05259617                8.99451339               44.04708834                1.00000000               -0.03235668               -0.03076836                0.10290255                0.00099868                0.00292169                0.01934014
               1.05227260                8.98954941               44.04634674                0.99999998               -0.03380720               -0.03401168                0.11319497                0.00009399                0.00206098                0.00319965
               2.05192002                8.98460303               44.04558673                0.99999999               -0.03674873               -0.03709912                0.12356392                0.00023388               -0.00424610               -0.00866589
               3.05153763                8.97968174               44.04472693                0.01000000               -0.47347861               -0.03230896                0.13391100                0.75342074                0.15658760                0.05044607
               4.04245045                8.99019955               44.04720834                0.01000000               -0.95305403                0.19735402                0.14677933                1.01669406                0.33202195                0.00261131
               5.03247654                8.99909165               44.05030607                0.01000000               -0.93070517                0.22117254                0.15475075                0.63278257                0.37437489                0.04654812
               6.02383635                9.00389638               44.05402654                0.01000001               -0.81377068                0.18533977                0.16013072                0.28749101                0.44374338                0.08725908
               7.01620113                9.00557659               44.05877460                0.01000002               -0.76905249                0.14876637                0.16523561               -0.03055172                0.55659439                0.14626650
               8.00845530                9.00402790               44.06492689                0.01000196               -0.80113401                0.13567070                0.17001058               -0.40303248                0.84974644                0.26512553
               9.00017845                9.00020934               44.07564980                0.99999997               -0.44002007               -0.15228624                0.17513514               -0.66171087                0.53749043                0.51864179
               9.99965490                8.99956371               44.07561527                0.99999999               -0.05235547               -0.30216086                0.17371539               -0.50819615               -0.00043896                0.41884399
               0.05758620                9.99419708               44.04755774                1.00000000               -0.03425160               -0.03163101                0.10869601               -0.00066586                0.01421369                0.01465722
               1.05724369                9.98920039               44.04680741                0.99999994               -0.03584209               -0.03490204                0.11905059               -0.00153243                0.01841400                0.00133356
               2.05686936                9.98422426               44.04613885                0.99999999               -0.03901647               -0.03787722                0.12944962               -0.00158342                0.01884250               -0.00233825
               3.05646336                9.97927004               44.04539975                0.74567820               -0.87067871               -0.04116942                0.13989068                0.98600880                0.16653096               -0.00364726
               4.03945579                9.99409297               44.04769305                0.01000001               -1.35554415                0.38934178                0.15438767                0.82220762                0.31195366                0.01594933
               5.02935247               10.00170352               44.05067687                0.01000000               -0.86605584                0.26118690                0.16298409                0.28939367                0.36652266                0.02747155
               6.02213467               10.00612898               44.05448818                0.01000000               -0.67983615                0.22326004                0.16821644                0.12186209                0.45681435                0.05080082
               7.01575575               10.00754412               44.05947832                0.01000001               -0.65637758                0.19675254                0.17167964               -0.01944732                0.61920637                0.08107717
               8.00900712               10.00663080               44.06663372                0.01000002               -0.74685557                0.26028989                0.17420938               -0.33769564                0.81633123                0.18052126
               9.00081864                9.99968656               44.07562728                0.99999999               -0.43529086               -0.05227740                0.17325647               -0.31524051                0.45173969                0.00033492
              10.00030130                9.99904561               44.07559279                1.00000000               -0.05173389               -0.05181062                0.17182434                0.00054501                0.00039050               -0.00038074
              -0.01040880                0.00435929               45.03617324                0.99314454               -0.02257510               -0.02172641                0.06947744                0.00353840               -0.00195276                0.00305854
               0.98936545                0.00224079               45.03783003                0.99999999               -0.02513483               -0.02605403                0.08449221                0.00215480               -0.00424103               -0.00080154
               1.98908851                0.00013984               45.03948707                0.07657803               -0.02668403               -0.03087977                0.09943004               -0.00055851                0.02473426               -0.00195204
               2.98883177               -0.00200317               45.04173551                0.01000001               -0.02304511               -0.01930148                0.07149097                0.22894442               -0.00369318               -0.00580242
               3.98862761                0.00059285               45.04299004                0.01000002               -0.16731707                0.11839543                0.08814469                0.24179740               -0.03508855               -0.00484722
               4.98548543                0.00875915               45.04434189                0.01000000               -0.59064913                0.13738062                0.09264331                0.61025398               -0.01453722                0.00972729
               5.97681462                0.02429631               45.04600005                0.05451799               -0.45488089               -0.02549297                0.08300387                0.65924040                0.01964528               -0.00350312
               6.97638781                0.02683884               45.04836050                0.97877367               -0.03635663               -0.02972319                0.09627152                0.01668589                0.03033962               -0.00850081
               7.97608749                0.02908208               45.05029634                1.00000000               -0.03204311               -0.03177431                0.10657209                0.00130243                0.00778995                0.00063367
               8.97574695                0.03133669               45.05227589                1.00000000               -0.03531636               -0.03505370                0.11610453                0.00182516                0.00705006                0.00104458
               9.97538116                0.03358941               45.05421546                1.00000000               -0.03657881               -0.03829591                0.12629371                0.00128251                0.00498409                0.00482581
              -0.00825491                1.00414202               45.03629399                0.97058806               -0.02483681               -0.02232523                0.07471334                0.00109299                0.00129023                0.00464408
               0.99149672                1.00198025               45.03795344                0.21205746               -0.02700956               -0.02692035                0.08979894               -0.00011683                0.00387662               -0.00330727
               1.99120490                0.99983105               45.03966053                0.01000000               -0.03010041               -0.03144020                0.10497149                0.00646311                0.03771620                0.00417485
               2.99089471                0.99780382               45.04199813                0.01000001               -0.27702395                0.02581814                0.07492805                0.16967765                0.00211863               -0.01612825
               3.98566442                1.00177680               45.04308898                0.01000000               -0.55792360                0.09730732                0.09487507                0.50702616               -0.05637932                0.00551506
               4.97973624                1.01013295               45.04434126                0.01000000               -0.56486209                0.05984762                0.09840434                0.92480019               -0.06723349                0.02523592
               5.97436718                1.02404138               45.04540626                0.01000001               -0.27872295               -0.31167831                0.08643589                0.86916779               -0.03075687                0.04539375
               6.97416178                1.02654161               45.04760254                0.98850745               -0.02577934               -0.02929506                0.09719569                0.01477587                0.01301814               -0.00511527
               7.97385159                1.02876434               45.04953276                0.99999999               -0.03251221               -0.03213172                0.10774266                0.00039851                0.00074365                0.00005192
               8.97351154                1.03098615               45.05147857                0.99999999               -0.03551623               -0.03538071                0.11810889                0.00022422                0.00112516                0.00106525
               9.97314127                1.03320645               45.05341484                0.99999999               -0.03702719               -0.03864908                0.12848341               -0.00034337                0.00053315                0.00619055
              -0.00606338                2.00391278               45.03642003                0.01000000               -0.02625284                0.01550836                0.08005505                0.04716771                0.00248825                0.09962179
               0.99367409                2.00170238               45.03802812                0.01000000               -0.02712116               -0.10825919                0.09467787                0.04834167                0.01805768                0.07703402
               1.99339420                1.99951104               45.03995819                0.01000001               -0.16972622               -0.12178294                0.09003900                0.09955314                0.03398190                0.05520903
               2.99027957                1.99851319               45.04190233                0.01000000               -0.34776042               -0.00251545                0.10235149                0.33941484                0.01233396                0.00700073
               3.98643899                2.00253900               45.04337936                0.01000000               -0.42813533               -0.01328738                0.10493174                0.85641964               -0.03235152                0.03054466
               4.98171686                2.00995610               45.04457890                0.01000001               -0.43248348               -0.11582062                0.10811745                1.16542503               -0.05384154                0.05517006
               5.97778932                2.01806274               45.04581781                0.01000000               -0.48782477               -0.43528435                0.10771492                1.25166149               -0.07152006                0.08928824
               6.97196037                2.02625294               45.04683012                0.01000000               -0.30692001               -0.24874739                0.09820889                0.73827411               -0.04973579                0.07112928
               7.97165092                2.02843945               45.04876419                0.16284991               -0.03255211               -0.03257862                0.10898560                0.00137910               -0.00472257                0.00348064
               8.97130933                2.03062907               45.05067877                0.99999999               -0.03586110               -0.03596208                0.12036733                0.00049620               -0.00321105               -0.00079314
               9.97093370                2.03281643               45.05264152                1.00000000               -0.03756262               -0.03936165                0.13056455               -0.00032680               -0.00091173                0.00616951
              -0.00289074                3.00445219               45.03843747                0.01000000               -0.02439564                0.04360774                0.07777115                0.05950001               -0.00311978                0.20414964
               0.99686530                2.99981506               45.03976593                0.01000001               -0.03620540               -0.22619374                0.09187235                0.18822547               -0.00124619                0.15269071
               1.99638515                2.99739539               45.04114307                0.01000000               -0.11051213               -0.25990050                0.10413634                0.43626260                0.00538798                0.09836252
               2.99465506                2.99775351               45.04257524                0.01000000               -0.25176204               -0.15864850                0.11037969                0.81296101                0.00090017                0.05632668
               3.99134991                3.00151106               45.04392833                0.01000001               -0.35670284               -0.16263608                0.11603990                1.15320778               -0.01446154                0.05619991
               4.98752100                3.00781654               45.04519461                0.01000000               -0.41231700               -0.23589635                0.11870766                1.39795312               -0.03114888                0.08315987
               5.98310357                3.01533569               45.04639608                0.01000001               -0.44852214               -0.30616059                0.11845036                1.40795119               -0.04624531                0.11611443
               6.97855056                3.02156666               45.04757738                0.01000001               -0.68002623               -0.38530712                0.11782966                1.46362360               -0.09243435                0.15509805
               7.96950304                3.02811277               45.04807215                0.01000001               -0.47030365               -0.28481201                0.11588928                1.18069919               -0.08718108                0.15014199
               8.96914448                3.03026691               45.04984702                0.01000001               -0.03715085               -0.35391423                0.12314718                0.90432994               -0.01238985                0.13033895
               9.96876003                3.03241922               45.05184260                0.88985960               -0.03844589               -0.78694436                0.13274723                1.05843451               -0.00168557                0.10648522
               0.00440088                4.00478494               45.04048663                0.01000000                0.00945237               -0.05345526                0.07563242                0.24907889               -0.00602866                0.22058697
               1.00449541                3.99717850               45.04144674                0.01000000               -0.01099386               -0.33504573                0.09290457                0.51468606               -0.00245122                0.14676370
               2.00418101                3.99431303               45.04244046                0.01000000               -0.10361421               -0.33058763                0.10740457                0.90182881                0.00450647                0.09482002
               3.00242312                3.99534022               45.04354919                0.01000002               -0.23704470               -0.26888950                0.11750935                1.16539772                0.01139690                0.06715483
               3.99944011                3.99928627               45.04478204                0.01000000               -0.32859150               -0.25473479                0.12365240                1.40324265                0.01428084                0.07225717
               4.99585129                4.00523817               45.04611436                0.01000001               -0.36209446               -0.28094701                0.12705914                1.54552510                0.01290202                0.10326510
               5.99219822                4.01193953               45.04749892                0.01000001               -0.36977655               -0.34602672                0.12862613                1.62496875                0.00456045                0.15064331
               6.98845576                4.01854680               45.04883552                0.01000008               -0.28167818               -0.39164026                0.12931625                1.60360205               -0.00341293                0.20360400
               7.98656466                4.02274321               45.05023183                0.01000001               -0.16831437               -0.55764407                0.13144007                1.70433053               -0.00119069                0.27994031
               8.98508947                4.02355079               45.05167404                0.01000000                0.06165579               -0.68443610                0.13628141                1.21778915               -0.00275820                0.26835223
               9.98779777                4.01707754               45.05308079                0.01000001                0.27083009               -1.11305369                0.14363249                0.92803661                0.00688161                0.19893856
               0.01730370                5.00338309               45.04279240                0.01000003                0.03272249               -0.49068717                0.07400687                0.65986455               -0.00648679                0.25791977
               1.01763093                4.99311415               45.04324111                0.01000000               -0.05218497               -0.36104483                0.09280574                1.03827170                0.00162667                0.15654263
               2.01626000                4.99078364               45.04377200                0.01000001               -0.23205802               -0.29239810                0.10974964                1.22406963                0.01424990                0.07689655
               3.01298977                4.99237572               45.04457985                0.01000000               -0.33715970               -0.31020404                0.12197760                1.40660120                0.03620294                0.05760404
               4.00951681                4.99641636               45.04578419                0.01000001               -0.36057598               -0.28783291                0.12905167                1.52940218                0.06019015                0.07053493
               5.00577825                5.00219760               45.04728180                0.01000001               -0.36112473               -0.29756797                0.13338889                1.59595930                0.07554791                0.11197249
               6.00229432                5.00841515               45.04897722                0.01000001               -0.29796653               -0.34703563                0.13636906                1.55007327                0.08276993                0.17199452
               6.99981892                5.01373386               45.05076291                0.01000000               -0.18543262               -0.46369180                0.13913388                1.44159505                0.08148112                0.24076738
               7.99858566                5.01695988               45.05251085                0.01000000               -0.03264915               -0.56518686                0.14269064                1.19224919                0.06878012                0.29480975
               8.99916594                5.01657819               45.05405701                0.01000000                0.08407967               -0.62666726                0.14759307                0.79907596                0.04238638                0.30956175
              10.00026726                5.01015814               45.05519453                0.01000001                0.11013217               -0.48748308                0.15389888                0.38720260                0.02775064                0.26151392
               0.03813605                5.99497119               45.04572801                0.08241244               -0.02757612               -0.43221795                0.07515684                0.79349430               -0.00557519                0.17058978
               1.03786029                5.98995761               45.04540586                0.01000001               -0.43676122               -0.16949453                0.08900660                0.93851040               -0.01438068                0.10608223
               2.02940083                5.98846507               45.04492538                0.01000000               -0.64689346               -0.30271232                0.11230837                1.27522129                0.00311874                0.05141656
               3.02492242                5.98913614               45.04553044                0.01000001               -0.45972785               -0.30691519                0.12400373                1.37730590                0.07248950                0.02634430
               4.02020627                5.99352962               45.04676594                0.01000001               -0.45753689               -0.28857252                0.13246782                1.56369590                0.11778900                0.05041435
               5.01577168                5.99928681               45.04855572                0.01000001               -0.42714201               -0.23916789                0.13828283                1.50642815                0.15396789                0.10841430
               6.01166343                6.00499881               45.05072322                0.01000000               -0.35143763               -0.28392999                0.14225043                1.32353663                0.17461294                0.18011779
               7.00874293                6.00927296               45.05306639                0.01000000               -0.20490585               -0.38939557                0.14670402                1.05201952                0.17641890                0.26276841
               8.00756531                6.01143947               45.05533829                0.01000000               -0.04350980               -0.50053277                0.15161435                0.76011448                0.15136093                0.33926576
               9.00787274                6.01101744               45.05717425                0.01000001                0.04083009               -0.49580336                0.15685058                0.41494601                0.09155205                0.38318875
              10.00838192                6.00732788               45.05819220                0.01000000                0.05091804               -0.19934734                0.16216011                0.19747176                0.05368133                0.35818379
               0.04320077                6.99473873               45.04695144                0.96334539               -0.02935027               -0.02565853                0.09089634                0.00364925               -0.01414582                0.05021782
               1.04290726                6.98972426               45.04640159                0.95673800               -0.03074355               -0.02748948                0.10230947                0.00316222               -0.01274284                0.02616227
               2.04258589                6.98472939               45.04584566                0.01000000               -0.37179618               -0.20441667                0.11345989                0.73519835                0.02727920                0.01098715
               3.03547134                6.98623741               45.04609710                0.01000001               -0.59729188               -0.48483280                0.12418264                1.40686633                0.10365769               -0.06179629
               4.03064006                6.99064491               45.04751029                0.01000001               -0.55168634               -0.18975762                0.14073586                1.48501289                0.18923655                0.02805549
               5.02443761                6.99741424               45.04981986                0.01000000               -0.59305794               -0.11027952                0.14158236                1.34467975                0.24441091                0.09668005
               6.01877890                7.00273655               45.05257286                0.01000000               -0.50094798               -0.13060936                0.14704950                0.99104290                0.27738619                0.17245197
               7.01441865                7.00594595               45.05569952                0.01000000               -0.33677128               -0.23197789                0.15279526                0.59903626                0.29157504                0.26971288
               8.01204347                7.00694923               45.05882553                0.01000001               -0.14211027               -0.37139611                0.15879528                0.24160102                0.26087494                0.40382535
               9.01157645                7.00666212               45.06135865                0.01000002               -0.02238246               -0.41120162                0.16436433                0.04574949                0.16020277                0.50057083
              10.01159582                7.00617120               45.06245255                0.01000001                0.00193762               -0.11310983                0.16851534               -0.01110342                0.08851979                0.53259490
               0.04823798                7.99445802               45.04749083                1.00000000               -0.03051058               -0.02900250                0.09678879                0.00073999               -0.00168854                0.01969809
               1.04793287                7.98940782               45.04692783                0.99999999               -0.03231705               -0.03250472                0.10802806                0.00020188               -0.00193199                0.00373454
               2.04759164                7.98437674               45.04636541                0.14975700               -0.03943226               -0.03620576                0.11988438                0.00400103               -0.02777130               -0.01209142
               3.04714423                7.97943949               45.04529523                0.01000001               -0.44309698               -0.36424759                0.21082464                1.10623545                0.12160392               -0.06179079
               4.03872970                7.98973446               45.04815632                0.01000000               -0.82852970               -0.04520198                0.13901946                1.49629138                0.30796435                0.01430405
               5.03057363                7.99708122               45.05097191                0.01000000               -0.78885567                0.07475403                0.14659414                1.04917533                0.32475835                0.07599385
               6.02295259                8.00238663               45.05431146                0.01000000               -0.70313265                0.05694382                0.15223000                0.63946105                0.37522683                0.14326499
               7.01651098                8.00463341               45.05833258                0.01000001               -0.56357120               -0.01535750                0.15832076                0.17556190                0.44360676                0.23814052
               8.01168116                8.00401155               45.06316209                0.01000002               -0.34726112               -0.14229191                0.16484950               -0.26845019                0.43205794                0.39686422
               9.00956576                8.00279341               45.06700727                0.01000001               -0.12697330               -0.32083866                0.17028803               -0.51529805                0.28874899                0.80757515
              10.00914170                8.00506568               45.06898123                0.01000000               -0.04240634               -0.32900286                0.17316559               -0.36796000                0.19342746                0.74193762
               0.05331598                8.99415868               45.04811428                1.00000000               -0.03233897               -0.03069898                0.10225694                0.00097482                0.00278967                0.01899325
               1.05299259                8.98907416               45.04748101                0.99999999               -0.03408667               -0.03420361                0.11374236               -0.00004337                0.00231657                0.00328707
               2.05263425                8.98400527               45.04683676                0.99999999               -0.03771347               -0.03784453                0.12592374               -0.00015103               -0.00336392               -0.00862686
               3.05223832                8.97895246               45.04609873                0.01000000               -0.48550490               -0.04546677                0.13868385                0.79462452                0.15898310                0.00086682
               4.04292415                8.98974087               45.04872192                0.01000000               -0.97346828                0.19936340                0.15396373                1.05623808                0.33289128                0.00687766
               5.03276895                8.99890932               45.05185958                0.01000000               -0.94541057                0.22389089                0.15496660                0.65724572                0.37356781                0.04417271
               6.02401594                9.00387543               45.05563097                0.01000001               -0.82319923                0.18725167                0.15955804                0.30255120                0.44567148                0.08540940
               7.01630497                9.00563880               45.06042723                0.01000002               -0.77507367                0.14920741                0.16449939               -0.02138463                0.56046749                0.14493023
               8.00851446                9.00410339               45.06662690                0.01000003               -0.80443086                0.13500471                0.16964896               -0.39947067                0.85556612                0.26605184
               9.00021635                9.00024535               45.07740263                0.99999997               -0.44111899               -0.15358083                0.17542526               -0.66072327                0.54087404                0.52226087
               9.99969208                8.99959114               45.07735243                1.00000000               -0.05242696               -0.29959872                0.17369851               -0.50516364               -0.00042082                0.42027375
               0.05842651                9.99384404               45.04864049                1.00000000               -0.03410973               -0.03146324                0.10784049               -0.00097725                0.01403210                0.01433096
               1.05808541                9.98872375               45.04799995                1.00000000               -0.03580941               -0.03504165                0.11938993               -0.00192806                0.01809083                0.00143646
               2.05771032                9.98361984               45.04743873                0.99999999               -0.03921431               -0.03854295                0.13073703               -0.00207249                0.01826554               -0.00264340
               3.05730112                9.97853015               45.04680544                0.80387355               -0.89063604               -0.04223102                0.14196870                1.01137460                0.16840289               -0.00497603
               4.03989760                9.99372173               45.04925645                0.01000001               -1.38585675                0.39808614                0.15891787                0.84878945                0.31680706                0.01282241
               5.02958399               10.00155904               45.05232829                0.01000000               -0.88117305                0.26497171                0.16715179                0.30199983                0.36790518                0.02700119
               6.02227414               10.00613166               45.05618205                0.01000000               -0.68643302                0.22562305                0.17006335                0.12874564                0.45652153                0.04961234
               7.01585533               10.00761755               45.06120214                0.01000001               -0.65944692                0.19787572                0.17250797               -0.01596518                0.61902767                0.08012843
               8.00908520               10.00671164               45.06837870                0.01000000               -0.74958907                0.26082508                0.17452638               -0.33771446                0.81522808                0.18099425
               9.00086355                9.99972179               45.07735995                1.00000000               -0.43691798               -0.05235517                0.17326183               -0.31717743                0.45193126                0.00036143
              10.00034684                9.99907371               45.07730949                1.00000000               -0.05167077               -0.05174315                0.17153260                0.00066674                0.00036542               -0.00040915
              -0.01213524                0.00423141               46.03686580                0.99366081               -0.02775571               -0.01890658                0.06908043                0.00064906               -0.00569290                0.00571754
               0.98758720                0.00208557               46.03867854                0.99999999               -0.02813486               -0.02617649                0.08473155                0.00306003               -0.00609167               -0.00124282
               1.98730206               -0.00008507               46.04048251                0.08035989               -0.03064956               -0.03081155                0.09949453               -0.00285466               -0.00155584               -0.00274520
               2.98697421               -0.00233708               46.04238539                0.01000000               -0.01951522               -0.01210711                0.06220291                0.23984970               -0.01955963               -0.00337267
               3.98691176                0.00044143               46.04384773                0.01000002               -0.15990888                0.11824357                0.08494778                0.25419246               -0.03303600                0.00069624
               4.98377603                0.00884729               46.04525348                0.01000003               -0.59774449                0.14040916                0.09114181                0.62722135               -0.02756476                0.01388795
               5.97495687                0.02484862               46.04682381                0.04832630               -0.46248179               -0.02920282                0.08201371                0.67365228                0.01235845               -0.00366613
               6.97452640                0.02746125               46.04932340                0.97727295               -0.04024627               -0.02075452                0.09604363                0.01459858                0.02643679               -0.00304539
               7.97415194                0.02985510               46.05136864                1.00000000               -0.03629020               -0.03279389                0.10693495                0.00502707                0.00496689               -0.00028174
               8.97380059                0.03213391               46.05343595                1.00000000               -0.03582189               -0.03476717                0.11568023                0.00134390                0.00497019                0.00108976
               9.97343551                0.03442537               46.05547762                1.00000000               -0.03650887               -0.03827811                0.12579805                0.00133516                0.00391779                0.00423938
              -0.00998291                1.00404235               46.03704094                0.97087962               -0.02410480               -0.02074209                0.07467689               -0.00092528                0.00149975                0.00634334
               0.98977604                1.00182381               46.03885481                0.19917201               -0.02661230               -0.02730889                0.09011659               -0.00047089                0.00378523               -0.00369700
               1.98948484                0.99960682               46.04071419                0.01000000               -0.03332908               -0.03096248                0.10540005                0.00633847                0.01158422               -0.01212578
               2.98910946                0.99754185               46.04268386                0.01000001               -0.28116749                0.03058245                0.06572245                0.18263627               -0.01630199               -0.00194905
               3.98386149                1.00162387               46.04402798                0.01000000               -0.56324027                0.09806120                0.09400013                0.52517730               -0.05428927                0.01204011
               4.97784466                1.01025139               46.04531786                0.01000000               -0.57375396                0.06041932                0.09884788                0.95252081               -0.08351279                0.02973616
               5.97238641                1.02455659               46.04626170                0.01000001               -0.28377567               -0.32042293                0.08554362                0.89660237               -0.04446701                0.05656223
               6.97216914                1.02725370               46.04856563                0.98229040               -0.02602652               -0.02420097                0.09665925                0.01942159                0.01384801               -0.00298837
               7.97186588                1.02952716               46.05061007                0.99999999               -0.03201225               -0.03285150                0.10790794                0.00052106                0.00106070               -0.00017129
               8.97152890                1.03178623               46.05266053                0.99999999               -0.03542470               -0.03532436                0.11819230                0.00016077                0.00082530                0.00118089
               9.97115739                1.03404259               46.05470081                1.00000000               -0.03715061               -0.03867052                0.12851914               -0.00054792                0.00034765                0.00567825
              -0.00771667                2.00381657               46.03722785                0.01000000               -0.02700191                0.01948933                0.08085620                0.05511853                0.00258677                0.09694075
               0.99201331                2.00153939               46.03898145                0.01000000               -0.02862689               -0.11082783                0.09555209                0.05635801                0.00369495                0.07305425
               1.99171079                1.99929568               46.04075753                0.01000001               -0.17017115               -0.12513290                0.09138216                0.11027276                0.02463548                0.04948374
               2.98860989                1.99827457               46.04295562                0.01000000               -0.35025150               -0.00360540                0.10453719                0.35938931                0.00840535                0.02332522
               3.98470576                2.00240265               46.04442985                0.01000000               -0.43580802               -0.01397304                0.10667595                0.88692996               -0.04499479                0.03771515
               4.97989373                2.01005568               46.04566686                0.01000001               -0.44095821               -0.12005444                0.11060034                1.20488368               -0.06575987                0.06113556
               5.97588660                2.01844016               46.04689968                0.01000000               -0.49747366               -0.44636105                0.10997249                1.29602331               -0.08888869                0.10179612
               6.96994426                2.02697723               46.04780935                0.01000000               -0.31283838               -0.25776827                0.09884462                0.76596139               -0.05875068                0.08229452
               7.96962983                2.02919807               46.04985282                0.17224181               -0.03279386               -0.03269735                0.10948838                0.00167966               -0.00298055                0.00679681
               8.96928838                2.03142742               46.05188508                1.00000000               -0.03589996               -0.03617779                0.12095693                0.00065344               -0.00214030               -0.00021826
               9.96891183                2.03365196               46.05394990                0.99999999               -0.03765460               -0.03952768                0.13109235               -0.00042081               -0.00067393                0.00570806
              -0.00432619                3.00443213               46.03921465                0.01000000               -0.02497237                0.04827208                0.07801407                0.06817814               -0.00449734                0.19523257
               0.99542409                2.99960725               46.04069298                0.01000001               -0.03593418               -0.23291511                0.09466915                0.20341684               -0.00281753                0.14755183
               1.99495513                2.99710416               46.04221871                0.01000000               -0.11169054               -0.26873870                0.10809760                0.46199606               -0.00260036                0.10736000
               2.99319028                2.99746974               46.04369449                0.01000000               -0.25680747               -0.16469468                0.11483884                0.84555131               -0.01133097                0.05915862
               3.98981898                3.00134441               46.04510790                0.01000001               -0.36427252               -0.16774931                0.12025357                1.19477639               -0.02659799                0.06088648
               4.98590483                3.00785030               46.04639675                0.01000000               -0.42168224               -0.24325628                0.12248957                1.44709497               -0.04495672                0.08652913
               5.98138533                3.01562937               46.04759252                0.01000001               -0.45871850               -0.31592594                0.12151620                1.45907652               -0.06038011                0.12090184
               6.97673046                3.02209834               46.04876297                0.01000001               -0.69680234               -0.40063383                0.11966746                1.51497872               -0.10567104                0.16760168
               7.96744929                3.02887321               46.04923762                0.01000001               -0.48211916               -0.29458629                0.11680690                1.22097285               -0.09399903                0.16023853
               8.96708807                3.03106268               46.05108387                0.01000001               -0.03746994               -0.36564054                0.12436984                0.93421550               -0.01342823                0.13623312
               9.96669989                3.03325204               46.05317489                0.92288394               -0.03881853               -0.81397025                0.13381138                1.09426008               -0.00157992                0.11040869
               0.00329666                4.00478201               46.04123388                0.01000000                0.01129633               -0.05596101                0.07390415                0.26136812               -0.00664828                0.21082908
               1.00340962                3.99688109               46.04238906                0.01000000               -0.01042148               -0.34699763                0.09678717                0.53936395               -0.00537502                0.14245247
               2.00308823                3.99392091               46.04353763                0.01000000               -0.10644750               -0.34128522                0.11382569                0.93952191               -0.00304134                0.09304002
               3.00128067                3.99498067               46.04475175                0.01000001               -0.24337480               -0.27727124                0.12386173                1.20981040               -0.00007035                0.06864817
               3.99822073                3.99904767               46.04604256                0.01000000               -0.33650016               -0.26295784                0.12896629                1.45410229                0.00105581                0.07203639
               4.99455067                4.00519056               46.04740381                0.01000001               -0.37003210               -0.28998372                0.13126097                1.60202148               -0.00034843                0.10261329
               5.99082009                4.01212164               46.04879922                0.01000001               -0.37753426               -0.35741492                0.13181190                1.68574113               -0.00788390                0.15196533
               6.98699998                4.01896455               46.05013868                0.01000047               -0.28675715               -0.40526256                0.13159681                1.66371753               -0.01361276                0.20850470
               7.98508495                4.02330634               46.05155348                0.01000004               -0.17030589               -0.57713051                0.13315426                1.76434379               -0.00758652                0.28964626
               8.98359387                4.02411461               46.05304360                0.01000000                0.06666845               -0.70794603                0.13784171                1.25946050               -0.00531662                0.27740856
               9.98641832                4.01737256               46.05452305                0.01000001                0.28244514               -1.15288596                0.14511493                0.95937832                0.00596146                0.20556900
               0.01670301                5.00331291               46.04351286                0.01000003                0.03694555               -0.51039407                0.06872526                0.68724941               -0.00727907                0.25124424
               1.01707247                4.99266730               46.04417713                0.01000000               -0.05285131               -0.37372246                0.09597777                1.07969335               -0.00023127                0.14750784
               2.01564599                4.99027846               46.04489684                0.01000001               -0.24063703               -0.30107663                0.11727165                1.27283606                0.00863838                0.07351934
               3.01225973                4.99192431               46.04583484                0.01000000               -0.34774225               -0.32011904                0.12934617                1.45902746                0.02506220                0.05240198
               4.00869114                4.99608525               46.04709779                0.01000001               -0.36942205               -0.29702357                0.13460784                1.58561690                0.04739473                0.06545724
               5.00487129                5.00205062               46.04863283                0.01000001               -0.36824907               -0.30732194                0.13712710                1.65632969                0.06435668                0.10685238
               6.00132616                5.00848107               46.05035307                0.01000000               -0.30255928               -0.35849347                0.13900007                1.61176531                0.07376105                0.16882945
               6.99882010                5.01399309               46.05216347                0.01000000               -0.18700270               -0.47860202                0.14120161                1.50082171                0.07509539                0.24153518
               7.99758611                5.01733060               46.05394577                0.01000000               -0.03045152               -0.58299485                0.14456543                1.24116876                0.06503218                0.29930960
               8.99821107                5.01690376               46.05554062                0.01000000                0.08927254               -0.64688319                0.14943881                0.83026984                0.04075140                0.31540726
               9.99937156                5.01019432               46.05674005                0.01000000                0.11604864               -0.50583628                0.15558965                0.40184005                0.02699364                0.26567844
               0.03833287                5.99457413               46.04645815                0.06581517               -0.02949303               -0.44886246                0.06920308                0.82451482               -0.00862186                0.17703295
               1.03803794                5.98940664               46.04629307                0.01000001               -0.45224700               -0.17361515                0.08890061                0.97634577               -0.01216692                0.10118764
               2.02928794                5.98789938               46.04606991                0.01000000               -0.66917581               -0.30939887                0.11950283                1.32400762                0.00047937                0.04456983
               3.02465443                5.98857829               46.04677017                0.01000001               -0.47405871               -0.31601396                0.13157767                1.42728607                0.06435363                0.01859439
               4.01980676                5.99310720               46.04811053                0.01000001               -0.46864928               -0.29712750                0.13687050                1.62107356                0.11059850                0.04119253
               5.01528144                5.99904412               46.04994868                0.01000000               -0.43469135               -0.24702316                0.14048950                1.56483298                0.14700243                0.09844528
               6.01111293                6.00495177               46.05215192                0.01000000               -0.35572808               -0.29359306                0.14355107                1.38055214                0.17028938                0.17278367
               7.00816688                6.00939251               46.05453882                0.01000000               -0.20576418               -0.40138110                0.14791803                1.10331862                0.17492047                0.25972370
               8.00699765                6.01164645               46.05686076                0.01000000               -0.04156671               -0.51419522                0.15309999                0.80046368                0.15151362                0.34045250
               9.00733555                6.01117694               46.05874998                0.01000001                0.04381732               -0.50852398                0.15859799                0.43754203                0.09207559                0.38658098
              10.00787400                6.00725583               46.05981966                0.01000000                0.05384496               -0.20559196                0.16374217                0.20786249                0.05382910                0.35990752
               0.04352828                6.99433566               46.04786003                0.95469202               -0.02541473               -0.02652766                0.09122832                0.00581355               -0.01179056                0.05538313
               1.04327414                6.98919500               46.04742536                0.94485576               -0.02868963               -0.02653779                0.10295921                0.00675487               -0.01208595                0.03045669
               2.04295449                6.98409048               46.04699075                0.01000000               -0.38382529               -0.20830306                0.11509540                0.75976472                0.03103616                0.00842225
               3.03559763                6.98560403               46.04742560                0.01000001               -0.61538513               -0.49497567                0.12728457                1.45152090                0.10284103               -0.05735091
               4.03064679                6.99014270               46.04891565                0.01000000               -0.56371278               -0.19434240                0.14203142                1.53568963                0.18768899                0.01561573
               5.02432337                6.99711016               46.05123704                0.01000000               -0.60289898               -0.11419438                0.14127118                1.39593770                0.24222433                0.08297566
               6.01858881                7.00260921               46.05403979                0.01000000               -0.50657898               -0.13611992                0.14637724                1.03780121                0.27896767                0.16273462
               7.01419179                7.00596546               46.05722722                0.01000000               -0.33889311               -0.23943105                0.15266348                0.63952067                0.29558881                0.26406639
               8.01181095                7.00704670               46.06041625                0.01000001               -0.14196341               -0.37965773                0.15951070                0.27185754                0.26548608                0.40319337
               9.01135253                7.00673328               46.06300776                0.01000002               -0.02199567               -0.41685641                0.16569963                0.06223721                0.16331232                0.50288503
              10.01137103                7.00608248               46.06414198                0.01000001                0.00185060               -0.11140666                0.16972763               -0.00404993                0.08979931                0.53350416
               0.04873048                7.99404358               46.04845780                1.00000000               -0.03122557               -0.02960350                0.09679322                0.00274145               -0.00184279                0.01904676
               1.04841823                7.98887589               46.04801260                0.99999999               -0.03281457               -0.03259841                0.10875117                0.00060288               -0.00187723                0.00413108
               2.04807419                7.98373332               46.04757087                0.15361868               -0.03927999               -0.03666538                0.12139584                0.00417137                0.00166954               -0.01130588
               3.04763263                7.97867878               46.04720497                0.01000001               -0.45298815               -0.37075857                0.20370195                1.13607642                0.15499461               -0.09419922
               4.03901443                7.98922035               46.04961303                0.01000006               -0.84494690               -0.04528569                0.13592453                1.53910426                0.29624008                0.01145868
               5.03073369                7.99676023               46.05240460                0.01000000               -0.80003868                0.07542844                0.14423320                1.08622445                0.32667716                0.06584049
               6.02301365                8.00222937               46.05582918                0.01000000               -0.71069434                0.05623873                0.14923524                0.67184895                0.38262696                0.13365322
               7.01651980                8.00460389               46.05990836                0.01000001               -0.56733340               -0.01799141                0.15678083                0.20233393                0.45166389                0.23193996
               8.01166699                8.00405329               46.06480980                0.01000002               -0.34876453               -0.14571858                0.16469312               -0.24918956                0.44035800                0.39557526
               9.00954451                8.00283982               46.06871317                0.01000004               -0.12861949               -0.32157051                0.17103579               -0.50538567                0.29393577                0.81102089
              10.00909460                8.00502770               46.07071542                0.01000000               -0.04499150               -0.32207752                0.17387433               -0.36241979                0.19510512                0.74270945
               0.05391849                8.99374359               46.04913348                1.00000000               -0.03220375               -0.03061524                0.10164180                0.00081529                0.00280204                0.01839144
               1.05359645                8.98854303               46.04862159                0.99999999               -0.03417320               -0.03423274                0.11422197                0.00013074                0.00256434                0.00329801
               2.05323503                8.98335717               46.04810521                0.99999999               -0.03821637               -0.03829393                0.12761318                0.00004161               -0.00226338               -0.00801379
               3.05283213                8.97818886               46.04750061                0.01000001               -0.49438024               -0.04608369                0.14189190                0.81304437                0.16277086               -0.02601129
               4.04334742                8.98923698               46.05028762                0.01000000               -0.98966421                0.20300050                0.15413281                1.08422580                0.33631538                0.00709134
               5.03303884                8.99861873               46.05340540                0.01000000               -0.95826480                0.22729535                0.15221267                0.67741419                0.37457181                0.04207100
               6.02418213                9.00373398               46.05721770                0.01000001               -0.83121457                0.18948574                0.15568897                0.31822490                0.45269566                0.07897985
               7.01641455                9.00560564               46.06206459                0.01000002               -0.77954488                0.14964886                0.16249431               -0.00909002                0.56888837                0.14070330
               8.00859123                9.00413233               46.06831986                0.01000001               -0.80720718                0.13469016                0.16900735               -0.39084416                0.86425209                0.26522028
               9.00027041                9.00030187               46.07915830                1.00000000               -0.44221778               -0.15303407                0.17562741               -0.65547203                0.54497034                0.52595396
               9.99974687                8.99964093               46.07908924                0.99999998               -0.05235344               -0.29522014                0.17366814               -0.50034724               -0.00042039                0.42155920
               0.05914792                9.99343127               46.04971455                1.00000000               -0.03406574               -0.03123212                0.10693821               -0.00106100                0.01366594                0.01394266
               1.05880726                9.98819123               46.04919521                0.99999999               -0.03593666               -0.03517945                0.11968996               -0.00211073                0.01762470                0.00142039
               2.05842919                9.98296744               46.04875359                0.99999999               -0.03967813               -0.03897331                0.13223464               -0.00229037                0.01744461               -0.00261921
               3.05801370                9.97775710               46.04823912                0.86130766               -0.90800549               -0.04317581                0.14453324                1.03380347                0.17023991               -0.00464735
               4.04026908                9.99328036               46.05087141                0.01000001               -1.41143623                0.40433741                0.16701315                0.86961713                0.32515253                0.00767508
               5.02978498               10.00130614               46.05401991                0.01000002               -0.89389164                0.26874075                0.17040046                0.31154968                0.37115759                0.02711100
               6.02239125               10.00601908               46.05788944                0.01000000               -0.69226606                0.22851035                0.16971350                0.13544846                0.45977233                0.04660108
               7.01593966               10.00759687               46.06292848                0.01000001               -0.66186876                0.19912319                0.17249846               -0.01108905                0.62133784                0.07781711
               8.00915387               10.00674710               46.07012425                0.01000000               -0.75065928                0.26147679                0.17467763               -0.33462249                0.81495001                0.18100647
               9.00092647                9.99977913               46.07909252                0.99999998               -0.43721698               -0.05227333                0.17327020               -0.31558380                0.45225002                0.00038357
              10.00040953                9.99912330               46.07902344                1.00000000               -0.05169392               -0.05176334                0.17133613                0.00068178                0.00039772               -0.00039742
              -0.01414813                0.00412337               47.03755485                0.99229943               -0.02249628               -0.02165298                0.06931846                0.00354964               -0.00923254                0.00866162
               0.98562691                0.00186339               47.03952466                0.99999999               -0.02506690               -0.02599967                0.08433124                0.00213651               -0.00781944               -0.00148592
               1.98535054               -0.00037842               47.04147696                0.06849258               -0.02757776               -0.03080679                0.09927465               -0.00084749               -0.03054123               -0.00342176
               2.98507536               -0.00266755               47.04297957                0.01000000               -0.01258691               -0.01378347                0.06126933                0.24918743               -0.03256917                0.00007888
               3.98509880                0.00024627               47.04468900                0.01000002               -0.15586457                0.11892150                0.08593426                0.26336751               -0.02705898                0.00669061
               4.98195807                0.00890814               47.04616472                0.01000001               -0.60534640                0.14061574                0.09327885                0.64246702               -0.03980829                0.01809871
               5.97299187                0.02534720               47.04764032                0.04240226               -0.47931733               -0.02504488                0.08069898                0.69308671                0.00610932               -0.00570886
               6.97237172                0.02829347               47.05028137                0.97592294               -0.04587927               -0.02975733                0.09549042                0.03418423                0.02283322                0.00274913
               7.97207428                0.03059358               47.05243504                1.00000000               -0.03171724               -0.03168479                0.10550595                0.00115536                0.00227458               -0.00102336
               8.97173737                0.03290932               47.05458950                1.00000000               -0.03490553               -0.03486887                0.11479746                0.00170578                0.00296990                0.00108266
               9.97137617                0.03522782               47.05673142                1.00000000               -0.03611994               -0.03800843                0.12465271                0.00099822                0.00286173                0.00365789
              -0.01185265                1.00390684               47.03778752                0.98102087               -0.02481749               -0.02227423                0.07466504                0.00112041                0.00169595                0.00818208
               0.98789917                1.00160339               47.03975578                0.19036854               -0.02699070               -0.02690521                0.08964117               -0.00009635                0.00375878               -0.00378463
               1.98760753                0.99931351               47.04176853                0.01000000               -0.03221449               -0.03126880                0.10481477                0.00767117               -0.01731409               -0.01698444
               2.98725488                0.99719461               47.04331258                0.01000001               -0.28314526                0.03183097                0.06448097                0.19109899               -0.03049302                0.01287247
               3.98194463                1.00143549               47.04496899                0.01000000               -0.57113046                0.09835562                0.09628260                0.54243654               -0.04667449                0.02013028
               4.97583227                1.01031429               47.04631822                0.01000000               -0.58572792                0.05958959                0.10338028                0.98175171               -0.09922990                0.03343848
               5.97023007                1.02509675               47.04711713                0.01000001               -0.28709513               -0.32896761                0.08918151                0.92793980               -0.05898883                0.06662647
               6.97009037                1.02799590               47.04953573                0.97760627               -0.02260781               -0.02959861                0.09813914                0.03202362                0.01500061               -0.00052265
               7.96977791                1.03027673               47.05169092                0.99999999               -0.03265302               -0.03228717                0.10822938                0.00030125                0.00124097               -0.00024059
               8.96943731                1.03256063               47.05384242                0.99999999               -0.03551271               -0.03539793                0.11813359                0.00015368                0.00048341                0.00125227
               9.96906766                1.03484773               47.05598522                1.00000000               -0.03696508               -0.03856546                0.12817645               -0.00056929                0.00020011                0.00515932
              -0.00951883                2.00367788               47.03803715                0.01000000               -0.02628555                0.02219892                0.07997422                0.06050538                0.00277760                0.09451210
               0.99021831                2.00132529               47.03993916                0.01000000               -0.02842139               -0.11224531                0.09468588                0.06120188                0.00067327                0.07114221
               1.98991274                1.99899620               47.04178583                0.01000001               -0.17214785               -0.12755072                0.10060436                0.11839400                0.01601847                0.04495269
               2.98677536                1.99796907               47.04399307                0.01000000               -0.35424475               -0.00270338                0.10539004                0.37507740               -0.00400140                0.04516294
               3.98282785                2.00221338               47.04551288                0.01000000               -0.44217589               -0.01597025                0.11059134                0.91509612               -0.05507342                0.04621326
               4.97793184                2.01009993               47.04679091                0.01000001               -0.44793924               -0.12520589                0.11583444                1.24297167               -0.07753141                0.06586698
               5.97386906                2.01876784               47.04801726                0.01000000               -0.50498146               -0.46212803                0.11500583                1.34506226               -0.10741181                0.11323942
               6.96783221                2.02770150               47.04880701                0.01000000               -0.31767433               -0.27032639                0.10079785                0.79408230               -0.06882649                0.09355156
               7.96751558                2.02994783               47.05095395                0.18386423               -0.03313843               -0.03299264                0.11098212                0.00120524               -0.00158807                0.00952391
               8.96716944                2.03220136               47.05309791                0.99999999               -0.03624948               -0.03637880                0.12171967                0.00050111               -0.00122064                0.00035740
               9.96679059                2.03445651               47.05526336                0.99999999               -0.03788554               -0.03967455                0.13157758               -0.00054840               -0.00039198                0.00523635
              -0.00593735                3.00435082               47.03999775                0.01000002               -0.02577546                0.05127130                0.07962262                0.07458679               -0.00532396                0.18539763
               0.99380489                2.99935849               47.04165931                0.01000001               -0.03655069               -0.23909415                0.09915054                0.21387612               -0.00754333                0.14737128
               1.99333163                2.99676249               47.04330502                0.01000000               -0.11328235               -0.27502490                0.11216154                0.48134005               -0.01316747                0.11307213
               2.99153925                2.99714054               47.04487202                0.01000000               -0.26079729               -0.16981160                0.11992491                0.87475089               -0.02434696                0.06766318
               3.98811569                3.00111608               47.04633340                0.01000000               -0.37009993               -0.17381381                0.12516491                1.23254759               -0.04093508                0.06634096
               4.98413725                3.00781018               47.04764440                0.01000000               -0.42929719               -0.25227878                0.12759016                1.49469631               -0.06009912                0.08851743
               5.97952975                3.01585419               47.04882640                0.01000001               -0.46726096               -0.32747813                0.12587215                1.51079056               -0.07630701                0.12348942
               6.97479203                3.02258937               47.04997073                0.01000001               -0.71137946               -0.41925515                0.12249112                1.56798587               -0.12079363                0.17922173
               7.96530216                3.02961687               47.05040829                0.01000001               -0.49266861               -0.30599207                0.11681275                1.26180580               -0.10096147                0.16998898
               8.96493866                3.03183306               47.05233442                0.01000001               -0.03778782               -0.37795734                0.12584608                0.96407519               -0.01397426                0.14200185
               9.96454640                3.03405424               47.05451883                0.95564378               -0.03922573               -0.84163768                0.13509006                1.13049451               -0.00149573                0.11430215
               0.00195756                4.00470331               47.04196472                0.01000000                0.01265971               -0.05835566                0.07412481                0.27235627               -0.00971246                0.19758847
               1.00208416                3.99654340               47.04338248                0.01000000               -0.01000377               -0.35990962                0.10403796                0.56149144               -0.01306890                0.14311248
               2.00175749                3.99349570               47.04471698                0.01000000               -0.10836862               -0.35203761                0.12210986                0.97364291               -0.01767318                0.09958905
               2.99991679                3.99457283               47.04602643                0.01000001               -0.24741599               -0.28676018                0.13083066                1.24961081               -0.01841279                0.07323270
               3.99680917                3.99873711               47.04736137                0.01000000               -0.34145627               -0.27292771                0.13463065                1.50162713               -0.01682311                0.07258202
               4.99308766                4.00505435               47.04873958                0.01000001               -0.37517436               -0.30102004                0.13592938                1.65770147               -0.01651363                0.10010038
               5.98930568                4.01221828               47.05013516                0.01000001               -0.38292111               -0.37075716                0.13561094                1.74856015               -0.02225303                0.15084195
               6.98542924                4.01931640               47.05146745                0.01000002               -0.28988370               -0.42124751                0.13440283                1.72729048               -0.02496253                0.21182128
               7.98350801                4.02382799               47.05289492                0.01000004               -0.17078306               -0.59890367                0.13552357                1.82664082               -0.01442530                0.29907105
               8.98201358                4.02464221               47.05443087                0.01000000                0.07250493               -0.73265505                0.13992556                1.30218920               -0.00783245                0.28609450
               9.98495810                4.01762375               47.05598309                0.01000001                0.29445263               -1.19395689                0.14731465                0.99124708                0.00516974                0.21196289
               0.01582958                5.00318370               47.04416690                0.01000003                0.04127450               -0.52693128                0.06209441                0.71447013               -0.01404041                0.24193556
               1.01624233                4.99216030               47.04516067                0.01000000               -0.05272611               -0.39051350                0.10383544                1.12295359               -0.01061028                0.13857320
               2.01477506                4.98972174               47.04611743                0.01000001               -0.24761364               -0.31165751                0.12918978                1.32104370               -0.00855919                0.07519133
               3.01129006                4.99140534               47.04716677                0.01000000               -0.35541747               -0.33277825                0.13849806                1.50939346                0.00381778                0.05332927
               4.00766671                4.99565753               47.04847635                0.01000001               -0.37399761               -0.31007523                0.14042896                1.64074948                0.02794922                0.05967227
               5.00381010                5.00178978               47.05002434                0.01000001               -0.37139039               -0.32014217                0.14107045                1.71821002                0.04900927                0.09882085
               6.00023891                5.00843904               47.05175722                0.01000161               -0.30409879               -0.37252588                0.14192204                1.67740247                0.06299422                0.16221021
               6.99772813                5.01416442               47.05358694                0.01000000               -0.18648760               -0.49563543                0.14379044                1.56515087                0.06828579                0.23963122
               7.99650915                5.01763880               47.05540216                0.01000000               -0.02707262               -0.60249766                0.14707226                1.29459785                0.06142567                0.30227473
               8.99718668                5.01717995               47.05704579                0.01000000                0.09495544               -0.66801450                0.15203481                0.86390382                0.03934661                0.32045754
               9.99840826                5.01017510               47.05830633                0.01000000                0.12215854               -0.52498242                0.15825836                0.41756663                0.02635827                0.26913635
               0.03829378                5.99416468               47.04711207                0.04998972               -0.02885870               -0.46684836                0.05685207                0.85708110               -0.01907367                0.19391677
               1.03800519                5.98873313               47.04718387                0.01000001               -0.46802320               -0.17732222                0.09380894                1.01951831               -0.01784677                0.09013934
               2.02893332                5.98726255               47.04731544                0.01000000               -0.69181613               -0.31624371                0.13337818                1.38077230               -0.00702344                0.03665812
               3.02416887                5.98791727               47.04816199                0.01000001               -0.48467968               -0.33748753                0.14070789                1.47931250                0.04456110                0.00465108
               4.01923972                5.99253560               47.04950335                0.01000001               -0.47492616               -0.31013998                0.14247973                1.68249617                0.09183116                0.03099062
               5.01467035                5.99865151               47.05136551                0.01000002               -0.43803186               -0.25859690                0.14240388                1.62900071                0.13578593                0.08311110
               6.01047909                6.00476776               47.05359425                0.01000000               -0.35689243               -0.30625286                0.14514791                1.44406762                0.16518554                0.16010016
               7.00753250                6.00940369               47.05602475                0.01000000               -0.20473286               -0.41533453                0.14963840                1.16180593                0.17423051                0.25263858
               8.00638443                6.01177804               47.05840029                0.01000000               -0.03885732               -0.52873701                0.15524872                0.84708684                0.15277095                0.33925250
               9.00675535                6.01128192               47.06034621                0.01000001                0.04673554               -0.52116635                0.16112917                0.46381800                0.09336664                0.38864531
              10.00731914                6.00712411               47.06146705                0.01000000                0.05637869               -0.21147970                0.16641911                0.21997368                0.05434130                0.36049606
               0.04383431                6.99384674               47.04877601                0.94787449               -0.02994786               -0.02995854                0.09167491                0.01659845               -0.00952874                0.06448975
               1.04353483                6.98861385               47.04846077                0.93251777               -0.03139665               -0.02194637                0.10427789                0.01635973               -0.01152160                0.03528635
               2.04320637                6.98339687               47.04814757                0.01000000               -0.39657861               -0.21131955                0.11685390                0.77705432                0.02806094                0.00264330
               3.03560326                6.98465559               47.04864279                0.01000001               -0.63119885               -0.52183866                0.14494810                1.50454786                0.10016177               -0.02481022
               4.03058240                6.98945473               47.05035092                0.01000002               -0.57226480               -0.19719657                0.13766697                1.60886957                0.18237031               -0.00760940
               5.02415796                6.99661784               47.05264529                0.01000000               -0.61071582               -0.12109185                0.14127208                1.45399686                0.23632008                0.06243585
               6.01836808                7.00231399               47.05550040                0.01000000               -0.51019928               -0.14429868                0.14564301                1.09310855                0.28270730                0.14392190
               7.01395397                7.00585773               47.05875279                0.01000000               -0.33977136               -0.24844280                0.15304761                0.68906091                0.30256474                0.25308473
               8.01157265                7.00706406               47.06201574                0.01000000               -0.14185029               -0.38792995                0.16091031                0.30989932                0.27257996                0.39956853
               9.01111697                7.00675663               47.06467264                0.01000002               -0.02246393               -0.42093202                0.16775631                0.08324714                0.16779918                0.50358066
              10.01112337                7.00594551               47.06584710                0.01000000                0.00064060               -0.10757488                0.17194294                0.00489558                0.09173101                0.53314780
               0.04909152                7.99356551               47.04942669                1.00000000               -0.03092624               -0.02884897                0.09650680                0.00094408               -0.00245254                0.01798144
               1.04878226                7.98829421               47.04910286                1.00000000               -0.03294274               -0.03281658                0.10961762                0.00039853               -0.00168471                0.00433584
               2.04843266                7.98303616               47.04879333                0.36527809               -0.02901445               -0.03672938                0.12190939               -0.01550620                0.04275723               -0.00976223
               3.04820197                7.97748050               47.04936927                0.01000001               -0.44888984               -0.36287526                0.08539793                1.16317903                0.14696978               -0.07369762
               4.03945487                7.98859167               47.05087482                0.01000005               -0.86554701               -0.04152059                0.14405933                1.59562203                0.25641030               -0.00793098
               5.03089103                7.99622967               47.05385657                0.01000000               -0.81767511                0.07588001                0.13784434                1.12312359                0.33925709                0.04221844
               6.02310136                8.00188179               47.05729616                0.01000000               -0.71636926                0.05403882                0.14525404                0.71238720                0.39462409                0.11263855
               7.01656364                8.00443483               47.06146820                0.01000000               -0.57089243               -0.02124925                0.15561575                0.23821222                0.46649019                0.22001210
               8.01168352                8.00401944               47.06645595                0.01000002               -0.35123978               -0.14853580                0.16523055               -0.22192035                0.45218928                0.39140076
               9.00953885                8.00286328               47.07042798                0.01000000               -0.13221150               -0.31857752                0.17228801               -0.49087055                0.30082825                0.81295922
              10.00903929                8.00497261               47.07245872                0.01000001               -0.04995599               -0.31156018                0.17519559               -0.35414606                0.19728033                0.74244982
               0.05439580                8.99326976               47.05014711                1.00000000               -0.03236502               -0.03023785                0.10089652                0.00112609                0.00271357                0.01748838
               1.05407215                8.98795752               47.04976545                0.99999999               -0.03429202               -0.03446434                0.11477176                0.00045643                0.00293983                0.00336756
               2.05370996                8.98266228               47.04938902                1.00000000               -0.03804126               -0.03827365                0.12833552                0.00115994               -0.00080905               -0.00756795
               3.05331132                8.97739809               47.04893657                0.01000001               -0.49821498               -0.02601573                0.14194254                0.81740874                0.16139624               -0.06565196
               4.04374566                8.98862432               47.05180457                0.01000000               -0.99905055                0.20579913                0.14290999                1.09511718                0.33505194                0.00952428
               5.03333031                8.99813544               47.05490384                0.01000000               -0.96674978                0.23212885                0.13933949                0.69342614                0.38846192                0.02286243
               6.02441066                9.00339476               47.05874475                0.01000001               -0.83748721                0.19191986                0.14917196                0.33784765                0.47248994                0.06462369
               7.01658057                9.00543274               47.06367712                0.01000002               -0.78524362                0.15056399                0.16091159                0.00911108                0.58557395                0.13274313
               8.00870579                9.00409334               47.07000705                0.01000001               -0.81170914                0.13517828                0.16913685               -0.37555102                0.87628440                0.26272747
               9.00034639                9.00038508               47.08091517                1.00000000               -0.44419936               -0.15011242                0.17566404               -0.64542654                0.54948747                0.52930701
               9.99982181                8.99971431               47.08082579                0.99999999               -0.05245819               -0.28876283                0.17364737               -0.49439411               -0.00041996                0.42242261
               0.05973851                9.99296076               47.05077926                1.00000000               -0.03396526               -0.03090007                0.10587628               -0.00131225                0.01355807                0.01346317
               1.05939886                9.98760492               47.05039375                1.00000000               -0.03616084               -0.03526000                0.11986375               -0.00183227                0.01745009                0.00158961
               2.05901530                9.98227069               47.05008342                0.99999998               -0.04053779               -0.03915920                0.13413026               -0.00170319                0.01690958               -0.00299730
               3.05858811                9.97696018               47.04969610                0.91717788               -0.91977195               -0.04379038                0.14850048                1.04952642                0.17648043               -0.00709321
               4.04061986                9.99270765               47.05259671                0.01000001               -1.42995008                0.40833384                0.18163273                0.88302319                0.33743406                0.00374657
               5.02998910               10.00087225               47.05573630                0.01000001               -0.90294236                0.27368119                0.16386196                0.31650563                0.38547653                0.01762584
               6.02256101               10.00572019               47.05957632                0.01000000               -0.69709118                0.23254249                0.16742291                0.14372772                0.47183382                0.03959207
               7.01604728               10.00744611               47.06465211                0.01000001               -0.66704242                0.20133668                0.17285511               -0.00318809                0.62900807                0.07425398
               8.00922016               10.00672300               47.07187225                0.01000000               -0.75189631                0.26296588                0.17547472               -0.32781668                0.81578028                0.18059276
               9.00100935                9.99986104               47.08082536                1.00000000               -0.43636085               -0.05240411                0.17331720               -0.30998589                0.45253255                0.00040573
              10.00049295                9.99919735               47.08073622                1.00000000               -0.05164083               -0.05169545                0.17129805                0.00074564                0.00043001               -0.00038570
              -0.01625952                0.00393929               48.03825217                0.99160443               -0.02317835               -0.02156068                0.07006107                0.00283605               -0.00731073                0.00770496
               0.98350870                0.00159362               48.04036516                0.99999999               -0.02520763               -0.02600079                0.08425270                0.00235562               -0.00817503               -0.00094026
               1.98323633               -0.00073663               48.04246800                0.04979732               -0.01989526               -0.03051039                0.09877626                0.00478636               -0.05650596               -0.00390472
               2.98311079               -0.00300152               48.04361078                0.01000000               -0.00254512               -0.02126901                0.06379094                0.25642996               -0.04437027                0.00453066
               3.98318543                0.00001527               48.04556642                0.01000000               -0.15411238                0.11873280                0.09338662                0.26888260               -0.02264655                0.01589312
               4.98002854                0.00890227               48.04711906                0.01000000               -0.61115103                0.13916993                0.10016869                0.65661482               -0.05829679                0.01960877
               5.97096241                0.02578082               48.04843778                0.03670150               -0.49201014               -0.02686416                0.07757916                0.70793490                0.00465850               -0.00960555
               6.97018834                0.02900752               48.05123321                0.97488611               -0.05365467               -0.02899040                0.09491860                0.04780495                0.02897905               -0.00109609
               7.96988931                0.03132288               48.05347876                1.00000000               -0.03123649               -0.03194404                0.10403893                0.00158010                0.00192862                0.00020373
               8.96956361                0.03364971               48.05573189                1.00000000               -0.03402143               -0.03468469                0.11353447                0.00146871                0.00229568                0.00101308
               9.96920888                0.03599094               48.05797067                1.00000000               -0.03547285               -0.03771034                0.12305177                0.00081414                0.00217904                0.00328708
              -0.01388549                1.00372368               48.03853424                0.98953935               -0.02442925               -0.02213504                0.07443024                0.00071284                0.00099935                0.00830059
               0.98587021                1.00133361               48.04064763                0.17299801               -0.02663721               -0.02674603                0.08874040                0.00019937                0.00371299               -0.00363137
               1.98558176                0.99895826               48.04281049                0.01000000               -0.02855359               -0.03025607                0.10346532                0.00965502               -0.04349337               -0.02276234
               2.98529914                0.99678579               48.04397348                0.01000001               -0.28297021                0.03099493                0.06612421                0.19681774               -0.04693262                0.03379953
               3.97992236                1.00120259               48.04595364                0.01000000               -0.57936139                0.09736200                0.10518464                0.55646053               -0.03842110                0.02828467
               4.97371191                1.01029397               48.04738547                0.01000000               -0.59666134                0.05722865                0.11237927                1.00598815               -0.11423462                0.03328861
               5.96798913                1.02551218               48.04804533                0.01000001               -0.29082753               -0.33925755                0.09763762                0.95917506               -0.07273782                0.06652882
               6.96789536                1.02871761               48.05052842                0.97277151               -0.02025582               -0.02971282                0.09939568                0.04669722                0.01237452               -0.00067542
               7.96758401                1.03100344               48.05277466                0.99999999               -0.03255480               -0.03258488                0.10853765                0.00015561                0.00061122                0.00022141
               8.96724427                1.03330286               48.05502320                0.99999999               -0.03541099               -0.03535729                0.11800496                0.00006728                0.00038329                0.00144300
               9.96687579                1.03561384               48.05726434                0.99999999               -0.03684724               -0.03839331                0.12757567               -0.00069249                0.00014050                0.00479708
              -0.01146513                2.00349659               48.03882734                0.01000001               -0.02567673                0.02444213                0.07846551                0.06269658                0.00302565                0.09338105
               0.98827810                2.00105870               48.04087517                0.01000000               -0.02788091               -0.11111301                0.09276575                0.06286977               -0.00418991                0.07261341
               1.98797725                1.99865824               48.04276962                0.01000001               -0.17376433               -0.12619038                0.10084586                0.12284940                0.00844632                0.04572400
               2.98480282                1.99761838               48.04506342                0.01000000               -0.35853959                0.00019274                0.10746244                0.38400393               -0.01195152                0.07173219
               3.98080646                2.00196251               48.04664168                0.01000000               -0.44820478               -0.01899302                0.11678001                0.93670007               -0.06394563                0.05357727
               4.97583872                2.01004684               48.04798355                0.01000001               -0.45420980               -0.13109943                0.12381624                1.27655470               -0.08791999                0.06501181
               5.97172226                2.01899567               48.04919979                0.01000000               -0.51038452               -0.47654636                0.12225516                1.39550752               -0.12872800                0.11707563
               6.96563103                2.02841326               48.04982531                0.01000000               -0.32075463               -0.28476419                0.10308865                0.82564223               -0.08125340                0.10332500
               7.96530717                2.03067118               48.05207246                0.19564243               -0.03382360               -0.03357046                0.11272674                0.00058298               -0.00087122                0.01019575
               8.96495456                2.03294257               48.05431948                1.00000000               -0.03670418               -0.03665543                0.12263017                0.00028355               -0.00069180                0.00081678
               9.96457309                2.03522308               48.05658145                0.99999999               -0.03814703               -0.03977422                0.13204140               -0.00068134               -0.00019180                0.00492992
              -0.00775579                3.00421252               48.04080710                0.01000005               -0.02782570                0.05340213                0.08269742                0.07648338               -0.00545722                0.17954438
               0.99196595                2.99911135               48.04267599                0.01000001               -0.03825678               -0.24083577                0.10294813                0.21699063               -0.01282450                0.15749075
               1.99147907                2.99643445               48.04446194                0.01000000               -0.11454952               -0.27789824                0.11624124                0.48959309               -0.02720237                0.12998084
               2.98967496                2.99678965               48.04609299                0.01000000               -0.26255871               -0.17339030                0.12343863                0.89267448               -0.04043064                0.08034601
               3.98622790                3.00082273               48.04761120                0.01000000               -0.37325589               -0.18030718                0.12986823                1.26234989               -0.05503941                0.07161585
               4.98220984                3.00767198               48.04894855                0.01000000               -0.43475164               -0.26171081                0.13333174                1.53832030               -0.07548940                0.08611050
               5.97753286                3.01598125               48.05010996                0.01000001               -0.47385712               -0.33940076                0.13106086                1.56376182               -0.09354777                0.12129070
               6.97273270                3.02302233               48.05121279                0.01000001               -0.72332484               -0.44142478                0.12587228                1.62303581               -0.13874025                0.18925338
               7.96306637                3.03033203               48.05157388                0.01000001               -0.50173277               -0.31886426                0.11738059                1.30366418               -0.10856963                0.17899063
               8.96269804                3.03256976               48.05360080                0.01000001               -0.03826088               -0.39087170                0.12753897                0.99404061               -0.01338876                0.14760387
               9.96230115                3.03481835               48.05587669                0.98712897               -0.03968942               -0.86993777                0.13655915                1.16706887               -0.00143182                0.11844739
               0.00026687                4.00456463               48.04271638                0.01000000                0.01291074               -0.06041277                0.07954771                0.27725900               -0.01472285                0.18489273
               1.00039598                3.99624199               48.04446982                0.01000000               -0.00880271               -0.37369880                0.11300004                0.57397169               -0.02854775                0.15921542
               2.00009082                3.99310028               48.04597982                0.01000000               -0.10639778               -0.36253161                0.12891865                0.99491078               -0.04317884                0.11873210
               2.99826803                3.99415057               48.04736836                0.01000001               -0.24598485               -0.29671557                0.13552304                1.27791465               -0.04381515                0.08468278
               3.99517112                3.99835636               48.04873517                0.01000000               -0.34107107               -0.28430108                0.13881878                1.54133581               -0.03824814                0.07301108
               4.99144661                4.00481263               48.05012240                0.01000001               -0.37619858               -0.31354390                0.14006131                1.71060244               -0.03421558                0.09471061
               5.98764715                4.01220766               48.05151144                0.01000001               -0.38528170               -0.38575346                0.13952190                1.81313561               -0.03780591                0.14646053
               6.98374097                4.01958476               48.05282673                0.01000001               -0.29070630               -0.43969546                0.13763246                1.79472108               -0.03709870                0.21315966
               7.98183303                4.02429390               48.05426396                0.01000004               -0.16959632               -0.62306483                0.13844263                1.89148890               -0.02166767                0.30881526
               8.98034904                4.02512513               48.05584211                0.01000000                0.07921219               -0.75860940                0.14270554                1.34631068               -0.01048163                0.29466924
               9.98341727                4.01782432               48.05746934                0.01000000                0.30682249               -1.23626327                0.15041907                1.02374332                0.00445952                0.21870352
               0.01443467                5.00300427               48.04475475                0.01000003                0.04750603               -0.53606346                0.06376676                0.74035787               -0.04041652                0.23171321
               1.01490973                4.99163738               48.04625384                0.01000000               -0.04829866               -0.41663291                0.12075066                1.16306089               -0.04457882                0.14708299
               2.01346870                4.98918382               48.04748063                0.01000001               -0.24662810               -0.32489362                0.14112421                1.36482398               -0.04722554                0.09262902
               3.00997717                4.99085533               48.04860480                0.01000000               -0.35380687               -0.34776402                0.14517152                1.55213012               -0.03251737                0.05654065
               4.00639256                4.99513671               48.04990637                0.01000001               -0.37032871               -0.32519640                0.14406699                1.69072534                0.00123441                0.05417491
               5.00257060                5.00140110               48.05145424                0.01000001               -0.36845613               -0.33636183                0.14407180                1.77945669                0.03111290                0.08764397
               5.99902344                5.00826618               48.05319151                0.01000191               -0.30148568               -0.38985313                0.14495979                1.74687890                0.05122651                0.15251084
               6.99654088                5.01422842               48.05503927                0.01000000               -0.18338310               -0.51526645                0.14693686                1.63545135                0.06109410                0.23580048
               7.99535578                5.01787073               48.05688721                0.01000000               -0.02235245               -0.62379919                0.15034543                1.35338643                0.05777435                0.30402475
               8.99609383                5.01739757               48.05858132                0.01000000                0.10109320               -0.69010688                0.15555610                0.90047146                0.03796429                0.32508252
               9.99737764                5.01009309               48.05990522                0.01000000                0.12838077               -0.54496705                0.16223834                0.43464591                0.02567379                0.27244477
               0.03780781                5.99384336               48.04759519                0.03489498               -0.03301668               -0.48467137                0.03415737                0.88327248               -0.05699339                0.24143671
               1.03747764                5.98790933               48.04816924                0.01000001               -0.48192341               -0.18278208                0.11132001                1.07607319               -0.06438775                0.06849664
               2.02816934                5.98660241               48.04873747                0.01000000               -0.70599522               -0.32591821                0.15338338                1.45754777               -0.04882353                0.03089671
               3.02335774                5.98719529               48.04958432                0.01000001               -0.48647400               -0.34773895                0.14623484                1.53351835                0.00853552                0.01022770
               4.01843986                5.99185243               48.05096013                0.01000001               -0.47257369               -0.32588333                0.14467686                1.73946171                0.06752864                0.01275893
               5.01390627                5.99808539               48.05279676                0.01000091               -0.43412249               -0.27666421                0.14421672                1.69439309                0.12056623                0.06382422
               6.00975741                6.00441059               48.05505488                0.01000000               -0.35304075               -0.32402283                0.14731661                1.51530282                0.16011905                0.14259997
               7.00684545                6.00927943               48.05753159                0.01000000               -0.20129042               -0.43223562                0.15244076                1.22970909                0.17427255                0.24258267
               8.00573160                6.01181791               48.05996573                0.01000000               -0.03546666               -0.54441645                0.15845233                0.90152389                0.15464234                0.33646365
               9.00613612                6.01132299               48.06197256                0.01000001                0.04937716               -0.53372243                0.16472410                0.49451932                0.09493452                0.38983153
              10.00671915                6.00692498               48.06314804                0.01000000                0.05830301               -0.21696620                0.17062327                0.23415319                0.05492126                0.36040110
               0.04396818                6.99331084               48.04969353                0.94281229               -0.02960370               -0.04056280                0.09140745                0.04315440               -0.01211402                0.08369813
               1.04367215                6.98798174               48.04951091                0.91074632               -0.03172481               -0.01257011                0.10609302                0.04474373               -0.01207324                0.03629972
               2.04333369                6.98266546               48.04932783                0.01000000               -0.41373185               -0.21528935                0.12014870                0.82062006                0.04598458               -0.01155936
               3.03539751                6.98390056               48.05032456                0.01000001               -0.65209941               -0.51421208                0.14335487                1.55431900                0.08575675               -0.10725905
               4.03029170                6.98861905               48.05166899                0.01000001               -0.57486064               -0.21221776                0.13731686                1.65913633                0.14814251               -0.01781749
               5.02390030                6.99586782               48.05406249                0.01000000               -0.60781251               -0.13696702                0.14021966                1.51789507                0.23322085                0.02714456
               6.01813545                7.00178573               48.05695265                0.01000000               -0.50862755               -0.15864034                0.14659125                1.16264935                0.28855562                0.11662719
               7.01372775                7.00558371               48.06028817                0.01000000               -0.33963777               -0.25998152                0.15526381                0.75205193                0.31255975                0.23787049
               8.01134269                7.00698240               48.06363446                0.01000000               -0.14252972               -0.39639559                0.16377955                0.35793980                0.28108017                0.39408951
               9.01087715                7.00672312               48.06636288                0.01000002               -0.02429792               -0.42332620                0.17091587                0.10967767                0.17281742                0.50305161
              10.01085674                7.00575376               48.06758083                0.01000000               -0.00204163               -0.10134870                0.17563508                0.01604358                0.09380852                0.53155511
               0.04932911                7.99303210               48.05038794                1.00000000               -0.03112063               -0.02850206                0.09571612                0.00097734               -0.00215649                0.01718637
               1.04901790                7.98765793               48.05020496                0.99999999               -0.03330908               -0.03311273                0.11063072                0.00028577               -0.00279879                0.00433767
               2.04866292                7.98229662               48.05000906                0.18774772               -0.02636833               -0.03748724                0.12463174               -0.00164157               -0.04895573               -0.00898650
               3.04849053                7.97691105               48.04891293                0.01000001               -0.45037984               -0.36757839                0.08911819                1.17792230                0.12818241               -0.06821662
               4.03965533                7.98760808               48.05249421                0.01000004               -0.86965245               -0.04567343                0.13453632                1.61122443                0.31643425               -0.04740594
               5.03109748                7.99534605               48.05516149                0.01000000               -0.81804080                0.06642178                0.13151863                1.17986549                0.34382473               -0.01416048
               6.02329451                8.00123779               48.05873426                0.01000000               -0.72038348                0.04802855                0.14393982                0.77284736                0.42191961                0.07919947
               7.01668981                8.00407980               48.06302068                0.01000000               -0.57717623               -0.02535614                0.15732817                0.28940992                0.48677274                0.20391576
               8.01175099                8.00389000               48.06811441                0.01000002               -0.35657524               -0.15059115                0.16760937               -0.18435823                0.46623885                0.38552285
               9.00955831                8.00285647               48.07215893                0.01000004               -0.13861284               -0.31162430                0.17448075               -0.47138653                0.30821781                0.81320609
              10.00897873                8.00489800               48.07421934                0.01000001               -0.05795797               -0.29709398                0.17746780               -0.34282147                0.19946126                0.74049768
               0.05473609                8.99274080               48.05115141                1.00000000               -0.03227414               -0.02979258                0.09983802                0.00091741                0.00302069                0.01688530
               1.05441335                8.98731948               48.05091702                0.99999999               -0.03441782               -0.03457516                0.11523257                0.00045563                0.00263775                0.00319208
               2.05404773                8.98191571               48.05067192                0.99999999               -0.03844237               -0.03889697                0.13018885                0.00158058               -0.00272685               -0.00593229
               3.05364450                8.97654899               48.05033946                0.01000000               -0.49832692               -0.04074411                0.14482669                0.81646774                0.14848457                0.02564107
               4.04408119                8.98770558               48.05314582                0.01000000               -0.98882994                0.20814688                0.11156973                1.09847512                0.39825804               -0.06268394
               5.03386790                8.99719625               48.05619219                0.01000000               -0.96112751                0.23238414                0.12156547                0.72290681                0.44954012               -0.02649296
               6.02485864                9.00274630               48.06020114                0.01000000               -0.85020832                0.19550055                0.14692522                0.37489624                0.51644698                0.04147130
               7.01686373                9.00507658               48.06528282                0.01000002               -0.79898892                0.15260788                0.16293413                0.03791752                0.61031272                0.12254265
               8.00887886                9.00397058               48.07170260                0.01000001               -0.82111580                0.13692765                0.17133834               -0.35203529                0.88971164                0.25933107
               9.00044142                9.00049063               48.08267158                1.00000000               -0.44808127               -0.14447948                0.17561258               -0.63019252                0.55349097                0.53168841
               9.99991724                8.99981188               48.08256219                0.99999995               -0.05241788               -0.28016362                0.17361300               -0.48699070               -0.00040183                0.42237665
               0.06019009                9.99243625               48.05183208                1.00000000               -0.03379914               -0.03045469                0.10439135               -0.00158277                0.01355038                0.01322710
               1.05985210                9.98696642               48.05159248                0.99999999               -0.03625293               -0.03530590                0.11989965               -0.00200336                0.01797435                0.00131139
               2.05946503                9.98151868               48.05143620                0.99999997               -0.04110359               -0.03970327                0.13577988               -0.00178270                0.01845369               -0.00153385
               3.05903003                9.97609617               48.05120913                0.98021101               -0.92437326               -0.04528179                0.15185741                1.05116949                0.19050273               -0.00327933
               4.04097756                9.99177102               48.05450406                0.01000000               -1.42575635                0.40654400                0.16824401                0.88451533                0.45096126               -0.04555540
               5.03051490                9.99999373               48.05729715                0.01000000               -0.90327292                0.27974784                0.15462827                0.33353898                0.43131535               -0.00544065
               6.02291211               10.00514780               48.06123790                0.01000000               -0.71455069                0.24014993                0.16838709                0.16225793                0.50352473                0.03076595
               7.01622388               10.00713196               48.06638558                0.01000001               -0.68079377                0.20553783                0.17607374                0.01005287                0.64133814                0.07000926
               8.00929623               10.00662855               48.07363374                0.01000000               -0.75553647                0.26579729                0.17780310               -0.31651730                0.81661135                0.17992706
               9.00111315                9.99996688               48.08255886                1.00000000               -0.43499083               -0.05237528                0.17336735               -0.29951723                0.45215740                0.00043232
              10.00059641                9.99929473               48.08244940                1.00000000               -0.05167405               -0.05171523                0.17135540                0.00070278                0.00040494               -0.00041413
              -0.01852032                0.00371333               49.03895607                0.99165088               -0.02320978               -0.02156511                0.07059717                0.00271920               -0.00769569                0.00769886
               0.98124758                0.00127965               49.04120971                1.00000000               -0.02524379               -0.02588875                0.08440983                0.00221932               -0.00829109               -0.00112340
               1.98097480               -0.00114149               49.04345249                0.02997333               -0.00790219               -0.03018680                0.09817074                0.01460251               -0.08078651               -0.00379799
               2.98108953               -0.00330234               49.04425539                0.01000000                0.00813944               -0.02796983                0.06079520                0.25491402               -0.04187765                0.01461447
               3.98113759               -0.00021030               49.04655673                0.01000000               -0.15843856                0.11362212                0.11477573                0.26615336               -0.03669952                0.03259040
               4.97792076                0.00876748               49.04816810                0.01000001               -0.60833512                0.13480868                0.10544661                0.66102738               -0.09009367                0.01468604
               5.96897089                0.02594000               49.04919191                0.03118079               -0.50052173               -0.02746835                0.07374995                0.71183062                0.00781599               -0.01857096
               6.96791033                0.02968114               49.05217974                0.97397620               -0.06783570               -0.02908418                0.09442912                0.07311238                0.03390410               -0.00105490
               7.96761417                0.03200584               49.05451582                1.00000000               -0.03094793               -0.03183946                0.10330126                0.00141026                0.00196640                0.00010652
               8.96729137                0.03434697               49.05686018                1.00000000               -0.03359864               -0.03450639                0.11220093                0.00141236                0.00209117                0.00114442
               9.96694220                0.03670623               49.05919246                1.00000000               -0.03491703               -0.03733346                0.12125038                0.00052492                0.00199879                0.00310299
              -0.01605945                1.00349768               49.03927613                0.99513521               -0.02433681               -0.02203478                0.07415562                0.00062576                0.00113711                0.00817320
               0.98369718                1.00102076               49.04153058                0.15705066               -0.02643657               -0.02652298                0.08798227                0.00018090                0.00387114               -0.00385947
               1.98341182                0.99855664               49.04383784                0.01000000               -0.02620505               -0.02996413                0.10208060                0.01579101               -0.06870114               -0.02451740
               2.98317308                0.99641797               49.04463506                0.01000001               -0.28238032                0.02932678                0.07172313                0.19720049               -0.07737062                0.06843857
               3.97776421                1.00092592               49.04707268                0.01000000               -0.58585962                0.09188353                0.12647629                0.55944074               -0.04120644                0.03474137
               4.97145589                1.01011557               49.04856581                0.01000000               -0.60659227                0.05347999                0.12180547                1.02169763               -0.13154629                0.02266129
               5.96563237                1.02566531               49.04906988                0.01000001               -0.29236792               -0.34476355                0.10875504                0.98782925               -0.09344528                0.05657638
               6.96560853                1.02939029               49.05152364                0.96742830               -0.01685054               -0.02987552                0.09991504                0.07231386                0.00640781               -0.00106106
               7.96529536                1.03168745               49.05386167                0.99999999               -0.03266155               -0.03266569                0.10887457                0.00007119                0.00058020                0.00024068
               8.96495530                1.03400191               49.05620252                0.99999999               -0.03535814               -0.03534368                0.11785945                0.00003488                0.00035857                0.00162216
               9.96458819                1.03633289               49.05853673                1.00000000               -0.03671058               -0.03817380                0.12689045               -0.00087152                0.00015609                0.00464302
              -0.01355397                2.00327264               49.03960646                0.01000000               -0.02537939                0.02774921                0.07768986                0.06141415                0.00306329                0.09455067
               0.98619223                2.00074919               49.04179448                0.01000000               -0.02763050               -0.10535559                0.09141520                0.05914896               -0.00566739                0.07658321
               1.98589342                1.99825923               49.04380275                0.01000001               -0.17639832               -0.12023688                0.10166696                0.12468912                0.00255319                0.04836877
               2.98266427                1.99728420               49.04614232                0.01000000               -0.36323100                0.00122757                0.11100280                0.38882172               -0.02054249                0.10209334
               3.97862880                2.00162737               49.04784848                0.01000000               -0.45244722               -0.02355054                0.12439514                0.94740042               -0.06843891                0.05273070
               4.97361532                2.00983708               49.04926723                0.01000001               -0.45880249               -0.13610159                0.13321421                1.30450818               -0.09734139                0.05321634
               5.96945275                2.01904473               49.05046236                0.01000000               -0.51404255               -0.48484772                0.13028212                1.45043622               -0.15211701                0.10981483
               6.96333447                2.02908363               49.05086878                0.01000000               -0.32243841               -0.30086418                0.10537803                0.86262874               -0.09687656                0.11237324
               7.96300398                2.03135253               49.05320849                0.20722439               -0.03439268               -0.03411254                0.11440482                0.00019382               -0.00070955                0.01005309
               8.96264662                2.03364010               49.05555051                0.99999999               -0.03705903               -0.03697054                0.12357809                0.00014995               -0.00045787                0.00110134
               9.96226280                2.03594275               49.05790419                0.99999999               -0.03838191               -0.03987978                0.13251102               -0.00084560               -0.00010245                0.00477379
              -0.00978427                3.00405267               49.04165170                0.01000005               -0.03221560                0.05904400                0.08492374                0.07160834               -0.00514448                0.18253825
               0.98989357                2.99891365               49.04371828                0.01000001               -0.04225663               -0.22996630                0.10200436                0.20783811               -0.01872524                0.17598289
               1.98937059                2.99615191               49.04562985                0.01000000               -0.11560972               -0.27037895                0.11431004                0.48154056               -0.04077386                0.14936492
               2.98758138                2.99644252               49.04734079                0.01000000               -0.26056283               -0.17647627                0.12343849                0.89619374               -0.05286402                0.09596520
               3.98415934                3.00045491               49.04893077                0.01000166               -0.37263392               -0.18626072                0.13350565                1.28061962               -0.06539475                0.07185026
               4.98012870                3.00739354               49.05031104                0.01000000               -0.43823931               -0.26971054                0.13838206                1.57626035               -0.08850874                0.07618442
               5.97539455                3.01596836               49.05144762                0.01000001               -0.47876967               -0.34893924                0.13596156                1.61859751               -0.11145255                0.11247482
               6.97055330                3.02337301               49.05248818                0.01000001               -0.73258962               -0.46652604                0.12898056                1.68185550               -0.15842347                0.19752863
               7.96074276                3.03100520               49.05275590                0.01000001               -0.50926159               -0.33307820                0.11949897                1.34723917               -0.11684152                0.18734540
               8.96036807                3.03326250               49.05488520                0.01000000               -0.03883912               -0.40425106                0.12941880                1.02410228               -0.01263976                0.15321643
               9.95996598                3.03553530               49.05725002                0.99914420               -0.04020964               -0.89867302                0.13813984                1.20378160               -0.00139969                0.12318983
              -0.00184378                4.00445352               49.04355567                0.01000000                0.00935325               -0.05567557                0.08765201                0.26000221               -0.01689942                0.18736512
               0.99824976                3.99614987               49.04564249                0.01000000               -0.00804299               -0.37555617                0.11539631                0.55647174               -0.04696932                0.20051694
               1.99799536                3.99285165               49.04729535                0.01000000               -0.09823083               -0.36676157                0.12779051                0.98569025               -0.07487925                0.15201883
               2.99628514                3.99375467               49.04873689                0.01000000               -0.23525977               -0.30611617                0.13443738                1.28415500               -0.07216420                0.09832763
               3.99329017                3.99790216               49.05013774                0.01000000               -0.33290290               -0.29694209                0.13954945                1.56854117               -0.05814732                0.07103538
               4.98962708                4.00444287               49.05154080                0.01000001               -0.37224705               -0.32626240                0.14253924                1.75911558               -0.05019848                0.08522380
               5.98584523                4.01206594               49.05292560                0.01000001               -0.38461681               -0.40112692                0.14278572                1.87970422               -0.05279942                0.13885837
               6.98193475                4.01975310               49.05422010                0.01000001               -0.28929765               -0.45987174                0.14093388                1.86630140               -0.04948919                0.21324588
               7.98005928                4.02469096               49.05566377                0.01000005               -0.16680926               -0.64938390                0.14171618                1.95909078               -0.02914748                0.31869419
               8.97859856                4.02555508               49.05728498                0.01000000                0.08667784               -0.78556723                0.14621975                1.39191061               -0.01315871                0.30364953
               9.98179283                4.01796929               49.05899147                0.01000000                0.31942713               -1.27949985                0.15448138                1.05681904                0.00369394                0.22667980
               0.01202307                5.00293916               49.04544224                0.01000003                0.06017971               -0.51994401                0.08275583                0.73881626               -0.07767254                0.23179213
               1.01262487                4.99140253               49.04757568                0.01000000               -0.02717427               -0.46519367                0.13247988                1.16014598               -0.10518965                0.21336254
               2.01147959                4.98881668               49.04893992                0.01000001               -0.22054507               -0.34091799                0.14074744                1.37320338               -0.11741161                0.13747434
               3.00821397                4.99032019               49.05007020                0.01000000               -0.33188142               -0.36763066                0.14293696                1.57655888               -0.07707154                0.06299787
               4.00484196                4.99451607               49.05135769                0.01000001               -0.35333735               -0.34369980                0.14339549                1.73178923               -0.02530226                0.04513037
               5.00114722                5.00086829               49.05290577                0.01000001               -0.35817787               -0.35615611                0.14552199                1.83947963                0.01454319                0.07455440
               5.99767840                5.00794582               49.05465642                0.01000003               -0.29464570               -0.41036610                0.14789425                1.82043494                0.04039247                0.14144823
               6.99525431                5.01417558               49.05652568                0.01000000               -0.17779023               -0.53733288                0.15053091                1.71220211                0.05395029                0.23164491
               7.99412260                5.01801752               49.05840907                0.01000000               -0.01631778               -0.64654486                0.15432079                1.41763024                0.05381897                0.30583276
               8.99492795                5.01755115               49.06015691                0.01000000                0.10756645               -0.71290461                0.15998769                0.94004818                0.03626385                0.32999162
               9.99627393                5.00994530               49.06155109                0.01000000                0.13459742               -0.56563900                0.16762349                0.45310353                0.02472306                0.27652248
               0.03600580                5.99405464               49.04779522                0.02048074               -0.04306461               -0.51056021                0.01593227                0.87584458               -0.21232647                0.39473198
               1.03557516                5.98684599               49.04941027                0.01000001               -0.47320176               -0.20491974                0.14780144                1.15064236               -0.24445429                0.10296951
               2.02654177                5.98603329               49.05038311                0.01000000               -0.67291153               -0.34612929                0.15418971                1.56944474               -0.13137918                0.02810274
               3.02211693                5.98640206               49.05108669                0.01000001               -0.45819552               -0.35691949                0.14379567                1.58790612               -0.04267052               -0.01231867
               4.01737786                5.99102816               49.05239689                0.01000001               -0.45650015               -0.34758886                0.14307113                1.79415272                0.04111064               -0.00461419
               5.01298692                5.99731975               49.05424985                0.01000003               -0.42156069               -0.30361455                0.14629067                1.76109756                0.10836023                0.04078631
               6.00894664                6.00385862               49.05654058                0.01000000               -0.34399158               -0.34893370                0.15075635                1.59609007                0.15560488                0.12464381
               7.00610709                6.00900645               49.05907356                0.01000000               -0.19551708               -0.45247647                0.15668212                1.30852525                0.17436033                0.23269642
               8.00503630                6.01176007               49.06156933                0.01000000               -0.03176757               -0.56101695                0.16286148                0.96437404                0.15578785                0.33401940
               9.00547174                6.01129699               49.06364069                0.01000000                0.05151534               -0.54599324                0.16940513                0.52977155                0.09581961                0.39107039
              10.00606661                6.00665651               49.06487951                0.01000000                0.05948684               -0.22199947                0.17645999                0.25043836                0.05503025                0.36043340
               0.04395726                6.99272795               49.05060416                0.93958867               -0.02981914               -0.08016381                0.09090579                0.12804572               -0.01190985                0.11688872
               1.04365907                6.98730413               49.05058263                0.89321800               -0.03224212                0.00644291                0.10778127                0.13480692               -0.01261512                0.02536299
               2.04331242                6.98189409               49.05055054                0.01000000               -0.43409210               -0.22604743                0.12374106                0.90407404                0.03570674               -0.03435427
               3.03497722                6.98318180               49.05150989                0.01000001               -0.67525448               -0.51503962                0.13000844                1.59168692                0.07164597               -0.09012730
               4.02980733                6.98756429               49.05309726                0.01000001               -0.57192542               -0.24307158                0.14232958                1.68856649                0.14113582               -0.06099248
               5.02353872                6.99479600               49.05544968                0.01000000               -0.59469082               -0.17514986                0.14210097                1.59717048                0.22696403               -0.01146487
               6.01791351                7.00096715               49.05843223                0.01000000               -0.50076742               -0.18206605                0.15134218                1.25319859                0.29786394                0.08679851
               7.01352337                7.00512605               49.06185807                0.01000000               -0.33969847               -0.27439771                0.16049463                0.83209449                0.32223758                0.22346704
               8.01111954                7.00679718               49.06529133                0.01000000               -0.14482149               -0.40491582                0.16852476                0.41694924                0.28829278                0.38918884
               9.01062694                7.00663129               49.06809096                0.01000002               -0.02779485               -0.42391401                0.17525462                0.14173340                0.17663569                0.50223412
              10.01056364                7.00550531               49.06935980                0.01000000               -0.00632947               -0.09276511                0.18091620                0.02945670                0.09514115                0.52897701
               0.04941435                7.99245136               49.05134102                1.00000000               -0.03091949               -0.02823134                0.09479401                0.00073517               -0.00261132                0.01680880
               1.04910516                7.98697485               49.05131547                0.99999999               -0.03343866               -0.03351486                0.11161214                0.00031562               -0.00276777                0.00401268
               2.04874558                7.98151234               49.05128596                0.19963271               -0.04123463               -0.03887955                0.12885190                0.00234959               -0.00870820               -0.00848226
               3.04828046                7.97610127               49.05115163                0.01000001               -0.46052937               -0.37835493                0.19714994                1.17421378                0.10079231               -0.07368004
               4.03953499                7.98616673               49.05356554                0.01000005               -0.83764932               -0.11017507                0.12060055                1.68831230                0.25819072               -0.12422747
               5.03152748                7.99381675               49.05648695                0.01000000               -0.79272107                0.03369594                0.13537832                1.28888266                0.38321678               -0.09138613
               6.02368057                8.00021730               49.06017496                0.01000000               -0.73042640                0.03766994                0.15088098                0.87186032                0.45203889                0.04362005
               7.01691895                8.00351849               49.06461476                0.01000000               -0.59052632               -0.03036776                0.16397075                0.36032213                0.50724446                0.18909678
               8.01187004                8.00366175               49.06980814                0.01000002               -0.36603378               -0.15182738                0.17240177               -0.13540315                0.47802275                0.38046465
               9.00959827                8.00281871               49.07391760                0.01000005               -0.14811730               -0.30061887                0.17774509               -0.44654266                0.31389427                0.81196921
              10.00890770                8.00480121               49.07600808                0.01000001               -0.06905767               -0.27867697                0.18077225               -0.32830350                0.20067729                0.73605164
               0.05492498                8.99216332               49.05214387                1.00000000               -0.03205857               -0.02936979                0.09848856                0.00076929                0.00291611                0.01648935
               1.05460440                8.98663384               49.05207010                0.99999999               -0.03459977               -0.03473076                0.11561755                0.00011230                0.00288125                0.00321457
               2.05423299                8.98111650               49.05199280                0.99999999               -0.03986422               -0.04004464                0.13330474                0.00015072               -0.00197527               -0.00613280
               3.05380711                8.97561471               49.05183310                0.01189883               -0.41874510               -0.04730071                0.15134157                0.76470614                0.11044922               -0.01527467
               4.04585809                8.98536079               49.05403597                0.01000000               -0.92706572                0.14566656                0.08844121                1.19356438                0.54658580               -0.20618409
               5.03526580                8.99546992               49.05733515                0.01000000               -1.01045548                0.23683861                0.12977797                0.83569252                0.56138483               -0.09397813
               6.02564898                9.00172054               49.06168326                0.01000000               -0.89902206                0.20223374                0.15710992                0.44556369                0.56944824                0.01878564
               7.01728536                9.00451869               49.06693580                0.01000002               -0.82688570                0.15611385                0.17059199                0.07996700                0.63326697                0.11337679
               8.00911126                9.00376063               49.07343382                0.01000007               -0.83643678                0.13987565                0.17620161               -0.31953542                0.89938022                0.25657202
               9.00055662                9.00061891               49.08442742                1.00000000               -0.45393494               -0.13617908                0.17556017               -0.60951439                0.55572472                0.53265714
              10.00003256                8.99993177               49.08429805                0.99999996               -0.05240584               -0.26932882                0.17356443               -0.47810057               -0.00041036                0.42082423
               0.06048871                9.99186397               49.05286708                1.00000000               -0.03344842               -0.02993583                0.10249650               -0.00200036                0.01371283                0.01304280
               1.06015423                9.98628024               49.05279175                1.00000000               -0.03604941               -0.03536016                0.11981181               -0.00264296                0.01820876                0.00150720
               2.05976772                9.98071145               49.05279902                0.99999994               -0.04119659               -0.04050495                0.13708850               -0.00277559                0.01866925               -0.00190652
               3.05933030                9.97515525               49.05273325                0.99999999               -0.81083295               -0.04594510                0.15413070                0.97074862                0.17924404               -0.00527554
               4.04355106                9.98908006               49.05596159                0.01000000               -1.37243619                0.37192698                0.15014533                0.93921132                0.67581131               -0.21802153
               5.03188157                9.99855353               49.05882886                0.01000026               -1.00039967                0.30836068                0.16711237                0.42067284                0.51357868               -0.01644037
               6.02354307               10.00426197               49.06294406                0.01000000               -0.77016842                0.25414274                0.17964577                0.19377155                0.53618288                0.02166608
               7.01647820               10.00664077               49.06817359                0.01000001               -0.70819792                0.21220788                0.18332604                0.02914896                0.64988638                0.06657534
               8.00937911               10.00645926               49.07542831                0.01000000               -0.76206801                0.26986315                0.18190946               -0.30049731                0.81341134                0.17910315
               9.00123684               10.00009513               49.08429270                0.99999996               -0.43295745               -0.05237874                0.17340929               -0.28420938                0.45011618                0.00042789
              10.00071996                9.99941463               49.08416332                1.00000000               -0.05168792               -0.05171387                0.17141602                0.00069087                0.00041242               -0.00041026
              -0.02092073                0.00345314               50.03966411                0.99161347               -0.02328185               -0.02163924                0.07104909                0.00253398               -0.00780816                0.00779705
               0.97884646                0.00092941               50.04205336                1.00000000               -0.02521751               -0.02577510                0.08427882                0.00212618               -0.00841708               -0.00122180
               1.97857492               -0.00158329               50.04443142                0.01000000                0.01612704               -0.02990565                0.09747657                0.03293462               -0.10797084               -0.00372622
               2.97916900               -0.00346857               50.04482668                0.01000000               -0.00180980               -0.02637980                0.13493206                0.19571214               -0.07569081                0.06256816
               3.97853873               -0.00036482               50.04786193                0.01000000               -0.17887498                0.09704996                0.12125881                0.25633242               -0.06144258                0.04842595
               4.97559150                0.00840057               50.04922799                0.01000001               -0.57158251                0.12474892                0.10548155                0.65014266               -0.13182248                0.00121850
               5.96710708                0.02565345               50.04991278                0.02579876               -0.50244945               -0.02801964                0.07149645                0.70043392                0.02414553               -0.03632434
               6.96554251                0.03029862               50.05312179                0.97332255               -0.09294388               -0.02912679                0.09401644                0.11791493                0.04054669               -0.00112354
               7.96524820                0.03263331               50.05554478                1.00000000               -0.03068545               -0.03177217                0.10247762                0.00132007                0.00184304                0.00010207
               8.96492880                0.03498793               50.05797591                1.00000000               -0.03319448               -0.03429537                0.11091905                0.00131581                0.00202069                0.00115543
               9.96458431                0.03736446               50.06039568                1.00000000               -0.03444880               -0.03694906                0.11941261                0.00027047                0.00193043                0.00306570
              -0.01837166                1.00323675               50.04001735                1.00000000               -0.02424086               -0.02205548                0.07418457                0.00053345                0.00120054                0.00821601
               0.98138593                1.00067166               50.04240728                0.14210883               -0.02625383               -0.02633700                0.08742042                0.00014623                0.00398434               -0.00400629
               1.98110326                0.99811765               50.04485210                0.01000000               -0.04345229               -0.02915516                0.10089609                0.03507559               -0.08748330               -0.02693865
               2.98051688                0.99626763               50.04540794                0.01000001               -0.29678906                0.02115435                0.13639648                0.18326307               -0.18319576                0.13212821
               3.97516748                1.00060568               50.04848316                0.01000000               -0.57165497                0.07619291                0.13317602                0.55772343               -0.04846904                0.01779280
               4.96908379                1.00964806               50.04982158                0.01000000               -0.60025457                0.04826873                0.13027757                1.02270449               -0.14620315                0.00271490
               5.96316239                1.02537325               50.05022043                0.01000001               -0.29260285               -0.34196097                0.12475313                1.01652966               -0.11272381                0.02847029
               6.96323173                1.03000735               50.05252672                0.96216199               -0.01228232               -0.03012137                0.10071535                0.11735966               -0.00535016               -0.00112685
               7.96291674                1.03231558               50.05495215                0.99999999               -0.03276738               -0.03276448                0.10921075                0.00003385                0.00057108                0.00022407
               8.96257638                1.03464498               50.05738039                0.99999999               -0.03531264               -0.03530105                0.11770160                0.00001407                0.00036328                0.00167973
               9.96221049                1.03699497               50.05980215                0.99999999               -0.03658901               -0.03795946                0.12620184               -0.00103266                0.00016337                0.00460056
              -0.01577989                2.00301203               50.04038114                0.01000002               -0.02516401                0.03386668                0.07739467                0.05805558                0.00316010                0.09671829
               0.98396847                2.00040267               50.04270347                0.01000000               -0.02698214               -0.09443300                0.09044100                0.05244727               -0.00789894                0.07911700
               1.98368047                1.99783361               50.04480296                0.01000001               -0.18111174               -0.10942530                0.09260159                0.12448274               -0.00026064                0.04905506
               2.98034624                1.99695451               50.04728347                0.01000000               -0.36838499               -0.00766230                0.11268803                0.40626512               -0.00185797                0.12920963
               3.97631277                2.00115903               50.04912958                0.01000000               -0.45341144               -0.03176019                0.13499012                0.95968530               -0.06753046                0.02844396
               4.97127801                2.00936594               50.05064784                0.01000001               -0.46171970               -0.13629776                0.13974035                1.32471114               -0.10003417                0.03010658
               5.96707837                2.01881423               50.05180544                0.01000000               -0.51653189               -0.48028693                0.13736093                1.51472671               -0.17553916                0.08775759
               6.96094737                2.02969619               50.05193287                0.01000000               -0.32335628               -0.31928855                0.10740381                0.90940038               -0.11521023                0.12117163
               7.96061125                2.03197802               50.05436056                0.21872717               -0.03488360               -0.03459650                0.11594926                0.00007446               -0.00060336                0.00975750
               8.96024970                2.03428191               50.05679104                0.99999999               -0.03737832               -0.03726805                0.12452592                0.00010018               -0.00035646                0.00124110
               9.95986368                2.03660527               50.05923167                0.99999999               -0.03860152               -0.04000482                0.13298631               -0.00101270               -0.00006643                0.00471164
              -0.01199184                3.00391408               50.04250558                0.01000005               -0.03948659                0.07546809                0.08378203                0.06364956               -0.00588865                0.19070719
               0.98761330                2.99878300               50.04471608                0.01000001               -0.04835432               -0.20038776                0.09504759                0.18817564               -0.02282548                0.19134290
               1.98704108                2.99592915               50.04674814                0.01000000               -0.11482681               -0.25015113                0.10527561                0.45748714               -0.04612939                0.16777041
               2.98531676                2.99611438               50.04856176                0.01000000               -0.25456585               -0.17833988                0.12227796                0.88387187               -0.05767227                0.10147888
               3.98194976                2.99997047               50.05028131                0.01000002               -0.36969747               -0.19044429                0.13444768                1.28496069               -0.06600348                0.06396317
               4.97792281                3.00692210               50.05171619                0.01000000               -0.44115432               -0.27217889                0.14110042                1.60869093               -0.09705096                0.05691768
               5.97312667                3.01576751               50.05282919                0.01000001               -0.48334307               -0.35191024                0.13884179                1.67664836               -0.12792589                0.09718037
               6.96825595                3.02362158               50.05379240                0.01000001               -0.73970802               -0.49420081                0.13139745                1.74608905               -0.17829149                0.20493707
               7.95833251                3.03162365               50.05396386                0.01000001               -0.51524086               -0.34817017                0.12217771                1.39259935               -0.12535993                0.19538194
               8.95795113                3.03389962               50.05618917                0.01000000               -0.03944939               -0.41777489                0.13141081                1.05398440               -0.01209379                0.15911018
               9.95754353                3.03619487               50.05863949                0.99999999               -0.04076082               -0.92742152                0.13976359                1.24024932               -0.00140095                0.12891235
              -0.00424474                4.00452139               50.04446942                0.01000000               -0.00383430               -0.02567605                0.08897796                0.21766116               -0.01738987                0.20872748
               0.99571692                3.99639492               50.04677774                0.01000000               -0.01282139               -0.33230791                0.10282999                0.50020784               -0.05749046                0.23756578
               1.99549883                3.99283059               50.04853563                0.01000000               -0.08672824               -0.35417972                0.11629812                0.92888337               -0.09469232                0.17631081
               2.99398235                3.99338772               50.05005711                0.01000000               -0.21472832               -0.31744454                0.12664655                1.26103862               -0.08851818                0.10509668
               3.99120426                3.99735015               50.05152616                0.01000000               -0.31637840               -0.30951481                0.13647982                1.58179169               -0.06887394                0.06227928
               4.98765478                4.00392236               50.05297318                0.01000001               -0.36462010               -0.33694786                0.14257787                1.80328969               -0.06056563                0.07253773
               5.98391186                4.01177603               50.05436715                0.01000001               -0.38208855               -0.41436736                0.14458333                1.94872601               -0.06538452                0.12979198
               6.98001301                4.01981218               50.05564541                0.01000003               -0.28633319               -0.48068608                0.14374955                1.94249387               -0.06111119                0.21361882
               7.97818520                4.02501461               50.05709828                0.01000001               -0.16274207               -0.67709137                0.14524314                2.02913270               -0.03644205                0.32918553
               8.97675817                4.02592641               50.05876650                0.01000000                0.09464835               -0.81289645                0.15031136                1.43840866               -0.01584983                0.31365132
               9.98007817                4.01805684               50.06055897                0.01000003                0.33199952               -1.32296866                0.15940353                1.09005261                0.00272769                0.23688699
               0.00861433                5.00340056               50.04640987                0.01000003                0.06939269               -0.39726565                0.09373627                0.60242483               -0.07145308                0.25065901
               1.00930826                4.99213684               50.04890344                0.01000000                0.00058065               -0.47165749                0.11036412                0.98643764               -0.15205789                0.32883777
               2.00862595                4.98884555               50.05029558                0.01000001               -0.16451445               -0.36383728                0.11800806                1.29975781               -0.17931543                0.17507206
               3.00601797                4.98976549               50.05146354                0.01000000               -0.27874998               -0.39392416                0.13022331                1.57214098               -0.10385908                0.05898550
               4.00305095                4.99378018               50.05277428                0.01000001               -0.32276214               -0.36647849                0.13884731                1.76561520               -0.04092729                0.03531267
               4.99956273                5.00018314               50.05436468                0.01000001               -0.34197824               -0.37825774                0.14568756                1.89874948                0.00410171                0.06232694
               5.99621138                5.00748017               50.05614940                0.01000002               -0.28477436               -0.43241810                0.15043005                1.89793257                0.03189266                0.13273085
               6.99386724                5.01400786               50.05804989                0.01000000               -0.17052263               -0.56056000                0.15424790                1.79462749                0.04714270                0.22965122
               7.99280093                5.01808183               50.05997363                0.01000000               -0.00950792               -0.66992906                0.15865839                1.48644308                0.04916915                0.30929306
               8.99367708                5.01764169               50.06178107                0.01000000                0.11414011               -0.73580316                0.16506863                0.98189140                0.03386953                0.33599232
               9.99508373                5.00973550               50.06325769                0.01000000                0.14066486               -0.58659495                0.17418398                0.47257802                0.02325478                0.28234719
               0.03033119                5.99657608               50.04791383                0.01000002               -0.03305124               -0.56488697                0.02092054                0.79650440               -0.39426136                0.63858949
               1.03000067                5.98696177               50.05112527                0.01000001               -0.32329234               -0.27765244                0.10024202                1.15714829               -0.44479430                0.30371100
               2.02386534                5.98555384               50.05182127                0.01000000               -0.47550621               -0.38850175                0.11975255                1.65210422               -0.21226459                0.00898322
               3.02049055                5.98550923               50.05246024                0.01000001               -0.38832110               -0.38662117                0.13157754                1.63662398               -0.07098188               -0.01992682
               4.01609892                5.99002058               50.05382155                0.01000001               -0.42803846               -0.37748173                0.14141428                1.84858281                0.02764606               -0.02093616
               5.01192978                5.99635721               50.05572258                0.01000002               -0.40265593               -0.33908604                0.14883971                1.83244850                0.10066269                0.02355911
               6.00804580                6.00312766               50.05807000                0.01000000               -0.33129386               -0.37964250                0.15573571                1.68583634                0.15195516                0.11251203
               7.00530390                6.00860098               50.06066523                0.01000000               -0.18827842               -0.47480062                0.16202288                1.39672583                0.17256533                0.22769693
               8.00428023                6.01161603               50.06322296                0.01000000               -0.02807871               -0.57772273                0.16805916                1.03420521                0.15443468                0.33434020
               9.00474233                6.01121035               50.06536066                0.01000000                0.05309405               -0.55753960                0.17478825                0.56866107                0.09486503                0.39345063
              10.00534211                6.00632494               50.06667724                0.01000000                0.05997823               -0.22653768                0.18356197                0.26836589                0.05406680                0.36145924
               0.04377304                6.99210282               50.05151165                0.93777886               -0.02995772               -0.23737566                0.09053576                0.39793674               -0.01241293                0.15418624
               1.04347346                6.98658379               50.05166654                0.87217994               -0.03262379               -0.03555296                0.10921829                0.39948126               -0.01352317               -0.00820980
               2.04312057                6.98107552               50.05180265                0.01000000               -0.45948760               -0.24345596                0.12701720                1.01182673                0.03412187               -0.04532240
               3.03428371                6.98203307               50.05292473                0.01000001               -0.69729692               -0.51974960                0.14099842                1.64456356                0.05709490               -0.09665149
               4.02917463                6.98623054               50.05451559                0.01000000               -0.55895497               -0.29178782                0.14435753                1.73766319                0.12890006               -0.08872971
               5.02310461                6.99340142               50.05690450                0.01000000               -0.57451427               -0.23621739                0.15093058                1.69397003                0.22526529               -0.04168222
               6.01768434                6.99988732               50.05997950                0.01000000               -0.48956114               -0.21342542                0.16007436                1.36360498                0.30267112                0.06933705
               7.01331339                7.00451185               50.06349806                0.01000000               -0.34043416               -0.29084853                0.16836988                0.92688366                0.32661121                0.21617814
               8.01087566                7.00652737               50.06700495                0.01000000               -0.14859961               -0.41296113                0.17459769                0.48537131                0.29051562                0.38785455
               9.01034140                7.00649090               50.06986798                0.01000002               -0.03268921               -0.42254802                0.18032982                0.17856510                0.17729376                0.50223141
              10.01022187                7.00520474               50.07119916                0.01000000               -0.01195234               -0.08220743                0.18734302                0.04484508                0.09473747                0.52574801
               0.04932797                7.99182856               50.05228382                1.00000000               -0.03103710               -0.02791510                0.09381199                0.00065991               -0.00285489                0.01640275
               1.04901760                7.98625071               50.05243720                0.99999999               -0.03376851               -0.03381490                0.11268028                0.00023703               -0.00314314                0.00394591
               2.04865260                7.98068472               50.05258610                0.21400510               -0.03954003               -0.03977614                0.13137980               -0.00059031                0.00211533               -0.00774620
               3.04822680                7.97511424               50.05285593                0.01000001               -0.45843867               -0.36855972                0.16357775                1.15133505                0.09856576               -0.07561598
               4.03948383                7.98418482               50.05490623                0.01000001               -0.80371975               -0.25223469                0.14335009                1.84274282                0.23869424               -0.19393669
               5.03215240                7.99163286               50.05786906                0.01000000               -0.76381763               -0.02133244                0.14998245                1.45090128                0.39852788               -0.13509962
               6.02420747                7.99885916               50.06175188                0.01000000               -0.74754408                0.02327962                0.16663114                1.00568766                0.46998952                0.02343595
               7.01720152                8.00278400               50.06630009                0.01000000               -0.60994342               -0.03632767                0.17447912                0.44813883                0.51631061                0.18198224
               8.01200861                8.00335681               50.07156244                0.01000002               -0.37826310               -0.15227618                0.17894547               -0.07627137                0.48251179                0.37910371
               9.00963626                8.00275939               50.07571383                0.01000001               -0.15986425               -0.28611136                0.18165018               -0.41628695                0.31540526                0.80966032
              10.00881132                8.00468079               50.07783478                0.01000001               -0.08249391               -0.25658111                0.18478419               -0.31056488                0.20002975                0.72847462
               0.05494195                8.99154452               50.05312118                1.00000000               -0.03199024               -0.02889375                0.09699339                0.00065035                0.00293556                0.01623899
               1.05462205                8.98590750               50.05322938                0.99999999               -0.03483620               -0.03487141                0.11613811                0.00011061                0.00306701                0.00318774
               2.05424523                8.98028000               50.05333801                1.00000000               -0.04058686               -0.04083112                0.13555897               -0.00006565               -0.00139011               -0.00573046
               3.05381031                8.97466187               50.05336629                0.01555341               -0.23671818               -0.04619407                0.15517182                0.60656957                0.06968784               -0.02484890
               4.04951086                8.98118585               50.05491464                0.01000000               -0.81810035               -0.03127403                0.10933343                1.36136260                0.57859311               -0.30370440
               5.03744830                8.99297477               50.05878775                0.01000000               -1.14319566                0.25223150                0.17026622                1.04093305                0.61982750               -0.13131046
               6.02664695                9.00035291               50.06334333                0.01000000               -0.98348959                0.21001810                0.17673658                0.54470421                0.58951595                0.00576013
               7.01777851                9.00378529               50.06869466                0.01000002               -0.86360522                0.16019467                0.18195474                0.13323879                0.64086924                0.10942487
               8.00937485                9.00348185               50.07522663                0.01000007               -0.85434172                0.14324094                0.18283912               -0.27899441                0.89972744                0.25614141
               9.00069168                9.00076867               50.08618279                1.00000000               -0.46035338               -0.12572556                0.17551756               -0.58322605                0.55484459                0.53166628
              10.00016778                9.00007312               50.08603347                1.00000000               -0.05239000               -0.25624038                0.17351727               -0.46694974               -0.00041388                0.41730734
               0.06061502                9.99125069               50.05388201                1.00000000               -0.03306860               -0.02938282                0.10044492               -0.00243411                0.01370730                0.01297703
               1.06028433                9.98555328               50.05398872                1.00000000               -0.03590546               -0.03542164                0.11961008               -0.00290113                0.01819915                0.00150849
               2.05989691                9.97986810               50.05417797                0.99999994               -0.04159970               -0.04118981                0.13878394               -0.00297776                0.01840120               -0.00195492
               3.05945234                9.97419036               50.05429174                0.99999998               -0.57493655               -0.04715145                0.15778955                0.74876492                0.16894117               -0.00528338
               4.04839818                9.98355934               50.05750697                0.01000003               -1.28241688                0.23734943                0.17626669                1.01308811                0.74912674               -0.30860441
               5.03380400                9.99667749               50.06063940                0.01000001               -1.20535699                0.37027169                0.19694155                0.61057849                0.53148215               -0.03432004
               6.02429104               10.00305952               50.06483082                0.01000000               -0.85333209                0.27066071                0.19544758                0.22992927                0.53400915                0.01591202
               7.01673736               10.00598790               50.07005210                0.01000001               -0.74228492                0.22026055                0.19203306                0.05399021                0.64198303                0.06488527
               8.00944534               10.00622163               50.07727193                0.01000000               -0.76784465                0.27397794                0.18654866               -0.28010149                0.80292889                0.17844842
               9.00138047               10.00024488               50.08602705                0.99999999               -0.42909583               -0.05237908                0.17346013               -0.26440346                0.44565057                0.00042950
              10.00086342                9.99955598               50.08587772                1.00000000               -0.05170425               -0.05171389                0.17145959                0.00067487                0.00041317               -0.00041326
              -0.02345498                0.00316280               51.04037705                0.99161468               -0.02330901               -0.02178217                0.07145849                0.00242681               -0.00794235                0.00772404
               0.97631193                0.00054738               51.04289529                1.00000000               -0.02514819               -0.02568557                0.08400786                0.00200968               -0.00852698               -0.00142084
               1.97604206               -0.00205738               51.04540202                0.01000000               -0.00833654               -0.02962944                0.09653793                0.07389949               -0.05664350               -0.00362971
               2.97614520               -0.00321349               51.04695403                0.01000000               -0.02673140               -0.01827733                0.18197579                0.05194693               -0.10139741                0.02296869
               3.97550743               -0.00048424               51.04898191                0.01000000               -0.14558692                0.04983676                0.11306482                0.22828386               -0.10188481                0.03662978
               4.97323346                0.00760467               51.05027773                0.01000000               -0.49737190                0.11453496                0.10869059                0.61023234               -0.13427791               -0.01565568
               5.96555999                0.02459822               51.05062183                0.02047312               -0.50720990               -0.02561527                0.07731564                0.67348308                0.06787869               -0.07638888
               6.96308927                0.03084882               51.05406007                0.97269837               -0.13815403               -0.02921310                0.09367792                0.19780014                0.04783935               -0.00112906
               7.96279691                0.03319314               51.05656537                1.00000000               -0.03041905               -0.03169942                0.10165097                0.00123544                0.00177811                0.00008519
               8.96248089                0.03556113               51.05907857                1.00000000               -0.03278187               -0.03407536                0.10960040                0.00124206                0.00196289                0.00115634
               9.96214128                0.03795461               51.06158071                1.00000000               -0.03396094               -0.03656975                0.11758897                0.00001473                0.00190098                0.00304740
              -0.02081529                1.00294498               51.04075982                1.00000000               -0.02425917               -0.02220140                0.07458510                0.00053161                0.00131856                0.00816287
               0.97894212                1.00029053               51.04327899                0.12825836               -0.02616111               -0.02623284                0.08714872                0.00009238                0.00413185               -0.00430983
               1.97866149                0.99764633               51.04585576                0.01000000               -0.15320080               -0.02991664                0.09989373                0.07896790               -0.04631484               -0.03605109
               2.97587810                0.99660374               51.04736299                0.01000001               -0.31401488               -0.00359698                0.17594912                0.22615414               -0.14657186                0.06593148
               3.97238119                1.00001413               51.04973620                0.01000000               -0.45417722                0.04411705                0.12542742                0.52763373               -0.05900837                0.00958713
               4.96679456                1.00875002               51.05117136                0.01000000               -0.58542190                0.04699655                0.13883074                1.00166288               -0.11424569               -0.02737044
               5.96067275                1.02434207               51.05156494                0.01000001               -0.30123765               -0.32035510                0.14578217                1.04518019               -0.11040094               -0.03098042
               6.96076981                1.03055668               51.05353795                0.95691497               -0.01098226               -0.03037202                0.10153488                0.19599802               -0.02614591               -0.00116518
               7.96045311                1.03287615               51.05604589                0.99999999               -0.03286177               -0.03285861                0.10952882                0.00002622                0.00056649                0.00020961
               8.96011257                1.03522038               51.05855655                0.99999999               -0.03525815               -0.03524975                0.11752126                0.00001307                0.00036672                0.00170238
               9.95974795                1.03758891               51.06106077                0.99999999               -0.03646254               -0.03774827                0.12552349               -0.00120018                0.00017210                0.00458565
              -0.01813544                2.00271877               51.04115436                0.01000000               -0.02521305                0.04167743                0.07780322                0.05500712                0.00323160                0.09745799
               0.98161243                2.00002273               51.04360330                0.01000000               -0.02781795               -0.08121454                0.09016858                0.04389487               -0.01677469                0.07732458
               1.98130820                1.99734429               51.04565478                0.01000001               -0.16559729               -0.09358450                0.04379319                0.13163446                0.01165389                0.06642834
               2.97830049                1.99671457               51.04839608                0.01000000               -0.36971892               -0.04526426                0.13637425                0.50352334                0.00785540                0.08109268
               3.97391383                2.00039810               51.05054828                0.01000000               -0.46808507               -0.03382656                0.13770995                0.95668345               -0.05052060                0.01264229
               4.96893879                2.00854460               51.05206204                0.01000001               -0.46284448               -0.12717383                0.14019529                1.33191260               -0.09152818               -0.00470867
               5.96465694                2.01819112               51.05320958                0.01000000               -0.52318202               -0.44959064                0.13968241                1.58919206               -0.19271431                0.04767096
               6.95847514                2.03024137               51.05301686                0.01000000               -0.32615972               -0.33987381                0.10936905                0.97139265               -0.13531653                0.12948934
               7.95813374                2.03253597               51.05552747                0.23027633               -0.03533826               -0.03505158                0.11740887                0.00002226               -0.00052638                0.00952666
               8.95776838                2.03485614               51.05804103                0.99999999               -0.03767688               -0.03755720                0.12546786                0.00008380               -0.00029450                0.00130605
               9.95738020                2.03719965               51.06056392                0.99999999               -0.03881755               -0.04013326                0.13346558               -0.00118012               -0.00004638                0.00470226
              -0.01432305                3.00377853               51.04332734                0.01000005               -0.04824499                0.10025024                0.08046841                0.05513125               -0.00865785                0.19320763
               0.98519450                2.99866624               51.04561923                0.01000001               -0.05373104               -0.16544513                0.08706111                0.17087037               -0.02640713                0.18614385
               1.98460233                2.99577464               51.04773536                0.01000000               -0.11498703               -0.22569331                0.11113358                0.42730833               -0.04487359                0.16627419
               2.98289476                2.99569846               51.04978635                0.01000000               -0.24587488               -0.18798760                0.11813590                0.83933626               -0.04787721                0.09258794
               3.97968483                2.99933760               51.05161972                0.01000002               -0.36274813               -0.18716660                0.13267023                1.27954409               -0.06247161                0.04057032
               4.97563980                3.00620655               51.05313304                0.01000000               -0.44625041               -0.26497329                0.13910289                1.63243231               -0.09918277                0.03399713
               5.97075982                3.01535025               51.05422446                0.01000001               -0.48934956               -0.34247702                0.13764562                1.73805187               -0.14109457                0.07908777
               6.96585281                3.02375921               51.05511612                0.01000001               -0.74605172               -0.52366925                0.13277217                1.81655558               -0.19614835                0.21251687
               7.95583879                3.03217512               51.05519945                0.01000000               -0.52011183               -0.36355321                0.12496641                1.43928132               -0.13348869                0.20325603
               8.95545057                3.03446924               51.05751342                0.01000000               -0.04007307               -0.43099656                0.13344897                1.08318147               -0.01175616                0.16550866
               9.95503733                3.03678625               51.06004529                0.99999998               -0.04132416               -0.95554089                0.14140366                1.27581398               -0.00142627                0.13596181
              -0.00680823                4.00472378               51.04533523                0.01000000               -0.01580441                0.03646941                0.08431293                0.19550049               -0.01668699                0.21171305
               0.99303373                3.99671382               51.04769909                0.01000000               -0.01848116               -0.25172412                0.08532836                0.43050731               -0.04992308                0.22561363
               1.99282215                3.99283043               51.04962131                0.01000000               -0.07547379               -0.33710769                0.09916742                0.84859236               -0.08355914                0.16203581
               2.99152425                3.99295482               51.05126982                0.01000150               -0.19127664               -0.33008390                0.11781075                1.22938371               -0.08136671                0.08929294
               3.98899662                3.99665477               51.05286734                0.01000000               -0.29747388               -0.32053341                0.13093943                1.58638789               -0.06612615                0.04887418
               4.98557478                4.00324514               51.05439236                0.01000001               -0.35656533               -0.34205538                0.14003765                1.84505760               -0.06445487                0.05973523
               5.98186531                4.01134158               51.05581726                0.01000001               -0.37966915               -0.42263338                0.14426228                2.01970376               -0.07428500                0.12329945
               6.97798139                4.01976799               51.05709509                0.01000083               -0.28279858               -0.50052130                0.14558788                2.02217272               -0.07084350                0.21623413
               7.97620934                4.02526490               51.05856863                0.01000002               -0.15802590               -0.70482108                0.14867947                2.10021169               -0.04313609                0.34083278
               8.97482088                4.02623621               51.06029121                0.01000000                0.10265591               -0.83961963                0.15468957                1.48473181               -0.01856893                0.32507692
               9.97826246                4.01808883               51.06217954                0.01000003                0.34415824               -1.36561360                0.16497076                1.12268480                0.00144954                0.25015231
               0.00560687                5.00450792               51.04731696                0.01000003                0.00911290               -0.14995656                0.07961027                0.33767985               -0.05277562                0.22142201
               1.00569800                4.99363175               51.04978297                0.01000000               -0.01368473               -0.32783568                0.06787288                0.71313388               -0.12744062                0.27037721
               2.00533318                4.98903249               51.05130008                0.01000001               -0.10199559               -0.40622689                0.09182471                1.18021925               -0.14779814                0.14789798
               3.00365809                4.98909678               51.05267467                0.01000000               -0.21054512               -0.42062449                0.11504025                1.55335967               -0.08826558                0.04997578
               4.00112227                4.99292693               51.05413463                0.01000001               -0.29019727               -0.38933191                0.13377977                1.79702405               -0.03765228                0.02725948
               4.99785414                4.99936544               51.05581953                0.01000001               -0.32456140               -0.39970133                0.14499838                1.95738009                0.00113424                0.05603567
               5.99463105                5.00689758               51.05766502                0.01000001               -0.27406062               -0.45314096                0.15215725                1.97805628                0.02585887                0.13048696
               6.99237293                5.01374878               51.05961064                0.01000008               -0.16281208               -0.58278861                0.15737575                1.88025760                0.04036955                0.23256687
               7.99137481                5.01807869               51.06158223                0.01000000               -0.00258246               -0.69246793                0.16273543                1.55741413                0.04344603                0.31559176
               8.99232128                5.01767684               51.06345828                0.01000000                0.12054883               -0.75785576                0.17026439                1.02445872                0.03047464                0.34362226
               9.99378578                5.00947398               51.06503477                0.01000000                0.14645000               -0.60722996                0.18142191                0.49233012                0.02105763                0.29056629
               0.02169770                6.00172465               51.04821363                0.01000001                0.10741416               -0.65331124                0.10829346                0.73286320               -0.22220191                0.50413362
               1.02277184                5.99015711               51.05141511                0.01000001               -0.03680929               -0.39018711                0.03964149                1.01904196               -0.23274463                0.27800340
               2.02096151                5.98470589               51.05277816                0.01000000               -0.20374176               -0.44048394                0.08258543                1.58943529               -0.13612809                0.01766052
               3.01869700                5.98454233               51.05371824                0.01000001               -0.31465364               -0.41218472                0.12307971                1.69551706               -0.05419450               -0.01879349
               4.01466844                5.98886813               51.05522517                0.01000001               -0.39726407               -0.41109545                0.14072988                1.89960294                0.02891693               -0.02529383
               5.01075172                5.99525111               51.05722664                0.01000001               -0.38126729               -0.37747817                0.15249526                1.90682950                0.09793092                0.01919157
               6.00704309                6.00227876               51.05965529                0.01000001               -0.31731431               -0.41127870                0.16111555                1.78017176                0.14780022                0.11209441
               7.00440544                6.00811222               51.06231402                0.01000000               -0.18067662               -0.49670190                0.16732914                1.48969985                0.16713040                0.23111359
               8.00342956                6.01141555               51.06493052                0.01000000               -0.02453348               -0.59319516                0.17298521                1.10760030                0.14915427                0.33927437
               9.00391477                6.01107909               51.06713646                0.01000000                0.05426162               -0.56770471                0.18007823                0.60930032                0.09123314                0.39774641
              10.00451479                6.00594423               51.06855075                0.01000000                0.06000264               -0.23056241                0.19113577                0.28702596                0.05160351                0.36401229
               0.04339921                6.99144169               51.05241488                0.93709955               -0.03016112               -0.52773828                0.09012384                0.80627150               -0.01262966                0.18257308
               1.04309760                6.98582801               51.05276700                0.84981928               -0.03312762               -0.23330885                0.11087136                0.73746426               -0.01424560                0.03066022
               2.04273666                6.98022281               51.05309089                0.01000000               -0.48457076               -0.24419159                0.13054089                1.12163580                0.02932047               -0.02993107
               3.03340619                6.98085308               51.05432986                0.01000001               -0.71655520               -0.51974707                0.13994430                1.68584310                0.05219906               -0.08163544
               4.02840556                6.98470502               51.05598441                0.01000001               -0.54130384               -0.34895978                0.14933231                1.77950488                0.12130504               -0.09754384
               5.02258011                6.99181587               51.05846829                0.01000001               -0.55160900               -0.30097992                0.16199959                1.79338243                0.22347906               -0.04772846
               6.01737338                6.99867201               51.06163371                0.01000000               -0.47749853               -0.24782881                0.17090432                1.48025491                0.29877991                0.07153838
               7.01303014                7.00381474               51.06522547                0.01000000               -0.34067197               -0.30753402                0.17664501                1.02859702                0.32175618                0.22048768
               8.01055994                7.00621479               51.06878329                0.01000000               -0.15257666               -0.41967027                0.18056015                0.55924924                0.28531398                0.39224894
               9.00997861                7.00632275               51.07169756                0.01000002               -0.03819545               -0.41909948                0.18519193                0.21836053                0.17344539                0.50391040
              10.00979603                7.00486273               51.07310666                0.01000000               -0.01825777               -0.07039206                0.19398013                0.06157781                0.09196319                0.52209243
               0.04905049                7.99116988               51.05321726                1.00000000               -0.03104792               -0.02758887                0.09284708                0.00050971               -0.00304217                0.01607884
               1.04874001                7.98549093               51.05356908                0.99999999               -0.03406667               -0.03409694                0.11366319                0.00017400               -0.00341417                0.00386225
               2.04836916                7.97982206               51.05391356                0.22835337               -0.04041787               -0.04063924                0.13416589               -0.00059646                0.00389651               -0.00701945
               3.04793165                7.97414739               51.05442319                0.01000000               -0.45367052               -0.35855863                0.15680351                1.11424669                0.08607832               -0.06773365
               4.03929575                7.98188894               51.05643254                0.01000003               -0.76396361               -0.40095314                0.15952650                1.93435256                0.23207037               -0.22165207
               5.03265238                7.98923151               51.05948660                0.01000000               -0.73232116               -0.08712523                0.17326831                1.60433967                0.38709488               -0.12453491
               6.02464932                7.99732218               51.06350758                0.01000000               -0.76088918                0.00423988                0.18314430                1.14445184                0.46337891                0.02627685
               7.01743460                8.00196154               51.06810434                0.01000000               -0.62713911               -0.04297836                0.18555396                0.54446327                0.50945593                0.18648606
               8.01210654                8.00302214               51.07338705                0.01000002               -0.39002789               -0.15204106                0.18548699               -0.01033423                0.47657318                0.38354074
               9.00963404                8.00269710               51.07755060                0.01000000               -0.17200751               -0.26918638                0.18530939               -0.38088417                0.31134709                0.80683427
              10.00866639                8.00453639               51.07970376                0.01000001               -0.09676492               -0.23138749                0.18882420               -0.28972722                0.19703459                0.71747399
               0.05476731                8.99088992               51.05408374                1.00000000               -0.03183974               -0.02840130                0.09547799                0.00056303                0.00294197                0.01598609
               1.05444891                8.98514607               51.05439287                0.99999999               -0.03495169               -0.03496057                0.11651031                0.00011724                0.00320982                0.00314279
               2.05406827                8.97941002               51.05470398                1.00000000               -0.04123346               -0.04148086                0.13768314               -0.00002986               -0.00099686               -0.00536222
               3.05362424                8.97368191               51.05493654                0.01957003               -0.10298927               -0.04743553                0.15901169                0.43621997                0.04682973               -0.02606984
               4.05200849                8.97668596               51.05622264                0.01000000               -0.71952902               -0.20828088                0.15892243                1.46408297                0.42398400               -0.29224068
               5.03923366                8.99007337               51.06074047                0.01000000               -1.22380490                0.24661631                0.20405661                1.23029182                0.58571935               -0.13511419
               6.02753239                8.99875681               51.06521799                0.01000000               -1.05071076                0.21415324                0.19342413                0.65215144                0.56672997                0.00688743
               7.01821944                9.00295518               51.07057490                0.01000002               -0.89573510                0.16310249                0.19331838                0.19296565                0.62883094                0.11325672
               8.00961769                9.00317397               51.07709060                0.01000007               -0.86863844                0.14577466                0.18910846               -0.23299739                0.88876968                0.25902704
               9.00084667                9.00093902               51.08793778                1.00000000               -0.46473869               -0.11409548                0.17548566               -0.55144831                0.55039604                0.52858721
              10.00032291                9.00023498               51.08776840                1.00000000               -0.05237621               -0.24092583                0.17346545               -0.45237993               -0.00041836                0.41160666
               0.06054943                9.99060186               51.05487598                1.00000000               -0.03271859               -0.02880588                0.09831955               -0.00280063                0.01369531                0.01286065
               1.06022225                9.98479172               51.05518395                0.99999999               -0.03583566               -0.03543516                0.11940839               -0.00313690                0.01819444                0.00149786
               2.05983272                9.97899244               51.05557470                0.99999999               -0.04210657               -0.04175838                0.14054116               -0.00320709                0.01830091               -0.00191976
               3.05938012                9.97319868               51.05588904                0.98518424               -0.38233876               -0.04832299                0.16159672                0.51213182                0.17785081               -0.00530255
               4.05218595                9.97772332               51.05948692                0.01000001               -1.20963756                0.10373613                0.22941364                1.06600384                0.65318519               -0.26197478
               5.03518737                9.99416384               51.06276769                0.01000001               -1.36877005                0.40904688                0.20108996                0.78946704                0.47448260               -0.07181237
               6.02481054               10.00160525               51.06685301                0.01000000               -0.91553083                0.28484365                0.20327205                0.28080305                0.49398780                0.01489691
               7.01687675               10.00522359               51.07201425                0.01000001               -0.76738987                0.22684104                0.19742298                0.08235003                0.61941505                0.06676671
               8.00946275               10.00593763               51.07915929                0.01000000               -0.76663428                0.27636644                0.18986588               -0.25591356                0.78558663                0.17780445
               9.00154406               10.00041519               51.08776191                0.99999999               -0.42179355               -0.05238284                0.17351388               -0.24124921                0.43903001                0.00043019
              10.00102688                9.99971787               51.08759252                1.00000000               -0.05171870               -0.05171075                0.17149368                0.00066426                0.00041534               -0.00041500
              -0.02611606                0.00284208               52.04109328                0.99184111               -0.02329985               -0.02193808                0.07179284                0.00239394               -0.00804218                0.00775471
               0.97365095                0.00013359               52.04373352                1.00000000               -0.02503149               -0.02561322                0.08361170                0.00189690               -0.00860676               -0.00149052
               1.97338331               -0.00256336               52.04636218                0.01146014               -0.00448929               -0.02927682                0.09540720                0.07292981               -0.03517919               -0.00362549
               2.97356116               -0.00382712               52.04846620                0.01000000               -0.01029905               -0.00286746                0.12284551                0.08551171               -0.06538696               -0.01523523
               3.97317733               -0.00114082               52.05012323                0.01000000               -0.11475746                0.03718611                0.11686484                0.20652665               -0.07727400                0.01093900
               4.97126601                0.00630019               52.05140180                0.01000000               -0.42475139                0.10161434                0.11512280                0.53942499               -0.10764534               -0.01881559
               5.96468231                0.02223945               52.05145910                0.01517337               -0.53551279               -0.00735514                0.11155015                0.64155222                0.14950486               -0.15341551
               6.96055575                0.03132028               52.05499535                0.97218537               -0.22085179               -0.02930222                0.09338933                0.33893772                0.04881784               -0.00112799
               7.96026527                0.03367398               52.05757780                1.00000000               -0.03015178               -0.03163051                0.10083983                0.00116069                0.00169692                0.00006624
               8.95995272                0.03605509               52.06016792                1.00000000               -0.03236157               -0.03385299                0.10826675                0.00117715                0.00189727                0.00114899
               9.95961804                0.03846529               52.06274746                1.00000000               -0.03346809               -0.03618184                0.11575147               -0.00023391                0.00186164                0.00302717
              -0.02338363                1.00262269               52.04150905                1.00000000               -0.02437356               -0.02242029                0.07526748                0.00062258                0.00134825                0.00821589
               0.97637263                0.99987746               52.04415025                0.01000000               -0.02616995               -0.02623313                0.08712741                0.00013945                0.00416831               -0.00442971
               1.97609297                0.99714387               52.04684997                0.01000000               -0.13338135               -0.00770344                0.09905845                0.10020954               -0.02393297               -0.08625669
               2.97370500                0.99614420               52.04892692                0.01000001               -0.29570118               -0.00099374                0.13888861                0.20679292               -0.02658834                0.02204383
               3.97017894                0.99923105               52.05099171                0.01000000               -0.43674389                0.03345878                0.12513829                0.48155963               -0.02635846               -0.00214096
               4.96497013                1.00731633               52.05259819                0.01000000               -0.57955821                0.05049469                0.13503876                0.92274936               -0.04361131               -0.05762093
               5.95858778                1.02216590               52.05313607                0.01000001               -0.33711300               -0.25656565                0.15775042                1.06489471               -0.02740291               -0.12782140
               6.95822787                1.03102726               52.05455742                0.95167124               -0.03391535               -0.03062395                0.10235588                0.32795828               -0.05759958               -0.00117845
               7.95790947                1.03335768               52.05714273                0.99999999               -0.03295157               -0.03294987                0.10983401                0.00002888                0.00056430                0.00018724
               8.95756884                1.03571656               52.05973081                0.99999999               -0.03519880               -0.03519612                0.11732814                0.00002209                0.00037673                0.00170465
               9.95720550                1.03810347               52.06231262                0.99999999               -0.03633381               -0.03752484                0.12484129               -0.00136142                0.00018755                0.00458686
              -0.02061313                2.00239367               52.04193720                0.01000001               -0.02543101                0.04873325                0.07876717                0.05326905                0.00327107                0.09604695
               0.97913256                1.99960893               52.04450684                0.01000000               -0.01330534               -0.07336846                0.09059200                0.05967030               -0.06682859                0.07220278
               1.97912076                1.99728257               52.04567882                0.01000001               -0.17613559               -0.09278877                0.12470334                0.12137940               -0.05196577                0.02950311
               2.97560984                1.99615300               52.05001096                0.01000000               -0.37421809               -0.05259005                0.13275459                0.45078209                0.03525148                0.03610379
               3.97163640                1.99952836               52.05188378                0.01000000               -0.44118506               -0.03841146                0.12847164                0.91658851               -0.05068922               -0.00145923
               4.96678614                2.00731008               52.05345174                0.01000001               -0.46835635               -0.10223036                0.13102821                1.29720351               -0.06949404               -0.04583270
               5.96226927                2.01710814               52.05459909                0.01000000               -0.54314996               -0.37121565                0.12904987                1.65658215               -0.21073413                0.00101097
               6.95592314                2.03070780               52.05412025                0.01000000               -0.33463610               -0.36167892                0.11129012                1.05184821               -0.15342844                0.13668993
               7.95557655                2.03301498               52.05670874                0.24194537               -0.03578898               -0.03550309                0.11882874               -0.00003314               -0.00042868                0.00941990
               8.95520736                2.03535117               52.05930039                0.99999995               -0.03797825               -0.03784721                0.12640301                0.00005760               -0.00023418                0.00132684
               9.95481698                2.03771479               52.06190098                0.99999999               -0.03903806               -0.04024959                0.13394472               -0.00134927               -0.00002149                0.00474444
              -0.01674877                3.00359736               52.04411495                0.01000005               -0.05740947                0.11861789                0.07917331                0.04662021               -0.01157499                0.18784458
               0.98267714                2.99841009               52.04645730                0.01000001               -0.06373747               -0.14327381                0.08704513                0.14952758               -0.01186137                0.17015578
               1.98197648                2.99528810               52.04897081                0.01000000               -0.11011387               -0.23879954                0.10361008                0.39092331               -0.02633461                0.17808084
               2.98047486                2.99509240               52.05092447                0.01000000               -0.23114221               -0.19338737                0.11648241                0.83369331               -0.05132771                0.04164841
               3.97735364                2.99846282               52.05293471                0.01000001               -0.35702192               -0.18578217                0.12543359                1.26510631               -0.05485826                0.01820883
               4.97333442                3.00527173               52.05449825                0.01000000               -0.45159673               -0.24397481                0.13102095                1.64541947               -0.10037241                0.01606891
               5.96832170                3.01474159               52.05558210                0.01000001               -0.49882167               -0.31533438                0.13193896                1.79880573               -0.14876351                0.06736742
               6.96335799                3.02379368               52.05644784                0.01000001               -0.75281269               -0.55327303                0.13294671                1.89138265               -0.20961323                0.22106528
               7.95326545                3.03264761               52.05646319                0.01000000               -0.52439042               -0.37832477                0.12798483                1.48578735               -0.14060981                0.21088340
               8.95287018                3.03495962               52.05885815                0.01000000               -0.04070950               -0.44340401                0.13550484                1.11096926               -0.01164280                0.17247286
               9.95245126                3.03729848               52.06146756                0.99999997               -0.04189194               -0.98221987                0.14305859                1.30956166               -0.00148627                0.14459712
              -0.00930619                4.00476603               52.04615568                0.01000000               -0.02614393                0.06766187                0.08218846                0.16652194               -0.01267347                0.18823369
               0.99043237                3.99674345               52.04848431                0.01000000               -0.02184488               -0.22908636                0.07880867                0.39198754               -0.03162356                0.17285940
               1.99025691                3.99250658               52.05051898                0.01000000               -0.06616898               -0.33207136                0.09214858                0.81718012               -0.05177292                0.11104502
               2.98910899                3.99228526               52.05241333                0.01000001               -0.17488549               -0.33879082                0.11083606                1.21246920               -0.05440686                0.06621038
               3.98675920                3.99581272               52.05414495                0.01000000               -0.28466142               -0.32476424                0.12518587                1.59723695               -0.05664315                0.03580502
               4.98341576                4.00243059               52.05577394                0.01000001               -0.35178873               -0.34010759                0.13523085                1.88546703               -0.06352375                0.05407115
               5.97972343                4.01080145               52.05725240                0.01000001               -0.37854963               -0.42448546                0.14168926                2.09137502               -0.07968852                0.12440595
               6.97584477                4.01964234               52.05855717                0.01000002               -0.27985324               -0.51767056                0.14605639                2.10232347               -0.07788714                0.22269074
               7.97412636                4.02544849               52.06007187                0.01000001               -0.15344432               -0.73079167                0.15154166                2.16987513               -0.04895286                0.35365343
               8.97277588                4.02648309               52.06186030                0.01000000                0.11020617               -0.86453656                0.15901524                1.52928833               -0.02130224                0.33793798
               9.97633049                4.01807040               52.06385838                0.01000000                0.35546031               -1.40614344                0.17100265                1.15376302               -0.00021071                0.26696534
               0.00262682                5.00495060               52.04800207                0.01000003                0.01495140               -0.16025939                0.08651682                0.32729571               -0.02792548                0.20514042
               1.00277633                4.99382836               52.05026090                0.01000000                0.00757301               -0.36028250                0.06466248                0.70224790               -0.04642377                0.15641934
               2.00277828                4.98864667               52.05213207                0.01000001               -0.06791133               -0.41951683                0.08586587                1.15354793               -0.05913051                0.09366466
               3.00141811                4.98831659               52.05376435                0.01000000               -0.18126164               -0.44035415                0.11008398                1.55857579               -0.04969939                0.04123391
               3.99915305                4.99196753               52.05544988                0.01000001               -0.26815397               -0.40738962                0.13070015                1.82813186               -0.02206126                0.02705565
               4.99605503                4.99846957               52.05726465                0.01000001               -0.31078002               -0.41691569                0.14389021                2.01634311                0.00278977                0.06016344
               5.99293745                5.00625188               52.05919254                0.01000001               -0.26488042               -0.47002958                0.15248928                2.05808485                0.02102504                0.13791156
               6.99075742                5.01344027               52.06119741                0.01000001               -0.15576189               -0.60169616                0.15890650                1.96532101                0.03295538                0.24194224
               7.98982221                5.01803178               52.06322834                0.01000000                0.00383091               -0.71240116                0.16555083                1.62715630                0.03638706                0.32508269
               8.99083404                5.01766888               52.06518636                0.01000000                0.12648457               -0.77785418                0.17480959                1.06573507                0.02593980                0.35289493
               9.99235190                5.00917561               52.06688613                0.01000000                0.15178631               -0.62685513                0.18875990                0.51142796                0.01806065                0.30128955
               0.01948419                6.00156084               52.05007970                0.01000003                0.12970632               -0.70999694                0.15505334                0.80716541               -0.00560309                0.24427968
               1.02078126                5.98953780               52.05191810                0.01000001               -0.03222731               -0.43926649                0.07519478                1.11458074               -0.00453934                0.11830869
               2.01883965                5.98411624               52.05347297                0.01000000               -0.19108057               -0.46525856                0.08579433                1.66531035               -0.03660554                0.04115075
               3.01695964                5.98347817               52.05492183                0.01000001               -0.28353965               -0.43105864                0.12180045                1.72823717               -0.01088208               -0.00781986
               4.01316885                5.98766492               52.05663615                0.01000001               -0.37506827               -0.44476196                0.14253657                1.94616740                0.03925043               -0.01636419
               5.00945828                5.99409227               52.05877248                0.01000001               -0.36272133               -0.41413363                0.15674698                1.98028996                0.09710785                0.03131586
               6.00591443                6.00140086               52.06129231                0.01000000               -0.30434959               -0.43930408                0.16532732                1.87407343                0.14067530                0.12610629
               7.00337129                6.00760842               52.06401181                0.01000000               -0.17367751               -0.51544984                0.17088500                1.58205629                0.15690729                0.24422566
               8.00244088                6.01120046               52.06668267                0.01000000               -0.02122666               -0.60579821                0.17617834                1.18026112                0.13923698                0.34949426
               9.00294675                6.01092600               52.06896223                0.01000000                0.05523569               -0.57569617                0.18415617                0.64928615                0.08463181                0.40419699
              10.00354559                6.00553329               52.07049995                0.01000000                0.05988364               -0.23410133                0.19819815                0.30528037                0.04753063                0.36808832
               0.04281620                6.99075066               52.05331412                0.93730849               -0.03036584               -0.55397826                0.08973718                0.88320213               -0.01273720                0.13276252
               1.04251254                6.98504303               52.05388397                0.82608959               -0.03360431               -0.24178577                0.11250962                0.80312996               -0.01495755                0.05997107
               2.04214411                6.97934150               52.05441347                0.01000000               -0.50391868               -0.25925018                0.13393577                1.18445776                0.02131334                0.00057912
               3.03243417                6.97969541               52.05572362                0.01000001               -0.73409096               -0.51626422                0.14244275                1.71002642                0.04886895               -0.06231129
               4.02746229                6.98307229               52.05750223                0.01000001               -0.52546387               -0.40756850                0.16041853                1.81922289                0.12023489               -0.08588819
               5.02192489                6.99018690               52.06014450                0.01000001               -0.52797643               -0.36111444                0.17296716                1.88772440                0.21872578               -0.02834114
               6.01690277                6.99746580               52.06339758                0.01000000               -0.46629766               -0.28002222                0.18057428                1.59436252                0.28609807                0.09261790
               7.01259894                7.00313127               52.06703096                0.01000000               -0.33964596               -0.32220630                0.18281732                1.12949526                0.30679562                0.23738698
               8.01010985                7.00591582               52.07061615                0.01000000               -0.15560039               -0.42400769                0.18457608                0.63383108                0.27208558                0.40326739
               9.00948693                7.00615496               52.07357181                0.01000002               -0.04334612               -0.41350736                0.18860634                0.25887533                0.16481706                0.50769577
              10.00924292                7.00449359               52.07507876                0.01000000               -0.02440053               -0.05823792                0.19968445                0.07886779                0.08674258                0.51806746
               0.04856349                7.99048127               52.05414076                1.00000000               -0.03104709               -0.02725726                0.09183953                0.00039848               -0.00318166                0.01578191
               1.04825301                7.98470209               52.05471046                0.99999999               -0.03435326               -0.03437762                0.11461191                0.00017182               -0.00371462                0.00374139
               2.04787642                7.97893124               52.05526942                0.24187096               -0.04118182               -0.04149456                0.13701854               -0.00058471                0.00335748               -0.00629304
               3.04742938                7.97315289               52.05599200                0.01000000               -0.44072978               -0.35103968                0.15875414                1.06881958                0.07959292               -0.05935753
               4.03906182                7.97951355               52.05809676                0.01000001               -0.73050573               -0.53928196                0.16761538                1.92207052                0.21895383               -0.22206824
               5.03281926                7.98686998               52.06133442                0.01000000               -0.71022607               -0.15977551                0.19879996                1.72646530                0.37014950               -0.09316566
               6.02485730                7.99580041               52.06541476                0.01000000               -0.76540458               -0.01602839                0.19554325                1.27693334                0.43913418                0.04961588
               7.01751117                8.00116429               52.07001117                0.01000000               -0.63817457               -0.04953762                0.19405364                0.64017398                0.48791125                0.20399305
               8.01209381                8.00272031               52.07527218                0.01000002               -0.39823399               -0.15128317                0.19000907                0.05845376                0.46044845                0.39425120
               9.00954649                8.00265586               52.07942002                0.01000004               -0.18240572               -0.25129264                0.18767750               -0.34084515                0.30176738                0.80422823
              10.00844570                8.00436854               52.08161127                0.01000001               -0.11007946               -0.20385441                0.19208141               -0.26596978                0.19192543                0.70330662
               0.05438254                8.99020551               52.05503074                1.00000000               -0.03165323               -0.02789252                0.09387823                0.00047212                0.00293096                0.01575712
               1.05406601                8.98435548               52.05555958                0.99999999               -0.03504632               -0.03505071                0.11682795                0.00012910                0.00328663                0.00310626
               2.05368162                8.97851161               52.05609167                1.00000000               -0.04188828               -0.04214945                0.13989164                0.00002767               -0.00078949               -0.00501691
               3.05322825                8.97267462               52.05654652                0.02364748               -0.07475035               -0.04867950                0.16309531                0.27214006                0.04899650               -0.02532016
               4.05218661                8.97228665               52.05809309                0.01000000               -0.65304545               -0.38611422                0.29987300                1.49190880                0.37718661               -0.32581234
               5.04016734                8.98699139               52.06286889                0.01000000               -1.20197439                0.21584061                0.20325699                1.39834382                0.54364616               -0.11829353
               6.02814712                8.99714523               52.06721182                0.01000000               -1.08424080                0.21434990                0.20758955                0.76080342                0.52355070                0.02372544
               7.01848252                9.00214052               52.07256103                0.01000002               -0.91798809                0.16401175                0.20042321                0.25265699                0.60339676                0.12448974
               8.00978736                9.00289015               52.07900880                0.01000000               -0.87303591                0.14600179                0.19325655               -0.18479056                0.86779585                0.26537694
               9.00102180                9.00112911               52.08969250                1.00000000               -0.46445955               -0.10253178                0.17546398               -0.51461561                0.54323552                0.52382110
              10.00049817                9.00041650               52.08950278                0.99999997               -0.05236328               -0.22345462                0.17340972               -0.43302029               -0.00042270                0.40391156
               0.06027299                9.98992342               52.05584840                1.00000000               -0.03234904               -0.02820895                0.09611294               -0.00319018                0.01370244                0.01275000
               1.05994950                9.98400107               52.05637689                1.00000000               -0.03575796               -0.03544078                0.11915036               -0.00340951                0.01825918                0.00151115
               2.05955783                9.97808825               52.05698879                0.99999998               -0.04261847               -0.04233556                0.14225317               -0.00346706                0.01838457               -0.00186277
               3.05909713                9.97217930               52.05752368                0.99999995               -0.24873014               -0.04953213                0.16533141                0.27203964                0.21558530               -0.00541653
               4.05458323                9.97179127               52.06209524                0.01000000               -1.15847839               -0.04953833                0.20921914                1.19003687                0.69704308               -0.21090018
               5.03592757                9.99118680               52.06466120                0.01000001               -1.48294953                0.41954056                0.19735015                0.99082994                0.39612148               -0.08746760
               6.02492424               10.00008741               52.06889626                0.01000000               -0.95540893                0.29421844                0.20055681                0.34059840                0.46039692                0.02575930
               7.01681939               10.00444453               52.07400056                0.01000001               -0.77574127                0.23040072                0.19791872                0.11133328                0.59188449                0.07013702
               8.00940941               10.00564035               52.08106925                0.01000000               -0.75457751                0.27501936                0.19070253               -0.22976007                0.76571513                0.17763458
               9.00172784               10.00060522               52.08949733                0.99999997               -0.40994504               -0.05238878                0.17357166               -0.21644183                0.43132057                0.00043123
              10.00121051                9.99989944               52.08930760                0.99999996               -0.05173225               -0.05170538                0.17151742                0.00065668                0.00041731               -0.00041707
              -0.02889628                0.00248636               53.04181291                0.99243772               -0.02328096               -0.02209782                0.07211880                0.00233115               -0.00812007                0.00771926
               0.97087091               -0.00031589               53.04456752                1.00000000               -0.02489610               -0.02554979                0.08318518                0.00177365               -0.00869512               -0.00149539
               1.97060579               -0.00310548               53.04731016                0.01000001                0.01027519               -0.02899692                0.09422389                0.07384930               -0.04113840               -0.00350880
               2.97107641               -0.00443964               53.04941094                0.01000000                0.02102782               -0.00605042                0.10718595                0.06797213               -0.05501992                0.01136168
               3.97102635               -0.00200242               53.05131920                0.01000000               -0.06658592                0.02131792                0.11346264                0.17940042               -0.06556643                0.00166146
               4.96974469                0.00483557               53.05258018                0.01000000               -0.30349044                0.07120895                0.11373182                0.41224672               -0.07947230               -0.00610442
               5.96495654                0.01817595               53.05285284                0.01000120               -0.58988858                0.04696933                0.14282220                0.66422105                0.18339453               -0.19792905
               6.95794692                0.03170213               53.05592786                0.97175522               -0.36491298               -0.02939075                0.09311734                0.56085683                0.02208228               -0.00110359
               7.95765828                0.03406461               53.05858217                1.00000000               -0.02988740               -0.03156575                0.10004641                0.00108170                0.00159167                0.00004619
               8.95734917                0.03645833               53.06124390                0.99999997               -0.03194243               -0.03363310                0.10693637                0.00111618                0.00178971                0.00113777
               9.95701943                0.03888484               53.06389574                1.00000000               -0.03297388               -0.03577156                0.11388968               -0.00048292                0.00177998                0.00296917
              -0.02607072                1.00226538               53.04226517                0.99999999               -0.02447178               -0.02262711                0.07594824                0.00067193                0.00137276                0.00817702
               0.97368456                0.99942861               53.04502154                0.01000000               -0.02615619               -0.02621887                0.08706728                0.00012494                0.00423711               -0.00443868
               1.97340616                0.99660455               53.04783693                0.01000000               -0.12399816               -0.05405006                0.09820088                0.01151155               -0.01824420               -0.01394013
               2.97120460                0.99549986               53.05014076                0.01000001               -0.26117040               -0.00606332                0.11979288                0.16651793               -0.03890842                0.00439990
               3.96818275                0.99821076               53.05223897                0.01000000               -0.37133147                0.02141671                0.11245284                0.42403547               -0.02020058               -0.01419657
               4.96377797                1.00554766               53.05387213                0.01000000               -0.50086373                0.04461605                0.10976139                0.77618988               -0.00282737               -0.06356375
               5.95816547                1.01864565               53.05471995                0.01000001               -0.40834055               -0.12053247                0.12727259                1.03388819                0.04936155               -0.17695860
               6.95561116                1.03140822               53.05558507                0.94635424               -0.14372390               -0.03086914                0.10316659                0.52266543               -0.08899244               -0.00116514
               7.95529100                1.03374895               53.05824257                0.99999999               -0.03304712               -0.03303517                0.11013899                0.00002592                0.00058956                0.00016583
               8.95495022                1.03612200               53.06090311                0.99999999               -0.03514527               -0.03514964                0.11714518                0.00002266                0.00040460                0.00168958
               9.95458809                1.03852713               53.06355759                1.00000000               -0.03621263               -0.03726256                0.12414158               -0.00152898                0.00020785                0.00456872
              -0.02320930                2.00203382               53.04272970                0.01000002               -0.02564645                0.05257821                0.07977180                0.05416397                0.00335784                0.09435856
               0.97653424                1.99915973               53.04541514                0.01000000               -0.10129647               -0.06683625                0.09092128                0.00982725                0.00557342                0.07010088
               1.97476477                1.99581352               53.04814885                0.01000001               -0.18668396               -0.10542262                0.19365995                0.12408383               -0.05611501               -0.00097365
               2.97280056                1.99543910               53.05105117                0.01000000               -0.26527582               -0.06854020                0.10234093                0.46560493               -0.01155069                0.01673281
               3.96945926                1.99842591               53.05311771                0.01000000               -0.39834795               -0.03850750                0.11282831                0.85599695               -0.03966128               -0.01637020
               4.96483360                2.00572789               53.05468261                0.01000001               -0.48427540               -0.06709667                0.11296021                1.22731904               -0.06709653               -0.05902645
               5.95977375                2.01576531               53.05579058                0.01000000               -0.57683382               -0.23006790                0.10856894                1.65131668               -0.22765876               -0.01643423
               6.95329692                2.03108474               53.05524266                0.01000000               -0.34143642               -0.38323132                0.11315714                1.14034498               -0.16034227                0.14220922
               7.95294502                2.03340391               53.05790405                0.25387443               -0.03627359               -0.03596502                0.12023799               -0.00020582               -0.00024618                0.00967275
               8.95257145                2.03575534               53.06056909                0.99999994               -0.03832112               -0.03816035                0.12736134               -0.00005959               -0.00015010                0.00130863
               9.95217860                2.03813959               53.06324281                0.99999999               -0.03928536               -0.04031682                0.13438212               -0.00153985                0.00001062                0.00482573
              -0.01923926                3.00331695               53.04491081                0.01000001               -0.06593301                0.12837549                0.08144117                0.05201027               -0.00687537                0.18195326
               0.98010141                2.99809188               53.04736013                0.01000001               -0.05761373               -0.13961550                0.09292174                0.13414317               -0.01247555                0.15260926
               1.97960847                2.99449610               53.04980756                0.01000000               -0.10985539               -0.19617278                0.09205304                0.45650385               -0.00898480                0.09582080
               2.97790430                2.99412906               53.05211600                0.01000000               -0.22972867               -0.19999695                0.11352568                0.84770536               -0.03406815                0.02951702
               3.97501389                2.99744061               53.05412839                0.01000008               -0.34596709               -0.17851026                0.11426821                1.25602808               -0.05255709                0.00984939
               4.97098496                3.00420573               53.05575346                0.01000000               -0.45894665               -0.20838668                0.11933202                1.64834663               -0.10199766                0.01696131
               5.96583496                3.01404429               53.05686324                0.01000001               -0.51027514               -0.27730239                0.12417049                1.86262123               -0.15066025                0.07570083
               6.96077946                3.02374359               53.05777506                0.01000001               -0.76093360               -0.58062512                0.13236593                1.96463089               -0.21620951                0.23184645
               7.95061629                3.03302965               53.05775915                0.01000000               -0.52830579               -0.39155415                0.13196702                1.52986667               -0.14591915                0.21777778
               8.95021334                3.03535879               53.06022351                0.01000000               -0.04137502               -0.45442883                0.13762938                1.13640012               -0.01198592                0.17985073
               9.94978879                3.03772079               53.06290646                0.99981738               -0.04245553               -1.00650129                0.14467726                1.34037336               -0.00161350                0.15503977
              -0.01171897                4.00460133               53.04697900                0.01000000               -0.02430833                0.06848757                0.08603902                0.16510788               -0.00657281                0.18229244
               0.98803795                3.99636742               53.04927526                0.01000000               -0.02116785               -0.23827672                0.08469698                0.39134235               -0.01119850                0.14018066
               1.98785768                3.99189006               53.05146429                0.01000000               -0.06138985               -0.32721543                0.09531122                0.80551953               -0.02408617                0.09269378
               2.98681015                3.99143916               53.05348654                0.01000001               -0.16772664               -0.33580522                0.10759169                1.22038227               -0.03363276                0.05151939
               3.98450314                3.99485571               53.05537106                0.01000000               -0.28066514               -0.32318836                0.12058478                1.61439285               -0.04612184                0.03625467
               4.98119685                4.00156016               53.05709698                0.01000001               -0.35074173               -0.33177834                0.12954307                1.92729318               -0.06177827                0.06207974
               5.97748831                4.01021926               53.05865105                0.01000001               -0.37963365               -0.42141958                0.13755050                2.15979560               -0.08290363                0.13602190
               6.97360418                4.01947224               53.06001622                0.01000000               -0.27805779               -0.53053049                0.14494740                2.17851760               -0.08256663                0.23332103
               7.97192715                4.02557282               53.06159947                0.01000002               -0.14979311               -0.75300523                0.15319763                2.23459147               -0.05379411                0.36657216
               8.97060832                4.02666676               53.06347151                0.01000000                0.11674570               -0.88629905                0.16292073                1.57028428               -0.02393022                0.35187260
               9.97426207                4.01800957               53.06559960                0.01000001                0.36537521               -1.44312959                0.17766740                1.18221377               -0.00227651                0.28764801
               0.00053072                5.00468670               53.04904730                0.01000000                0.01088071               -0.16515685                0.10122790                0.34535525               -0.00199029                0.18665809
               1.00063952                4.99332635               53.05107622                0.01000000                0.00581999               -0.37336034                0.08953639                0.72574608               -0.00761815                0.12586278
               2.00064712                4.98795179               53.05301740                0.01000001               -0.06466115               -0.43212753                0.09619302                1.17272995               -0.01705870                0.07640060
               2.99934630                4.98741295               53.05487635                0.01000000               -0.17331846               -0.45062476                0.11391481                1.57655447               -0.01851527                0.04204822
               3.99718075                4.99097684               53.05674864                0.01000001               -0.25895126               -0.41836080                0.13016881                1.86284324               -0.00853107                0.03845494
               4.99416727                4.99757016               53.05869733                0.01000001               -0.30309783               -0.42812894                0.14242523                2.07399591                0.00391883                0.07732019
               5.99111879                5.00561590               53.06071481                0.01000000               -0.25855161               -0.48117097                0.15076412                2.13458897                0.01472140                0.15588826
               6.98899624                5.01313298               53.06278877                0.01000001               -0.15025967               -0.61545320                0.15764847                2.04513497                0.02347449                0.25761362
               7.98811360                5.01796955               53.06489325                0.01000000                0.00930216               -0.72776054                0.16565491                1.69182794                0.02737005                0.33718593
               8.98918229                5.01763281               53.06695447                0.01000000                0.13169278               -0.79445933                0.17760796                1.10352265                0.02019512                0.36333383
               9.99074745                5.00885820               53.06880997                0.01000000                0.15651664               -0.64481014                0.19579864                0.52893301                0.01431597                0.31422677
               0.01790884                6.00129819               53.05131470                0.01000002                0.13789446               -0.73254049                0.11293600                0.83390528                0.00201109                0.22284303
               1.01928778                5.98890021               53.05291901                0.01000001               -0.03415821               -0.45456375                0.10427047                1.15044517                0.00772144                0.12847672
               2.01722567                5.98324751               53.05449404                0.01000000               -0.19857962               -0.47569214                0.10982817                1.71013052                0.00055882                0.04995208
               3.01531619                5.98242666               53.05615425                0.01000001               -0.28114377               -0.44381300                0.12799636                1.75947406                0.01386263                0.01179369
               4.01160280                5.98648849               53.05807590                0.01000001               -0.36392385               -0.47250969                0.14661884                1.98897742                0.04913958                0.01077950
               5.00803771                5.99299758               53.06036158                0.01000000               -0.34927646               -0.44415264                0.15956815                2.04996712                0.09359058                0.06047181
               6.00461727                6.00059584               53.06296184                0.01000001               -0.29422425               -0.46069902                0.16672669                1.96278390                0.12795830                0.15423919
               7.00215323                6.00716318               53.06573172                0.01000000               -0.16766921               -0.52849306                0.17080114                1.66865069                0.14056207                0.26658803
               8.00126388                6.01101761               53.06845408                0.01000000               -0.01815547               -0.61394620                0.17588433                1.24807967                0.12428366                0.36478000
               9.00179012                6.01077757               53.07081958                0.01000000                0.05630343               -0.58069694                0.18559771                0.68629013                0.07507508                0.41278422
              10.00238995                6.00511336               53.07251472                0.01000000                0.05998348               -0.23727167                0.20383155                0.32205556                0.04198596                0.37332441
               0.04200478                6.99003589               53.05420962                0.93833311               -0.03056730               -0.57646437                0.08937284                0.91684910               -0.01278250                0.11461918
               1.04169911                6.98423507               53.05501719                0.80084984               -0.03407526               -0.25050327                0.11414393                0.83256670               -0.01574540                0.06549306
               2.04132327                6.97843795               53.05576960                0.01000000               -0.52021536               -0.26147618                0.13725550                1.21153579                0.01360492                0.01685183
               3.03129480                6.97853669               53.05717871                0.01000001               -0.74669490               -0.51446636                0.14903011                1.72343434                0.05021889               -0.03881082
               4.02638938                6.98152665               53.05919278                0.01000001               -0.51177639               -0.48158907                0.16975793                1.84400086                0.11932162               -0.05607492
               5.02105927                6.98868711               53.06192764                0.01000001               -0.50902520               -0.41768858                0.18269792                1.97874593                0.20396192                0.02200839
               6.01620887                6.99640192               53.06524520                0.01000000               -0.45558955               -0.30477863                0.18524017                1.70069998                0.26225004                0.13143883
               7.01194748                7.00256312               53.06888181                0.01000000               -0.33740396               -0.33259236                0.18479263                1.22354414                0.28174601                0.26575318
               8.00946079                7.00569062               53.07247481                0.01000003               -0.15675709               -0.42515489                0.18490421                0.70492644                0.25146693                0.42067358
               9.00881234                7.00601887               53.07546968                0.01000002               -0.04719036               -0.40582959                0.18932117                0.29811634                0.15195984                0.51392834
              10.00851699                7.00411277               53.07710035                0.01000000               -0.02953528               -0.04674319                0.20347832                0.09601187                0.07947509                0.51374012
               0.04784745                7.98976890               53.05505405                1.00000000               -0.03103895               -0.02692340                0.09081383                0.00029740               -0.00331575                0.01547190
               1.04753706                7.98389015               53.05586131                0.99999999               -0.03463385               -0.03466487                0.11556173                0.00018420               -0.00404184                0.00358237
               2.04715477                7.97801799               53.05665393                0.25421083               -0.04204424               -0.04238171                0.13989614               -0.00052728                0.00225014               -0.00551089
               3.04669617                7.97213734               53.05759827                0.01000000               -0.44111872               -0.34464319                0.16337736                1.00733378                0.07076873               -0.05143435
               4.03833240                7.97685671               53.05978485                0.01000000               -0.69794064               -0.76777120                0.20615501                1.96734774                0.21741279               -0.07206871
               5.03273736                7.98464381               53.06346259                0.01000000               -0.67885702               -0.21531916                0.20857737                1.87860695                0.34015762               -0.03577048
               6.02475526                7.99450027               53.06741845                0.01000000               -0.77009784               -0.03260473                0.20309391                1.39849531                0.39239798                0.09508031
               7.01733540                8.00051133               53.07198542                0.01000003               -0.64242969               -0.05537715                0.19729137                0.72785807                0.45498211                0.23154471
               8.01190666                8.00251452               53.07718723                0.01000002               -0.40025501               -0.15030916                0.19110926                0.12654953                0.43603981                0.41098269
               9.00933030                8.00266098               53.08130415                0.01000002               -0.18921288               -0.23403676                0.18789567               -0.29654755                0.28798928                0.80292731
              10.00812240                8.00417850               53.08354539                0.01000001               -0.12078990               -0.17479429                0.19387331               -0.23940306                0.18544281                0.68676899
               0.05376824                8.98949742               53.05596131                1.00000000               -0.03145351               -0.02736797                0.09220236                0.00038852                0.00290389                0.01552290
               1.05345371                8.98354178               53.05672942                0.99999999               -0.03513515               -0.03514043                0.11713326                0.00014352                0.00332446                0.00307319
               2.05306554                8.97759031               53.05750181                1.00000000               -0.04254780               -0.04285190                0.14216166                0.00004502               -0.00063407               -0.00467275
               3.05260275                8.97164383               53.05819844                0.07465465                0.00821591               -0.05006461                0.16733637                0.02350553                0.16084023               -0.02415005
               4.05322986                8.96617122               53.06222010                0.01000000               -0.58074473               -0.56778484                0.24847248                1.66968958                0.29068433               -0.18954736
               5.04098786                8.98438073               53.06480561                0.01000000               -1.24592992                0.20930280                0.22084912                1.65750086                0.37183095               -0.05450558
               6.02831126                8.99574982               53.06936978                0.01000000               -1.12487323                0.21256406                0.21191002                0.84993551                0.47815758                0.05191053
               7.01849039                9.00145558               53.07458336                0.01000002               -0.92345636                0.16179623                0.20248266                0.30703307                0.56498621                0.14158596
               8.00984213                9.00268444               53.08095573                0.01000000               -0.86364935                0.14274581                0.19424835               -0.13719073                0.84174743                0.27489812
               9.00121740                9.00133814               53.09144706                1.00000000               -0.45741199               -0.09234079                0.17545200               -0.47328685                0.53465086                0.51827271
              10.00069389                9.00061688               53.09123659                1.00000000               -0.05235129               -0.20392981                0.17334990               -0.40751200               -0.00042703                0.39481861
               0.05976651                9.98922154               53.05679824                1.00000000               -0.03194682               -0.02758757                0.09379976               -0.00359425                0.01370863                0.01263525
               1.05944704                9.98318734               53.05756696                0.99999999               -0.03564431               -0.03544381                0.11883508               -0.00369668                0.01834376                0.00154047
               2.05905362                9.97716095               53.05841976                0.99999999               -0.04308331               -0.04293617                0.14393300               -0.00375663                0.01856696               -0.00178696
               3.05858537                9.97113604               53.05919567                0.99999999               -0.00321652               -0.05077836                0.16904718                0.01526529                0.19896580               -0.00553225
               4.05898929                9.96550101               53.06367131                0.01000000               -1.11382966               -0.06702094                0.11262815                1.46063431                0.51657486               -0.23856689
               5.03630878                9.98882987               53.06671470                0.01000001               -1.71550877                0.44491397                0.20342852                1.19461878                0.34104291               -0.02602683
               6.02467911                9.99875155               53.07086415                0.01000000               -0.98836652                0.30017232                0.19405293                0.38265492                0.41657895                0.03184637
               7.01654145               10.00374725               53.07597262                0.01000001               -0.76994122                0.22916758                0.19470549                0.13599985                0.56644540                0.07700581
               8.00928029               10.00536943               53.08297334                0.01000000               -0.73046598                0.26849909                0.18915582               -0.20283864                0.74666516                0.17763272
               9.00193213               10.00081417               53.09123334                0.99999999               -0.39328048               -0.05239706                0.17363349               -0.19200413                0.42395553                0.00043233
              10.00141468               10.00009990               53.09102286                0.99999995               -0.05174482               -0.05169767                0.17153140                0.00065242                0.00041936               -0.00041910
              -0.03178769                0.00209193               54.04253566                0.99328712               -0.02325200               -0.02224913                0.07241664                0.00224966               -0.00814691                0.00768821
               0.96797979               -0.00080435               54.04539722                1.00000000               -0.02475875               -0.02545771                0.08273217                0.00163370               -0.00872058               -0.00150834
               1.96771713               -0.00368706               54.04824665                0.01000000                0.02359675               -0.02865517                0.09303355                0.07641405               -0.03338153               -0.00351244
               2.96845172               -0.00505953               54.05060992                0.01000005                0.04898150               -0.03485002                0.13353191                0.04430514               -0.08413433               -0.01218791
               3.96869676               -0.00294711               54.05239248                0.01000000               -0.01543950                0.00957171                0.09841113                0.16736652               -0.08459083               -0.00645021
               4.96814293                0.00359420               54.05367644                0.01000000               -0.18471205                0.03484368                0.10784389                0.30365365               -0.09514144               -0.00452034
               5.96500252                0.01454664               54.05431554                0.01000002               -0.64374318                0.11423497                0.15766523                0.70543571                0.04117484               -0.08126300
               6.95526807                0.03198379               54.05685770                0.97134076               -0.50107288               -0.02946391                0.09283998                0.75610708               -0.00794929               -0.00109527
               7.95498106                0.03435411               54.05957873                1.00000000               -0.02965618               -0.03149950                0.09928220                0.00099691                0.00147541                0.00005898
               8.95467494                0.03675942               54.06230665                1.00000000               -0.03155525               -0.03342602                0.10563027                0.00103881                0.00161047                0.00113434
               9.95434996                0.03920097               54.06502525                1.00000000               -0.03249861               -0.03531925                0.11203042               -0.00077157                0.00157720                0.00277728
              -0.02886892                1.00186944               54.04302802                1.00000000               -0.02454638               -0.02283630                0.07660248                0.00070579                0.00137817                0.00815296
               0.97088562                0.99894107               54.04589160                0.01000000               -0.02611098               -0.02616472                0.08693077                0.00010212                0.00424752               -0.00444889
               1.97060886                0.99602639               54.04881399                0.01000000               -0.11804110               -0.05102377                0.09724416                0.01480920               -0.01333248                0.00535748
               2.96852480                0.99459197               54.05132278                0.01000001               -0.22826510               -0.02140228                0.11515316                0.15402322               -0.02629186               -0.01227756
               3.96604356                0.99714861               54.05324077                0.01000000               -0.30461021                0.01293210                0.09456892                0.39328240               -0.05089692               -0.01541683
               4.96243259                1.00394263               54.05479342                0.01000000               -0.40907412                0.03270137                0.08739379                0.65843997               -0.05992562               -0.03246809
               5.95786208                1.01568899               54.05568152                0.01000001               -0.47535947                0.00447661                0.09684429                0.99500206               -0.05956721               -0.05262304
               6.95292540                1.03168916               54.05662075                0.94062265               -0.26294295               -0.03108987                0.10391281                0.68424425               -0.08851792               -0.00114290
               7.95260322                1.03403911               54.05934551                0.99999999               -0.03317502               -0.03311262                0.11048759                0.00000677                0.00071124                0.00017683
               8.95226190                1.03642516               54.06207372                0.99999999               -0.03512631               -0.03512395                0.11703017               -0.00003416                0.00045593                0.00169681
               9.95190069                1.03884777               54.06479545                0.99999995               -0.03612093               -0.03692619                0.12337284               -0.00174841                0.00021073                0.00439200
              -0.02591685                2.00163520               54.04353264                0.01000001               -0.02582730                0.05588434                0.08078982                0.05791470                0.00335289                0.09383104
               0.97382488                1.99867236               54.04632527                0.01000000               -0.08603662               -0.06694604                0.09111593                0.01512547                0.02487570                0.07036794
               1.97236242                1.99529246               54.04955202                0.01000001               -0.17074575               -0.10686571                0.12248717                0.11360586                0.03344821                0.03826389
               2.97040996                1.99451242               54.05205778                0.01000000               -0.25753398               -0.06722952                0.10021513                0.44834686               -0.01734857                0.00673727
               3.96721174                1.99731153               54.05414035                0.01000000               -0.38193088               -0.03710739                0.09948469                0.81786377               -0.05093033               -0.00398159
               4.96277135                2.00424823               54.05571095                0.01000001               -0.50278506               -0.03730271                0.09910718                1.17258345               -0.09547546               -0.01693468
               5.95715604                2.01463617               54.05677046                0.01000000               -0.60842606               -0.11469281                0.09669713                1.62692978               -0.22599227                0.03054997
               6.95060283                2.03136200               54.05638339                0.01000000               -0.34554226               -0.40160522                0.11491087                1.21340816               -0.15528944                0.14597313
               7.95024519                2.03369186               54.05911350                0.26644877               -0.03686134               -0.03656815                0.12170301               -0.00048329                0.00017151                0.01109132
               8.94986560                2.03605694               54.06184762                0.99999997               -0.03877189               -0.03854746                0.12845406               -0.00040823               -0.00001263                0.00131824
               9.94946976                2.03846244               54.06458863                0.99999999               -0.03958428               -0.04026413                0.13462423               -0.00182949                0.00000119                0.00480079
              -0.02178493                3.00298713               54.04574377                0.01000000               -0.06842044                0.13200883                0.08501768                0.05583680                0.00034216                0.18153286
               0.97753087                2.99760215               54.04831574                0.01000001               -0.05870796               -0.14206876                0.09535891                0.14000907               -0.00356086                0.13970420
               1.97704091                2.99388907               54.05081187                0.01000000               -0.10291019               -0.20709214                0.10205378                0.44233544               -0.01019198                0.07864130
               2.97547267                2.99324738               54.05319499                0.01000000               -0.21879409               -0.19785631                0.10631894                0.83184926               -0.02442486                0.03939636
               3.97266503                2.99640646               54.05522008                0.01000002               -0.34565220               -0.16969833                0.10764326                1.24818969               -0.05651488                0.02401029
               4.96855962                3.00319658               54.05688489                0.01000000               -0.46890655               -0.17599552                0.11075885                1.65587663               -0.10572700                0.04080197
               5.96328690                3.01339513               54.05806551                0.01000001               -0.52108704               -0.24829264                0.11852739                1.92252705               -0.15000190                0.10310993
               6.95813788                3.02365705               54.05909516                0.01000001               -0.76941451               -0.60334719                0.13264131                2.02774048               -0.21460905                0.24456558
               7.94789861                3.03330775               54.05910253                0.01000000               -0.53273648               -0.40230128                0.13887302                1.56735769               -0.14937046                0.22385390
               8.94748315                3.03565421               54.06161074                0.01000000               -0.04227575               -0.46336807                0.14005792                1.15831462               -0.01343060                0.18732448
               9.94705310                3.03804249               54.06436110                0.99999997               -0.04300549               -1.02713000                0.14598195                1.36677994               -0.00181741                0.16766670
              -0.01403016                4.00427538               54.04787646                0.01000000               -0.02467215                0.06804664                0.09015051                0.17126545               -0.00276181                0.17831444
               0.98572311                3.99583098               54.05017825                0.01000000               -0.02029653               -0.24501408                0.09382593                0.39991216               -0.00546039                0.12994294
               1.98556391                3.99115062               54.05242521                0.01000000               -0.05967752               -0.33720749                0.10002846                0.81601851               -0.01221071                0.08789941
               2.98452956                3.99055530               54.05456516                0.01000008               -0.16687873               -0.33787664                0.10939061                1.23054200               -0.02431325                0.05590369
               3.98222633                3.99391756               54.05655664                0.01000000               -0.28146789               -0.31873374                0.11803070                1.63347160               -0.04202882                0.05206518
               4.97890021                4.00072831               54.05836480                0.01000001               -0.35401104               -0.32226046                0.12514308                1.96801831               -0.06389525                0.08349075
               5.97514611                4.00967032               54.06000341                0.01000001               -0.38275946               -0.41681400                0.13276407                2.22101359               -0.08704290                0.15636496
               6.97124502                4.01929505               54.06145612                0.01000000               -0.27754598               -0.53900021                0.14162165                2.24430472               -0.08768910                0.24578695
               7.96959519                4.02564583               54.06313582                0.01000003               -0.14739332               -0.76934333                0.15248873                2.28999092               -0.05870340                0.37705525
               8.96829715                4.02678958               54.06511871                0.01000000                0.12167999               -0.90333585                0.16555498                1.60560395               -0.02650884                0.36567939
               9.97202879                4.01791984               54.06741173                0.01000000                0.37316392               -1.47487326                0.18608396                1.20673276               -0.00477280                0.31334777
              -0.00147082                5.00434806               54.05002663                0.01000000                0.01246895               -0.17099997                0.09621403                0.35267949               -0.00130352                0.18483821
               0.99865387                4.99270187               54.05205162                0.01000000                0.00538932               -0.38323100                0.10057272                0.74150447               -0.00089075                0.12659150
               1.99863697                4.98714492               54.05405594                0.01000001               -0.06686560               -0.43937691                0.10790389                1.19198231               -0.00447978                0.08115835
               2.99731656                4.98648984               54.05604264                0.01000000               -0.17377625               -0.45718061                0.11931419                1.60061670               -0.00661404                0.05582439
               3.99516144                4.99003178               54.05805325                0.01000001               -0.25746637               -0.42405972                0.13119956                1.89897544               -0.00395888                0.06107307
               4.99216723                4.99675137               54.06011315                0.01000001               -0.30105055               -0.43284559                0.14045168                2.12855092               -0.00047682                0.10450698
               5.98914043                5.00505885               54.06220782                0.01000002               -0.25593856               -0.48575342                0.14669925                2.20415112                0.00308287                0.18167312
               6.98704846                5.01287705               54.06435038                0.01000000               -0.14682645               -0.62239582                0.15210700                2.11536496                0.00883033                0.27762961
               7.98620390                5.01792088               54.06654143                0.01000000                0.01363775               -0.73656626                0.16062011                1.74769713                0.01428062                0.35095980
               8.98732122                5.01758749               54.06873852                0.01000000                0.13616581               -0.80615510                0.17648308                1.13573066                0.01240270                0.37499341
               9.98892722                5.00854503               54.07080210                0.01000000                0.16060036               -0.66052213                0.20222852                0.54406593                0.00960473                0.32959642
               0.01631580                6.00085538               54.05233842                0.01000000                0.14405381               -0.75221819                0.09924673                0.85190898               -0.00044156                0.20584965
               1.01775634                5.98816636               54.05400351                0.01000001               -0.03501114               -0.46456427                0.10984797                1.17457399                0.00474443                0.13148678
               2.01561558                5.98236308               54.05566954                0.01000000               -0.20506513               -0.48131356                0.12097585                1.74315208                0.00602584                0.06719395
               3.01365504                5.98141168               54.05748176                0.01000001               -0.28356334               -0.45073323                0.13558408                1.78860465                0.02243331                0.03588656
               4.00994431                5.98543637               54.05956852                0.01000001               -0.36054404               -0.48949684                0.14969821                2.02990407                0.05045170                0.04522669
               5.00644416                5.99207140               54.06196384                0.01000001               -0.34204277               -0.46126574                0.15955494                2.11516791                0.08308206                0.10218183
               6.00310346                5.99995525               54.06462685                0.01000001               -0.28769359               -0.47104439                0.16398413                2.04144455                0.10798599                0.19128134
               7.00069028                6.00684714               54.06742783                0.01000000               -0.16323845               -0.53422035                0.16585862                1.74575200                0.11667827                0.29613837
               7.99983869                6.01091451               54.07020035                0.01000000               -0.01513313               -0.61623726                0.17017044                1.30833743                0.10319063                0.38526256
               9.00038762                6.01066648               54.07267418                0.01000003                0.05781760               -0.58192677                0.18267590                0.71871308                0.06222604                0.42439392
              10.00099504                6.00470940               54.07457658                0.01000000                0.06074177               -0.24036554                0.20766327                0.33648585                0.03499567                0.37982139
               0.04094541                6.98930370               54.05510158                0.94009229               -0.03077529               -0.59081790                0.08904895                0.93903067               -0.01277218                0.10718263
               1.04063765                6.98341059               54.05616685                0.77392302               -0.03453579               -0.25524299                0.11578452                0.85154568               -0.01666252                0.06799568
               2.04025469                6.97751865               54.05715858                0.01000000               -0.53111431               -0.26371337                0.14039624                1.23167418                0.00667332                0.02756097
               3.03001537                6.97747518               54.05870422                0.01000001               -0.75774414               -0.51536051                0.15409532                1.73909938                0.04947663               -0.01243291
               4.02509981                6.98024185               54.06089739                0.01000002               -0.50318271               -0.51957524                0.17354377                1.88261600                0.11619479                0.01856903
               5.01995171                6.98752606               54.06379845                0.01000000               -0.49531080               -0.43974017                0.18372806                2.04703911                0.18346148                0.08035480
               6.01519359                6.99563796               54.06710239                0.01000000               -0.44737327               -0.31889062                0.18340237                1.78727838                0.22851379                0.18126619
               7.01100425                7.00219264               54.07072681                0.01000000               -0.33211379               -0.33767492                0.18143728                1.30549598                0.24953807                0.30185311
               8.00855131                7.00559614               54.07431424                0.01000004               -0.15518313               -0.42277315                0.18069708                0.77067514                0.22461528                0.44447247
               9.00790058                7.00594896               54.07735824                0.01000002               -0.04901128               -0.39647233                0.18631890                0.33510380                0.13551391                0.52373083
              10.00757109                7.00373772               54.07914833                0.01000000               -0.03294951               -0.03708623                0.20476810                0.11272804                0.07071348                0.50921855
               0.04688263                7.98903902               54.05595704                1.00000000               -0.03103376               -0.02659592                0.08980162                0.00019678               -0.00343622                0.01512193
               1.04657230                7.98306150               54.05702170                0.99999999               -0.03490826               -0.03496410                0.11652773                0.00020691               -0.00438554                0.00342552
               2.04618447                7.97708882               54.05806734                0.26541125               -0.04292336               -0.04331684                0.14279559               -0.00059003                0.00144149               -0.00451628
               3.04571383                7.97110447               54.05925954                0.01000000               -0.43193572               -0.34404807                0.16993326                0.98337241                0.09584381               -0.04416980
               4.03754575                7.97504487               54.06221986                0.01000004               -0.68625041               -0.78162979                0.21504765                1.92327254                0.20889221               -0.02620112
               5.03198882                7.98327660               54.06550597                0.01000000               -0.66816570               -0.24384402                0.20245068                1.95175654                0.26899719                0.06200520
               6.02418244                7.99357744               54.06947664                0.01000000               -0.75733959               -0.04501137                0.20104225                1.47779861                0.34462295                0.14555060
               7.01684203                8.00009364               54.07395700                0.01000034               -0.63432835               -0.06038027                0.19470052                0.80368268                0.41524636                0.26613516
               8.01149587                8.00245904               54.07909437                0.01000002               -0.39469539               -0.14970644                0.18856780                0.19253460                0.40734674                0.43303089
               9.00894812                8.00273703               54.08317793                0.01000002               -0.19118957               -0.21917919                0.18567050               -0.24789951                0.27168631                0.80465889
              10.00767208                8.00396768               54.08548873                0.01000001               -0.12760393               -0.14511620                0.19372242               -0.20996185                0.17851902                0.66933118
               0.05290439                8.98877178               54.05687479                1.00000000               -0.03123872               -0.02683813                0.09048016                0.00030781                0.00286033                0.01522616
               1.05259200                8.98271130               54.05790225                0.99999999               -0.03522347               -0.03523399                0.11743007                0.00015478                0.00334014                0.00305425
               2.05219992                8.97665232               54.05893491                1.00000000               -0.04326178               -0.04361074                0.14448643               -0.00005487               -0.00048966               -0.00427830
               3.05172676                8.97059422               54.05989325                0.09372421               -0.04033931               -0.05151358                0.17177355                0.00340073                0.10527439               -0.02332306
               4.05139313                8.96460925               54.06306254                0.01000000               -0.56362465               -0.54636771                0.14063341                1.59524526                0.21735015               -0.02561610
               5.04045427                8.98264918               54.06728587                0.01000000               -1.17303037                0.17857434                0.21850108                1.68476235                0.33117894                0.02583927
               6.02793252                8.99473774               54.07145002                0.01000003               -1.11289879                0.20790847                0.20542839                0.90756555                0.40592962                0.08455859
               7.01819629                9.00098503               54.07661068                0.01000002               -0.90869537                0.15562417                0.19976484                0.35306753                0.52869365                0.16230902
               8.00975862                9.00260201               54.08289377                0.01000001               -0.83811673                0.13493747                0.19243037               -0.09167671                0.81413357                0.28735027
               9.00143396                9.00156537               54.09320154                1.00000000               -0.44240284               -0.08478663                0.17544918               -0.42786605                0.52653443                0.51320264
              10.00091056                9.00083539               54.09296978                0.99999999               -0.05234015               -0.18245808                0.17328596               -0.37460950               -0.00043117                0.38519817
               0.05900974                9.98850226               54.05772439                1.00000000               -0.03148827               -0.02695155                0.09138230               -0.00400897                0.01364103                0.01244774
               1.05869485                9.98235682               54.05875359                0.99999999               -0.03546395               -0.03544823                0.11844304               -0.00399759                0.01837189                0.00157743
               2.05830046                9.97621660               54.05986745                1.00000000               -0.04349730               -0.04357149                0.14553374               -0.00407694                0.01878740               -0.00168102
               3.05782491                9.97007420               54.06090462                0.99999997               -0.04523780               -0.05200165                0.17271412                0.00485996                0.13462340               -0.00571032
               4.05739570                9.96411751               54.06434780                0.01000001               -1.11346628               -0.04917400                0.12865528                1.43895133                0.26244591               -0.01747962
               5.03555558                9.98684809               54.06872977                0.01000001               -1.66989042                0.41989100                0.18037068                1.19103593                0.31561587               -0.00485268
               6.02399789                9.99773561               54.07277732                0.01000000               -0.97582378                0.29978697                0.18764146                0.42443880                0.37284891                0.04620066
               7.01603911               10.00320612               54.07789467                0.01000001               -0.74579460                0.22210876                0.18941135                0.15539041                0.54429302                0.08440843
               8.00908200               10.00515779               54.08485237                0.01000000               -0.69408438                0.25557815                0.18635184               -0.17590272                0.73123371                0.17873969
               9.00215742               10.00104130               54.09296999                0.99999999               -0.37210735               -0.05240760                0.17369939               -0.16961802                0.41790267                0.00043352
              10.00163985               10.00031851               54.09273822                0.99999994               -0.05175649               -0.05168772                0.17153617                0.00065129                0.00042129               -0.00042112
              -0.03478234                0.00165541               55.04326124                0.99422444               -0.02321573               -0.02239457                0.07269093                0.00218082               -0.00814496                0.00766988
               0.96498550               -0.00133481               55.04622217                1.00000000               -0.02460962               -0.02536052                0.08224734                0.00151302               -0.00871937               -0.00151846
               1.96472547               -0.00431041               55.04917083                0.01698388                0.01311970               -0.02832633                0.09179217                0.05957060               -0.01096468               -0.00350020
               2.96524789               -0.00610912               55.05208158                0.01000000                0.07712744               -0.00844317                0.07744654                0.12452994               -0.09133292               -0.04860449
               3.96626801               -0.00382799               55.05328743                0.01000000                0.03354553               -0.00174479                0.09915967                0.17363109               -0.12238345                0.00244033
               4.96591880                0.00251120               55.05473706                0.01000002               -0.18346183                0.03525963                0.11110455                0.30432563               -0.10805465                0.00259428
               5.96259878                0.01381873               55.05600614                0.01000000               -0.66970293                0.13195375                0.14738289                0.73694920               -0.09774091                0.01034399
               6.95252475                0.03215412               55.05778466                0.97090508               -0.51799693               -0.02944536                0.09263751                0.80088260               -0.04915369               -0.00125923
               7.95223884                0.03453223               55.06056781                1.00000000               -0.02949449               -0.03145122                0.09851904                0.00097927                0.00140458                0.00001337
               8.95193486                0.03694688               55.06335651                1.00000000               -0.03125350               -0.03319190                0.10442066                0.00084242                0.00136129                0.00113274
               9.95161377                0.03940000               55.06613635                1.00000000               -0.03210879               -0.03484058                0.11038227               -0.00118051                0.00122791                0.00226796
              -0.03177031                1.00143147               55.04379722                1.00000000               -0.02461492               -0.02303628                0.07722943                0.00075387                0.00137905                0.00814120
               0.96798354                0.99841158               55.04676016                0.01000000               -0.02606821               -0.02611216                0.08678431                0.00008656                0.00424591               -0.00445630
               1.96770832                0.99540633               55.04978181                0.01000000               -0.08657757               -0.05543393                0.09632985                0.01853156               -0.01064784                0.00712050
               2.96625199                0.99380645               55.05244383                0.01000001               -0.20070779               -0.00946244                0.08944735                0.16827980               -0.03393592               -0.02752574
               3.96369417                0.99615456               55.05413034                0.01000000               -0.30566431                0.00974825                0.09467398                0.37884035               -0.09291620                0.00259225
               4.96013870                1.00286379               55.05562001                0.01000000               -0.42736811                0.03932683                0.09221117                0.66794367               -0.12515391                0.00907287
               5.95514681                1.01513826               55.05665684                0.01000001               -0.49809410                0.00867955                0.10428198                1.04892794               -0.17113179                0.04197090
               6.95017682                1.03185967               55.05766332                0.93356958               -0.26472769               -0.03121663                0.10447831                0.72014054               -0.08807399               -0.00136173
               7.94985225                1.03421772               55.06045232                0.99999999               -0.03337112               -0.03317592                0.11083673                0.00003363                0.00098884                0.00038866
               8.94950940                1.03661496               55.06324372                0.99999999               -0.03517035               -0.03511006                0.11688229               -0.00024555                0.00051944                0.00188840
               9.94914885                1.03905159               55.06602505                1.00000000               -0.03605518               -0.03650250                0.12250575               -0.00219457                0.00011436                0.00369501
              -0.02872750                2.00119469               55.04434550                0.01000001               -0.02601329                0.05861597                0.08177375                0.06452406                0.00335505                0.09437242
               0.97101237                1.99814295               55.04723745                0.01000000               -0.07856352               -0.06892995                0.09132563                0.01823914                0.02662961                0.07014302
               1.96970123                1.99458092               55.05059859                0.01000001               -0.15735517               -0.11052965                0.10019139                0.11878699                0.01842709                0.03246544
               2.96786526                1.99370163               55.05305548                0.01000000               -0.24568745               -0.06984259                0.10131822                0.42708331               -0.03824492                0.01024329
               3.96478748                1.99636697               55.05510741                0.01000000               -0.37856447               -0.03250191                0.09779968                0.80478116               -0.07523887                0.02042949
               4.96029397                2.00329773               55.05666475                0.01000001               -0.51030101               -0.02479376                0.09891438                1.17558152               -0.12963411                0.03541611
               5.95458146                2.01399232               55.05772452                0.01000000               -0.62229362               -0.11323584                0.10254970                1.68549498               -0.22550006                0.07665847
               6.94784810                2.03152979               55.05754088                0.01000000               -0.35486205               -0.41487453                0.11627771                1.25749196               -0.14755617                0.14891348
               7.94748422                2.03386871               55.06033811                0.28102509               -0.03760147               -0.03666563                0.12351786               -0.00120299                0.00108876                0.01586722
               8.94709607                2.03624468               55.06313817                1.00000000               -0.03938023               -0.03903848                0.12996351               -0.00110036                0.00022054                0.00188193
               9.94669661                2.03866995               55.06593530                0.99999999               -0.03994575               -0.04002880                0.13426994               -0.00232993               -0.00012425                0.00400974
              -0.02437635                3.00260378               55.04661116                0.01000000               -0.06615576                0.13450360                0.08714218                0.06040550                0.00272363                0.18122519
               0.97496209                2.99703298               55.04926731                0.01000001               -0.05491373               -0.14562767                0.09524787                0.14797891                0.00074423                0.13671384
               1.97452537                2.99319574               55.05184864                0.01000000               -0.09772470               -0.20884646                0.10277027                0.44509700               -0.00835671                0.07205007
               2.97300760                2.99240960               55.05424238                0.01000000               -0.21658412               -0.19960281                0.10505756                0.83179872               -0.03173316                0.04911019
               3.97019369                2.99550452               55.05628126                0.01000163               -0.34913059               -0.16515664                0.10745150                1.25168841               -0.06887899                0.04651179
               4.96602499                3.00236792               55.05796864                0.01000000               -0.47845222               -0.16480105                0.11012502                1.67736174               -0.11475661                0.07175073
               5.96062465                3.01287355               55.05923378                0.01000001               -0.52873621               -0.23940350                0.11623956                1.96344682               -0.15090139                0.13165087
               6.95545026                3.02356218               55.06042788                0.01000001               -0.77556728               -0.61985117                0.13177518                2.07403703               -0.20818964                0.25484326
               7.94511330                3.03348441               55.06053661                0.01000000               -0.53820542               -0.40968456                0.15408144                1.59391432               -0.14659951                0.22398298
               8.94468615                3.03583419               55.06302467                0.01000000               -0.04307978               -0.46960548                0.14351993                1.17363842               -0.01708002                0.19401968
               9.94425171                3.03825102               55.06582610                1.00000000               -0.04344464               -1.04172132                0.14619256                1.38588033               -0.00200385                0.18357277
              -0.01637779                4.00388476               55.04878201                0.01000000               -0.02422182                0.06588548                0.09119044                0.17611399               -0.00238884                0.17621719
               0.98337999                3.99523039               55.05115178                0.01000000               -0.01978278               -0.25000339                0.09906377                0.40747703               -0.00477127                0.12916170
               1.98322655                3.99040399               55.05346486                0.01000000               -0.05937682               -0.34325562                0.10601260                0.82601560               -0.01232914                0.09119374
               2.98219245                3.98970958               55.05567435                0.01000102               -0.16818120               -0.33983791                0.11254349                1.24344786               -0.02597562                0.06848105
               3.97986293                3.99306384               55.05773167                0.01000000               -0.28601366               -0.31590494                0.11846129                1.65647497               -0.04714192                0.07369538
               4.97647218                4.00000171               55.05959984                0.01000001               -0.36033978               -0.31533303                0.12349463                2.00592954               -0.07302131                0.10964490
               5.97265613                4.00920425               55.06130633                0.01000001               -0.38771004               -0.41238136                0.12794805                2.27248163               -0.09861730                0.17835904
               6.96871798                4.01913277               55.06284866                0.01000003               -0.27828218               -0.54241609                0.13427814                2.29298757               -0.09974702                0.25581229
               7.96709049                4.02567502               55.06464924                0.01000004               -0.14578759               -0.77800983                0.14403874                2.33087855               -0.07015035                0.37918817
               8.96580223                4.02685257               55.06678261                0.01000000                0.12450395               -0.91284918                0.16401792                1.63220105               -0.03247586                0.38372487
               9.96958057                4.01783552               55.06932128                0.01000000                0.37783406               -1.49828716                0.19631569                1.22632881               -0.01094646                0.35261342
              -0.00354534                5.00392149               55.05097158                0.01000000                0.01377436               -0.17722613                0.09476133                0.35852321               -0.00264629                0.18016590
               0.99659240                4.99203292               55.05308767                0.01000000                0.00559204               -0.39078334                0.10540189                0.75403486               -0.00296164                0.13035612
               1.99656650                4.98633063               55.05517548                0.01000001               -0.06878506               -0.44576186                0.11434302                1.21106577               -0.00506893                0.09181442
               2.99521670                4.98561284               55.05726263                0.01000000               -0.17677215               -0.46133807                0.12373602                1.62646055               -0.00691814                0.07468606
               3.99303106                4.98918642               55.05937263                0.01000001               -0.26067670               -0.42574748                0.13258584                1.93576161               -0.00884606                0.08753850
               4.99000317                4.99606126               55.06150636                0.01000001               -0.30439162               -0.43228966                0.13862828                2.18041732               -0.01341421                0.13521846
               5.98694323                5.00462592               55.06364879                0.01000000               -0.25819653               -0.48386735                0.14121707                2.26547322               -0.01850173                0.21046210
               6.98483924                5.01271386               55.06583091                0.01000001               -0.14660778               -0.62116293                0.14135491                2.17467982               -0.01799442                0.30069630
               7.98401107                5.01792421               55.06810565                0.01000000                0.01652178               -0.73624809                0.14595793                1.79271058               -0.00981525                0.36825384
               8.98516967                5.01757721               55.07048413                0.01000000                0.14006537               -0.81034201                0.16783089                1.16086228               -0.00045297                0.39103804
               9.98681238                5.00828528               55.07285454                0.01000000                0.16427039               -0.67359798                0.21106652                0.55603112                0.00326835                0.35041325
               0.01456983                6.00034023               55.05329963                0.01000001                0.14817281               -0.76802826                0.09584209                0.86565626               -0.00311990                0.19660819
               1.01605156                5.98741472               55.05511597                0.01000001               -0.03509421               -0.47280572                0.11239106                1.19324855               -0.00063450                0.13650084
               2.01386794                5.98148875               55.05691356                0.01000000               -0.20928437               -0.48696321                0.12620771                1.77104782                0.00290233                0.08366799
               3.01186587                5.98048282               55.05886593                0.01000001               -0.28690991               -0.45512972                0.13958179                1.81944781                0.02007924                0.06114845
               4.00812975                5.98454889               55.06106987                0.01000001               -0.36124200               -0.49698623                0.15035108                2.07305419                0.04314751                0.08294726
               5.00464103                5.99135592               55.06355268                0.01000001               -0.34083740               -0.46545886                0.15730978                2.17491734                0.06575382                0.14287957
               6.00131300                5.99952690               55.06624152                0.01000003               -0.28638719               -0.47242366                0.15850565                2.11305772                0.07946217                0.23096822
               6.99891329                6.00670951               55.06904889                0.01000000               -0.16158242               -0.53214194                0.15705049                1.81551574                0.08262590                0.33145321
               7.99808135                6.01095006               55.07185749                0.01000000               -0.01274378               -0.61190751                0.15843902                1.36234131                0.07176267                0.41425679
               8.99865841                6.01064573               55.07447310                0.01000000                0.06018552               -0.57937358                0.17285018                0.74661792                0.04302485                0.44270999
               9.99928506                6.00436356               55.07666798                0.01000000                0.06266501               -0.24501432                0.20944902                0.34871839                0.02605287                0.38620243
               0.03961880                6.98856093               55.05599060                0.94234568               -0.03099441               -0.60210499                0.08881933                0.95556586               -0.01277929                0.10309165
               1.03930886                6.98257680               55.05733288                0.74438871               -0.03497193               -0.25957344                0.11741618                0.86589590               -0.01787004                0.07034264
               2.03891937                6.97659136               55.05857753                0.01000000               -0.53816708               -0.26687090                0.14314488                1.25056270               -0.00139305                0.03714316
               3.02854552                6.97651025               55.06026062                0.01000001               -0.76501631               -0.52089532                0.15748994                1.76250007                0.04466047                0.01416397
               4.02361904                6.97924670               55.06266366                0.01000004               -0.50110073               -0.51906756                0.17338681                1.91879509                0.10696892                0.06251985
               5.01852350                6.98675208               55.06560220                0.01000008               -0.48841248               -0.44797086                0.17719051                2.10751186                0.15619970                0.13256566
               6.01385079                6.99517745               55.06891325                0.01000000               -0.43985562               -0.32316259                0.17777027                1.86013131                0.19502320                0.22737424
               7.00972639                7.00207102               55.07251056                0.01000000               -0.32645580               -0.33796716                0.17474405                1.38089674                0.21289489                0.34273219
               8.00732167                7.00568606               55.07608875                0.01000001               -0.15189318               -0.41772293                0.17315302                0.83350172                0.19211595                0.47641987
               9.00668853                7.00598974               55.07919606                0.01000002               -0.04852982               -0.38674358                0.17939362                0.37050920                0.11527547                0.54083516
              10.00635108                7.00338499               55.08119571                0.01000000               -0.03374506               -0.03099474                0.20208528                0.12883139                0.06028691                0.50630843
               0.04564940                7.98829813               55.05685008                1.00000000               -0.03103572               -0.02631711                0.08886060                0.00009846               -0.00352147                0.01471491
               1.04533904                7.98222326               55.05819187                0.99999999               -0.03518229               -0.03529150                0.11755005                0.00023633               -0.00471564                0.00335149
               2.04494575                7.97615133               55.05950984                0.27579259               -0.04392535               -0.04433630                0.14573128               -0.00064854                0.00204669               -0.00296837
               3.04446054                7.97006491               55.06099693                0.01000000               -0.43409692               -0.34889785                0.18018519                1.00256465                0.08956806               -0.03538373
               4.03626382                7.97416754               55.06408580                0.01000005               -0.68000091               -0.78578722                0.18165468                1.94483982                0.18376140                0.02764304
               5.03086052                7.98239650               55.06751161                0.01000000               -0.65335649               -0.25391815                0.19581179                1.97982831                0.24142128                0.10423976
               6.02319669                7.99306365               55.07143929                0.01000000               -0.74189553               -0.05185628                0.19239359                1.54039557                0.30555130                0.19172653
               7.01602261                7.99995017               55.07587943                0.01000002               -0.61820105               -0.06534668                0.18918155                0.87130372                0.37912708                0.30278863
               8.01083266                8.00259560               55.08095859                0.01000002               -0.38264701               -0.15063063                0.18400103                0.25864825                0.37743675                0.46054567
               9.00836967                8.00291086               55.08501756                0.01000002               -0.18807391               -0.20898051                0.18202473               -0.19341891                0.25435895                0.81193217
              10.00707119                8.00374367               55.08741984                0.01000001               -0.12984799               -0.11568190                0.19210986               -0.17683349                0.17187306                0.65280626
               0.05177053                8.98803459               55.05777091                1.00000000               -0.03101401               -0.02634221                0.08876602                0.00021542                0.00278096                0.01479518
               1.05146039                8.98187097               55.05907803                0.99999999               -0.03528947               -0.03535245                0.11774604                0.00012117                0.00335483                0.00306015
               2.05106474                8.97570464               55.06039154                0.99999999               -0.04398928               -0.04445445                0.14686553               -0.00030514               -0.00021038               -0.00373003
               3.05058060                8.96953229               55.06163392                0.11580656               -0.04402483               -0.05329056                0.17670702                0.00816337                0.10303161               -0.02360033
               4.05018424                8.96353095               55.06503276                0.01000000               -0.56783226               -0.57933214                0.22595732                1.61453372                0.26053868               -0.01237713
               5.03922396                8.98167372               55.06917563                0.01000000               -1.15396035                0.17242575                0.18797649                1.69702174                0.30211361                0.05783611
               6.02710504                8.99414032               55.07347835                0.01000002               -1.08017238                0.19786555                0.19771016                0.94324332                0.37367269                0.11449528
               7.01762051                9.00076408               55.07857866                0.01000002               -0.87855462                0.14586363                0.19459026                0.39313901                0.49759982                0.18426604
               8.00953395                9.00267345               55.08480434                0.01000001               -0.79742148                0.12157155                0.18955635               -0.04784891                0.78990361                0.30249546
               9.00167208                9.00181013               55.09495604                1.00000000               -0.41925794               -0.08124659                0.17545500               -0.37837200                0.51982643                0.50980791
              10.00114879                9.00107135               55.09470231                1.00000000               -0.05232961               -0.15945381                0.17321800               -0.33310466               -0.00043516                0.37612387
               0.05798094                9.98777129               55.05862589                1.00000000               -0.03095202               -0.02632959                0.08894148               -0.00446768                0.01331192                0.01206393
               1.05767142                9.98151621               55.05993582                0.99999999               -0.03513020               -0.03547647                0.11792780               -0.00434978                0.01811245                0.00160580
               2.05727833                9.97526224               55.06133044                0.99999995               -0.04369658               -0.04423932                0.14678488               -0.00449622                0.01887612               -0.00156097
               3.05679749                9.96899910               55.06264995                0.99999997               -0.04326351               -0.05331909                0.17612886               -0.01237931                0.12862387               -0.00596741
               4.05641306                9.96258089               55.06624441                0.01000000               -1.13029510               -0.09500576                0.21571615                1.46517773                0.28709629               -0.01448356
               5.03419158                9.98584502               55.07032211                0.01000001               -1.67209397                0.41713001                0.16883773                1.21876559                0.28514598                0.02635468
               6.02297118                9.99702096               55.07461698                0.01000000               -0.94196619                0.28806383                0.18194550                0.43773567                0.35921123                0.05827556
               7.01535226               10.00286744               55.07976085                0.01000001               -0.70707702                0.21033531                0.18555956                0.17347843                0.52849446                0.09375846
               8.00882964               10.00502703               55.08670037                0.01000000               -0.64739679                0.23535850                0.18397475               -0.14950573                0.72023422                0.18103051
               9.00240432               10.00128593               55.09470733                0.99999999               -0.34714982               -0.05242006                0.17376926               -0.15039789                0.41346842                0.00043452
              10.00188665               10.00055459               55.09445359                0.99999999               -0.05176767               -0.05167572                0.17153228                0.00065268                0.00042349               -0.00042288
              -0.03787245                0.00117336               56.04398948                0.99518564               -0.02317458               -0.02253604                0.07295290                0.00211825               -0.00813390                0.00765525
               0.96189580               -0.00191070               56.04704217                1.00000000               -0.02445608               -0.02526442                0.08175035                0.00139551               -0.00870992               -0.00152512
               1.96163843               -0.00497902               56.05008250                0.01000000                0.03063337               -0.02799426                0.09053866                0.06510985               -0.05726027               -0.00349357
               2.96250847               -0.00675612               56.05215885                0.01000001                0.09775907               -0.01763291                0.05938414                0.11865106               -0.05930774                0.04200217
               3.96359361               -0.00458414               56.05437568                0.01000000                0.03773258               -0.00353874                0.10217225                0.17335950               -0.09493196                0.00768894
               4.96326312                0.00188018               56.05589853                0.01000002               -0.17967522                0.03162188                0.11402554                0.31580304               -0.12842819                0.01548721
               5.96000010                0.01345213               56.05726320                0.01000001               -0.67699007                0.13579041                0.11791413                0.75565734               -0.12692755                0.01467503
               6.94972332                0.03220128               56.05871045                0.97089367               -0.52813982               -0.02955799                0.09265526                0.82117412               -0.06867921               -0.00183153
               7.94943731                0.03458537               56.06154911                1.00000000               -0.02948425               -0.03087725                0.09827590                0.00084816                0.00124122                0.00012901
               8.94913363                0.03700765               56.06439506                0.99999999               -0.03112391               -0.03263932                0.10378266                0.00077049                0.00129894                0.00114640
               9.94881483                0.03946892               56.06723290                1.00000000               -0.03188060               -0.03461959                0.10932840               -0.00132457                0.00106789                0.00145922
              -0.03476721                1.00094800               56.04457261                1.00000000               -0.02468437               -0.02323257                0.07784562                0.00080513                0.00138208                0.00813344
               0.96498595                0.99783666               56.04762728                0.01000000               -0.02602775               -0.02606203                0.08664140                0.00008081                0.00424410               -0.00446003
               1.96471224                0.99474104               56.05074059                0.01000000               -0.07442024               -0.05730201                0.09542882                0.02527031               -0.02978336                0.00469681
               2.96349754                0.99306755               56.05311173                0.01000001               -0.18515924               -0.01625744                0.07964722                0.16336056               -0.08900891                0.02119247
               3.96100905                0.99538047               56.05513425                0.01000000               -0.30472618                0.00766749                0.09984659                0.38164671               -0.10697700                0.01419619
               4.95740302                1.00219640               56.05663765                0.01000000               -0.43064612                0.03638664                0.10520353                0.68639933               -0.14915878                0.02755220
               5.95239613                1.01481003               56.05776716                0.01000001               -0.50172889                0.00701356                0.11120679                1.07395512               -0.17736075                0.04479318
               6.94736844                1.03190570               56.05871031                0.92438634               -0.26767629               -0.03127872                0.10512382                0.73906780               -0.09401205               -0.00212237
               7.94704260                1.03427659               56.06156224                0.99999999               -0.03344401               -0.03302273                0.11041231                0.00039630                0.00137151                0.00065320
               8.94669956                1.03668126               56.06441136                0.99999999               -0.03511455               -0.03470140                0.11619961               -0.00073389                0.00059977                0.00233090
               9.94634031                1.03912273               56.06724556                0.99999999               -0.03592489               -0.03636658                0.12184925               -0.00294336                0.00007847                0.00225298
              -0.03163366                2.00070871               56.04516811                0.01000000               -0.02619585                0.06135565                0.08274662                0.07215787                0.00335268                0.09465192
               0.96810438                1.99756806               56.04815178                0.01000000               -0.07266997               -0.07072764                0.09154036                0.02442802                0.02419036                0.06973328
               1.96691294                1.99387494               56.05155585                0.01000001               -0.14840652               -0.11386168                0.09591421                0.12685712                0.01050017                0.03603833
               2.96513625                1.99291873               56.05408414                0.01000000               -0.24076244               -0.07284246                0.10125722                0.43010529               -0.05127202                0.03027818
               3.96209769                1.99556921               56.05609634                0.01000000               -0.37873497               -0.03340220                0.10200926                0.81206627               -0.09885896                0.03381112
               4.95756155                2.00260792               56.05768923                0.01000001               -0.51638912               -0.02499486                0.10652379                1.19660647               -0.14531842                0.05792166
               5.95176991                2.01359240               56.05882146                0.01000000               -0.62617191               -0.11818448                0.11285623                1.71906441               -0.23559697                0.09109950
               6.94503811                2.03157571               56.05870894                0.01000000               -0.35501168               -0.42297801                0.11646281                1.28176664               -0.14676010                0.14854088
               7.94466968                2.03392491               56.06158386                0.30081026               -0.03826449               -0.04001574                0.12627449                0.00325747                0.00204924                0.03034746
               8.94427282                2.03631362               56.06444689                0.99999999               -0.03983251               -0.03955472                0.13130055               -0.00154083                0.00053855                0.00391498
               9.94387302                2.03874159               56.06727402                0.99999999               -0.03997979               -0.03973789                0.13322567               -0.00371056               -0.00055473                0.00163845
              -0.02704275                3.00217512               56.04748661                0.01000002               -0.06489714                0.13652951                0.08844582                0.06550827                0.00239478                0.18131161
               0.97230828                2.99642211               56.05022070                0.01000001               -0.05292696               -0.14871048                0.09580677                0.15645772               -0.00119764                0.13761159
               1.97189871                2.99246381               56.05286728                0.01000000               -0.09514470               -0.21136436                0.10213141                0.45352011               -0.01388287                0.07541109
               2.97040538                2.99161070               56.05529614                0.01000000               -0.21687585               -0.20070355                0.10677876                0.84278027               -0.04182838                0.05760248
               3.96756119                2.99471243               56.05736911                0.01000005               -0.35467106               -0.16345545                0.11088232                1.26730599               -0.08091399                0.06499658
               4.96331196                3.00169651               56.05908739                0.01000000               -0.48757817               -0.16122140                0.11463278                1.70187413               -0.12862851                0.09315762
               5.95780963                3.01244634               56.06039030                0.01000001               -0.53203509               -0.23849523                0.11881422                1.99523363               -0.15919228                0.14533423
               6.95267126                3.02344614               56.06173067                0.01000001               -0.77198970               -0.62837154                0.12154903                2.09494946               -0.20705383                0.25453011
               7.94236983                3.03347628               56.06218416                0.01000007               -0.54095980               -0.41321791                0.18707123                1.60162872               -0.15724752                0.23489200
               8.94185206                3.03589016               56.06448114                0.01013857               -0.04798343               -0.46545057                0.14821296                1.17772346               -0.02713807                0.19899062
               9.94141017                3.03832797               56.06728495                1.00000000               -0.04418977               -1.03989619                0.14414107                1.38675601               -0.00118189                0.20229755
              -0.01881748                4.00343930               56.04970026                0.01000000               -0.02376809                0.06293178                0.09347714                0.17979668               -0.00328122                0.17477026
               0.98094484                3.99459385               56.05215953                0.01000000               -0.01938897               -0.25386508                0.10194370                0.41454118               -0.00667890                0.13191258
               1.98079475                3.98964766               56.05454546                0.01000000               -0.06008043               -0.34656517                0.10901909                0.83863631               -0.01608128                0.09785516
               2.97974324                3.98890466               56.05681603                0.01000008               -0.17183687               -0.34093580                0.11543235                1.26140532               -0.03201115                0.08194638
               3.97735801                3.99230010               56.05892587                0.01000000               -0.29390567               -0.31340358                0.12125346                1.68292149               -0.05686694                0.09327349
               4.97386512                3.99938349               56.06083469                0.01000001               -0.37165305               -0.30968045                0.12538788                2.04166079               -0.08871228                0.13159827
               5.96992495                4.00882249               56.06256237                0.01000001               -0.39789791               -0.40567185                0.12583407                2.31305053               -0.12354474                0.19625651
               6.96590716                4.01900828               56.06414168                0.01000001               -0.28333606               -0.53777018                0.12185266                2.31992562               -0.13633659                0.26407664
               7.96425823                4.02566055               56.06601660                0.01000002               -0.14657815               -0.76992828                0.11248260                2.34904385               -0.09878785                0.37219726
               8.96297560                4.02700461               56.06839907                0.01000000                0.12371546               -0.90861989                0.14932503                1.64971602               -0.04574492                0.40634406
               9.96673254                4.01794367               56.07133805                0.01000003                0.37569344               -1.50606918                0.22995165                1.23598586               -0.02284122                0.42200657
              -0.00575592                5.00343375               56.05192186                0.01000000                0.01466656               -0.18353871                0.09718587                0.36301610               -0.00457609                0.17602996
               0.99439075                4.99134481               56.05415966                0.01000000                0.00582730               -0.39713441                0.10885744                0.76418154               -0.00680299                0.13492772
               1.99436063                4.98553251               56.05634280                0.01000001               -0.07048505               -0.45066327                0.11809525                1.22880478               -0.01025435                0.10303239
               2.99298105                4.98479199               56.05851736                0.01000000               -0.18099162               -0.46339986                0.12685536                1.65344658               -0.01284622                0.09286854
               3.99074079                4.98844436               56.06070497                0.01000001               -0.26791296               -0.42479069                0.13438846                1.97367070               -0.01908897                0.11193426
               4.98762279                4.99550290               56.06288572                0.01000001               -0.31474705               -0.42751645                0.13890639                2.23055019               -0.03344634                0.16295171
               5.98444585                5.00433290               56.06503216                0.01000125               -0.26955373               -0.47561662                0.13759341                2.32296913               -0.05404516                0.23881584
               6.98223171                5.01269074               56.06717747                0.01000002               -0.15457393               -0.61058613                0.12913853                2.22822389               -0.06909045                0.32890600
               7.98135437                5.01807771               56.06946059                0.01000000                0.01657788               -0.72220046                0.12062411                1.83092683               -0.06365736                0.39976940
               8.98256327                5.01771777               56.07209513                0.01000000                0.14486992               -0.80979318                0.14150245                1.17954506               -0.03272832                0.41586931
               9.98425177                5.00820659               56.07502343                0.01000002                0.16885040               -0.69256953                0.22524091                0.56857176               -0.00679000                0.36211006
               0.01262074                5.99976853               56.05425527                0.01000001                0.15089810               -0.78093346                0.09735760                0.87632217               -0.00599787                0.18810270
               1.01412972                5.98665117               56.05625133                0.01000001               -0.03485413               -0.48016353                0.11499039                1.20842200               -0.00678017                0.14103296
               2.01192366                5.98063439               56.05819369                0.01000000               -0.21147038               -0.49336341                0.12896878                1.79619806               -0.00383351                0.09908519
               3.00990031                5.97963667               56.06027339                0.01000001               -0.29015734               -0.45822657                0.14048994                1.85056472                0.01248542                0.08369205
               4.00612051                5.98380429               56.06257555                0.01000001               -0.36563675               -0.49840243                0.15052693                2.11766552                0.03090838                0.11329758
               5.00258758                5.99083316               56.06511004                0.01000001               -0.34620110               -0.46422273                0.15561037                2.23546014                0.04308885                0.17753404
               5.99919649                5.99931016               56.06779696                0.01000001               -0.29303739               -0.46726118                0.15483431                2.18516160                0.04329466                0.26914540
               6.99672683                6.00679655               56.07056884                0.01000000               -0.16733785               -0.52369946                0.14926791                1.88806553                0.03407104                0.37462518
               7.99584973                6.01121654               56.07336914                0.01000000               -0.01446017               -0.60271357                0.14486771                1.41829757                0.02122663                0.46142171
               8.99643763                6.01080875               56.07613118                0.01000003                0.06382993               -0.57482845                0.15387727                0.77057976                0.00873879                0.48172854
               9.99712633                6.00409228               56.07876556                0.01000000                0.06887032               -0.25472776                0.19702731                0.35464025                0.00794224                0.39958966
               0.03800525                6.98781508               56.05687797                0.94503235               -0.03119276               -0.61077597                0.08888269                0.96803924               -0.01291546                0.09963271
               1.03769332                6.98174153               56.05851517                0.71110396               -0.03530813               -0.26338895                0.11895151                0.87693268               -0.01976033                0.07272547
               2.03729909                6.97566524               56.06002147                0.01000000               -0.54354395               -0.27094780                0.14484033                1.26913000               -0.01025787                0.04724151
               3.02682244                6.97562746               56.06185402                0.01000001               -0.77007399               -0.53065803                0.15921131                1.79199911                0.03395667                0.04530374
               4.02189761                6.97847631               56.06436513                0.01000002               -0.49981641               -0.52878343                0.16928830                1.95883913                0.09123815                0.09050100
               5.01682612                6.98621844               56.06734226                0.01000002               -0.48559579               -0.45226007                0.17292526                2.16937754                0.13279125                0.17058577
               6.01218569                6.99498768               56.07065779                0.01000000               -0.43697390               -0.32316474                0.17323184                1.93637313                0.16181288                0.26873438
               7.00808664                7.00221675               56.07422169                0.01000000               -0.32387816               -0.33576210                0.16983048                1.46071022                0.17278596                0.38699053
               8.00570813                7.00602344               56.07777730                0.01000001               -0.14937540               -0.41310872                0.16656337                0.90305952                0.15320574                0.52020043
               9.00509913                7.00622120               56.08094611                0.01000002               -0.04653041               -0.37965268                0.17219342                0.41125061                0.09014838                0.57316405
              10.00477752                7.00311203               56.08319003                0.01000000               -0.03216087               -0.02875358                0.19806423                0.14801645                0.04827257                0.50719011
               0.04412862                7.98755301               56.05773425                1.00000000               -0.03104013               -0.02616057                0.08810231                0.00006378               -0.00366310                0.01423304
               1.04381822                7.98138339               56.05937270                0.99999999               -0.03541432               -0.03564876                0.11849778                0.00037854               -0.00489898                0.00339553
               2.04342034                7.97521544               56.06098197                0.28670921               -0.04444986               -0.04540612                0.14877997               -0.00095754                0.00691450               -0.00034541
               3.04292923                7.96902350               56.06286325                0.01000000               -0.43570147               -0.35791320                0.20122718                1.01684534                0.07212753               -0.02000492
               4.03470631                7.97322862               56.06585295                0.01000002               -0.67327330               -0.81366036                0.18393287                1.99645164                0.16202685                0.06996044
               5.02946376                7.98178796               56.06942221                0.01000000               -0.63903302               -0.26115236                0.18710614                2.04215438                0.22232887                0.13470597
               6.02192565                7.99284686               56.07332451                0.01000000               -0.72792424               -0.05688611                0.18754097                1.60553045                0.27558110                0.22707133
               7.01490527                8.00008131               56.07774063                0.01000003               -0.60095868               -0.07139079                0.18506448                0.94215835                0.34743728                0.33931288
               8.00990647                8.00295437               56.08277439                0.01000002               -0.36656116               -0.15566535                0.18101923                0.33027807                0.34866630                0.49279624
               9.00757405                8.00321570               56.08681843                0.01000002               -0.18007396               -0.20747165                0.17984647               -0.13018882                0.23776037                0.82622289
              10.00630499                8.00351721               56.08933093                0.01000001               -0.12690567               -0.08939564                0.19026258               -0.13825937                0.16650231                0.64032153
               0.05034577                8.98729187               56.05865011                0.99999999               -0.03073050               -0.02597117                0.08725132                0.00004335                0.00259865                0.01414948
               1.05003847                8.98102856               56.06025717                0.99999999               -0.03529767               -0.03550146                0.11793925               -0.00002153                0.00342136                0.00310382
               2.04963982                8.97475711               56.06187222                0.99999999               -0.04461498               -0.04539299                0.14937035               -0.00079312                0.00087600               -0.00297902
               3.04914617                8.96846919               56.06342739                0.18185279               -0.02888166               -0.05503636                0.18248445                0.00000870                0.12676887               -0.02653077
               4.04906219                8.96220310               56.06758169                0.01000000               -0.55476056               -0.59120368                0.21293964                1.66426823                0.22411718                0.01781803
               5.03805096                8.98099540               56.07104540                0.01000000               -1.15296182                0.16471316                0.19398292                1.75345165                0.25658689                0.07526815
               6.02600295                8.99384996               56.07540422                0.01000003               -1.06143281                0.18884990                0.19198263                0.98056335                0.35301892                0.13593924
               7.01682230                9.00078893               56.08050249                0.01000002               -0.84118218                0.13177985                0.19177674                0.43402508                0.47524779                0.20564651
               8.00917931                9.00291013               56.08668490                0.01000001               -0.74448920                0.10159827                0.18779576               -0.00417172                0.76945499                0.31914436
               9.00193252                9.00207176               56.09671064                1.00000000               -0.38849965               -0.08341429                0.17546828               -0.32432478                0.51466331                0.50832350
              10.00140931                9.00132412               56.09643414                0.99999997               -0.05232036               -0.13548515                0.17314604               -0.28222417               -0.00043828                0.36798448
               0.05665612                9.98703359               56.05950322                1.00000000               -0.03035664               -0.02582858                0.08681854               -0.00498861                0.01239660                0.01136549
               1.05635255                9.98067336               56.06111214                1.00000000               -0.03461368               -0.03552022                0.11727727               -0.00489237                0.01702056                0.00159168
               2.05596384                9.97430758               56.06280315                1.00000000               -0.04345685               -0.04495383                0.14721947               -0.00512675                0.01825602               -0.00142525
               3.05548341                9.96792278               56.06442720                0.99999999               -0.02491868               -0.05464150                0.17821644               -0.01142718                0.14569707               -0.00606091
               4.05546547                9.96140454               56.06866213                0.01000001               -1.12987381               -0.07985565                0.20139240                1.49830050                0.23874001               -0.00216037
               5.03288594                9.98508222               56.07210652                0.01000001               -1.68610456                0.40868269                0.18833983                1.24446379                0.23727727                0.03445535
               6.02174338                9.99662386               56.07641623                0.01000000               -0.91801685                0.27739056                0.18307524                0.45577703                0.34359020                0.06965143
               7.01452560               10.00271691               56.08160587                0.01000001               -0.66015853                0.19279756                0.18571916                0.18845339                0.51728893                0.10298172
               8.00854021               10.00498633               56.08853186                0.01000000               -0.59260136                0.20762003                0.18381725               -0.12238486                0.71160157                0.18436292
               9.00267357               10.00154741               56.09644538                0.99999997               -0.31922010               -0.05243549                0.17384300               -0.13483608                0.40993743                0.00043624
              10.00215581               10.00080750               56.09616887                0.99999999               -0.05177671               -0.05166150                0.17152108                0.00065845                0.00042332               -0.00042513
              -0.04105040                0.00064226               57.04472030                0.99614786               -0.02313204               -0.02267607                0.07320947                0.00205696               -0.00812020                0.00764205
               0.95871828               -0.00253554               57.04785717                0.99999999               -0.02430128               -0.02516868                0.08125080                0.00127933               -0.00869964               -0.00153042
               1.95846358               -0.00569646               57.05098161                0.01000001                0.05251388               -0.02766252                0.08928296                0.08449910               -0.05089352               -0.00348813
               2.95976856               -0.00717483               57.05326926                0.01000003                0.10830587               -0.05201615                0.10487804                0.05621421               -0.07663964                0.01938993
               3.96062970               -0.00519136               57.05533087                0.01000000                0.03470793               -0.00908252                0.09880839                0.16577804               -0.10879438                0.01755219
               4.96046272                0.00134270               57.05701757                0.01000000               -0.16906944                0.02814263                0.10842325                0.32077148               -0.13316297                0.01645080
               5.95724831                0.01310429               57.05836442                0.01000002               -0.67987339                0.13715729                0.10759698                0.76661458               -0.14904204                0.01475458
               6.94686525                0.03211776               57.05963776                0.97182349               -0.53346285               -0.02990359                0.09305117                0.83383758               -0.08009187               -0.00173041
               7.94657905                0.03450855               57.06253333                1.00000000               -0.02941026               -0.03125089                0.09839546                0.00093074                0.00123268               -0.00100278
               8.94627705                0.03693721               57.06543216                1.00000000               -0.03097977               -0.03274585                0.10368241                0.00086817                0.00121583                0.00050271
               9.94595945                0.03940386               57.06832292                1.00000000               -0.03175922               -0.03483294                0.10897453               -0.00107904                0.00102017                0.00147981
              -0.03785202                1.00041550               57.04535413                1.00000000               -0.02475407               -0.02342735                0.07845900                0.00085751                0.00138598                0.00812540
               0.96190044                0.99721277               57.04849298                0.01000000               -0.02598832               -0.02601298                0.08649940                0.00007823                0.00424371               -0.00446134
               1.96162821                0.99402691               57.05169039                0.01000000               -0.09111432               -0.05642728                0.09453122                0.03037666               -0.03523154                0.00272912
               2.96007815                0.99230501               57.05403677                0.01000001               -0.17997516               -0.03511933                0.09744157                0.16108372               -0.10045131                0.01599306
               3.95802871                0.99471782               57.05612728                0.01000000               -0.27777713               -0.00001554                0.10045174                0.39473167               -0.11595066                0.02302855
               4.95452261                1.00162413               57.05772408                0.01000000               -0.42508925                0.03318582                0.10908575                0.69789084               -0.15498218                0.03150064
               5.94952692                1.01447587               57.05888097                0.01000001               -0.50105537                0.00434368                0.11136873                1.08980489               -0.18808369                0.04440909
               6.94450150                1.03181873               57.05976580                0.91417128               -0.26741451               -0.03187537                0.10561863                0.75027104               -0.10059491               -0.00317216
               7.94417863                1.03419604               57.06266057                0.99999999               -0.03317143               -0.03273990                0.11056958               -0.00003850                0.00082873                0.00201292
               8.94383807                1.03660975               57.06556771                0.99999999               -0.03483090               -0.03420018                0.11583364               -0.00004413                0.00124032                0.00311997
               9.94348202                1.03905553               57.06846204                0.99999999               -0.03560572               -0.03702658                0.12143044               -0.00183224                0.00097806                0.00120370
              -0.03462778                2.00017371               57.04600043                0.01000001               -0.02637816                0.06411812                0.08371649                0.07981851                0.00334913                0.09516670
               0.96510843                1.99694420               57.04906826                0.01000000               -0.06966722               -0.07176497                0.09175636                0.03291589                0.02220592                0.06950942
               1.96397887                1.99317499               57.05251687                0.01000001               -0.14045514               -0.11562821                0.09712839                0.13613241                0.00397712                0.03653504
               2.96229933                1.99212278               57.05508062                0.01000000               -0.23868324               -0.07376248                0.10126436                0.46121930               -0.05970228                0.03796296
               3.95920521                1.99480833               57.05714759                0.01000000               -0.38184223               -0.03714465                0.10750088                0.83195450               -0.10743693                0.04420029
               4.95466249                2.00200642               57.05879523                0.01000001               -0.51776987               -0.02692592                0.11313315                1.21457236               -0.15278644                0.06631411
               5.94884981                2.01319117               57.05998164                0.01000000               -0.62559927               -0.12182723                0.11794901                1.73722181               -0.24199212                0.09362984
               6.94215050                2.03148025               57.05987014                0.01000000               -0.35312772               -0.42993397                0.11807139                1.28382063               -0.14737181                0.13959852
               7.94178726                2.03385375               57.06286360                0.59762051               -0.03669142               -0.02232657                0.12279111               -0.00939004                0.00417265                0.06520628
               8.94141667                2.03625321               57.06576418                0.99999999               -0.03780003               -0.03739612                0.12769142                0.00070489               -0.00077844                0.00762613
               9.94103125                2.03866333               57.06859981                0.99999999               -0.03854189               -0.04112900                0.13409461               -0.00206708               -0.00303458               -0.00127632
              -0.02979662                3.00169786               57.04838008                0.01000000               -0.06459075                0.13856024                0.09053202                0.07125304                0.00162098                0.18265718
               0.96955748                2.99577747               57.05118344                0.01000001               -0.05155555               -0.15072600                0.09635686                0.16546351               -0.00269546                0.13906598
               1.96917227                2.99171435               57.05389126                0.01000000               -0.09441389               -0.21447116                0.10270777                0.46609208               -0.01676021                0.07969191
               2.96766920                2.99082976               57.05637796                0.01000000               -0.21940556               -0.19977512                0.10928275                0.85665334               -0.04706885                0.06630809
               3.96478416                2.99397492               57.05849890                0.01000004               -0.36189891               -0.16074423                0.11544501                1.28787881               -0.08859515                0.07722004
               4.96043122                3.00108561               57.06026130                0.01000000               -0.49933175               -0.15855367                0.12108839                1.72316732               -0.13812147                0.10497156
               5.95479753                3.01203932               57.06161007                0.01000001               -0.54579438               -0.23518254                0.12495487                2.00814379               -0.17866639                0.14810213
               6.94951533                3.02322005               57.06285887                0.01000001               -0.77898223               -0.62563815                0.12378945                2.10483509               -0.19258980                0.24566891
               7.93921788                3.03374951               57.06427804                0.01000006               -0.52363699               -0.40056088                0.11076663                1.58559344               -0.13546098                0.19082926
               8.93904259                3.03586183               57.06598893                0.01024764               -0.02987245               -0.44438752                0.13937409                1.13163247               -0.06001681                0.19008988
               9.93862043                3.03823295               57.06870892                0.99999999               -0.04221604               -1.00630735                0.14660293                1.34783884               -0.00983505                0.25098332
              -0.02136194                4.00294492               57.05065155                0.01000000               -0.02368449                0.05946143                0.09795773                0.18268305               -0.00403829                0.17470217
               0.97840122                3.99392968               57.05319065                0.01000000               -0.01948195               -0.25689039                0.10373092                0.42092900               -0.00834678                0.13583407
               1.97824842                3.98888557               57.05564524                0.01000000               -0.06146973               -0.34856545                0.11013335                0.85145218               -0.01859758                0.10493061
               2.97717182                3.98812728               57.05798300                0.01000190               -0.17707471               -0.34084562                0.11784745                1.28181415               -0.03571966                0.09329130
               3.97470693                3.99159345               57.06015674                0.01000000               -0.30551938               -0.30997480                0.12553893                1.71024132               -0.06414879                0.10850626
               4.97106144                3.99883535               57.06210760                0.01000001               -0.39143392               -0.30203355                0.13107943                2.07349477               -0.10471100                0.14724668
               5.96687825                4.00848752               57.06382301                0.01000001               -0.42622081               -0.39358397                0.13128950                2.34525922               -0.15921353                0.20670306
               6.96253702                4.01896749               57.06528571                0.01000004               -0.30104545               -0.51776176                0.11532543                2.34343405               -0.21322338                0.26642364
               7.96085734                4.02584253               57.06689889                0.01000001               -0.14855692               -0.75912231                0.06140069                2.35001725               -0.21311321                0.35585301
               8.95956588                4.02736545               57.06976911                0.01000000                0.11942247               -0.88496740                0.07342128                1.63021614               -0.08373855                0.39333921
               9.96324579                4.01853718               57.07392031                0.01000000                0.36799107               -1.50664951                0.34399779                1.22714985               -0.05569710                0.43947323
              -0.00811247                5.00288709               57.05291530                0.01000000                0.01478753               -0.18993703                0.10390629                0.36624066               -0.00635009                0.17221118
               0.99203541                4.99063966               57.05526482                0.01000000                0.00580909               -0.40249006                0.11217083                0.77161289               -0.01043392                0.13966412
               1.99200371                4.98474304               57.05753738                0.01000001               -0.07189004               -0.45468980                0.11976996                1.24469873               -0.01456843                0.11321648
               2.99059760                4.98401285               57.05979974                0.01000000               -0.18613949               -0.46536406                0.12870206                1.67971444               -0.01773290                0.10741548
               3.98828092                4.98777543               57.06206040                0.01000001               -0.27952789               -0.42193822                0.13761026                2.01182165               -0.02821054                0.13117951
               4.98500705                4.99504494               57.06428449                0.01000001               -0.33551773               -0.41926467                0.14332365                2.28060845               -0.05409960                0.18483705
               5.98157057                5.00416764               57.06640066                0.01000000               -0.29890234               -0.46016689                0.14185412                2.38308526               -0.09809670                0.26235982
               6.97902900                5.01286481               57.06841368                0.01000001               -0.18751520               -0.59048494                0.12694010                2.29424647               -0.15367964                0.36569659
               7.97782026                5.01856706               57.07051814                0.01000000               -0.00383658               -0.69903709                0.10543943                1.86919337               -0.18107768                0.47167322
               8.97895227                5.01816248               57.07331418                0.01000000                0.14998593               -0.79680652                0.08867471                1.17018865               -0.15081822                0.50887273
               9.98081998                5.00809996               57.07735936                0.01000002                0.18677138               -0.71742117                0.15308948                0.54021540               -0.08943681                0.42650147
               0.01045774                5.99914618               57.05524679                0.01000001                0.15197920               -0.79062456                0.10365297                0.88329764               -0.00911546                0.17730988
               1.01197753                5.98587988               57.05741577                0.01000001               -0.03442606               -0.48648582                0.11833122                1.21901683               -0.01359763                0.14475244
               2.00976921                5.97979177               57.05949294                0.01000000               -0.21219014               -0.49975622                0.13061522                1.81558855               -0.01247196                0.11253290
               3.00773372                5.97882000               57.06167573                0.01000001               -0.29289730               -0.45931904                0.14225529                1.88231521                0.00458065                0.10179777
               4.00391127                5.98315468               57.06408041                0.01000001               -0.37261667               -0.49980580                0.15125906                2.16523450                0.02023283                0.13632126
               5.00028139                5.99045005               57.06666489                0.01000001               -0.35955906               -0.45966570                0.15799685                2.30045557                0.02179744                0.20462952
               5.99672009                5.99928418               57.06933821                0.01000002               -0.31294295               -0.45715316                0.15791968                2.26723944                0.00396534                0.30338291
               6.99402253                6.00715779               57.07203425                0.01000000               -0.18882729               -0.51128849                0.15177482                1.98056077               -0.02680023                0.42465825
               7.99294354                6.01186179               57.07475485                0.01000000               -0.02928876               -0.59411220                0.14120785                1.50563202               -0.05521234                0.53926364
               8.99343676                6.01142932               57.07755064                0.01000002                0.06158019               -0.56983519                0.14150003                0.82267296               -0.04819535                0.57400990
               9.99417515                6.00418876               57.08060853                0.01000000                0.07383883               -0.25682657                0.18775270                0.37637819               -0.01836709                0.42045751
               0.03608609                6.98707460               57.05776825                0.94851490               -0.03159429               -0.61677625                0.08957631                0.97560953               -0.01327207                0.09461259
               1.03577015                6.98090995               57.05971191                0.67252296               -0.03553657               -0.26653535                0.12039932                0.88445661               -0.02277798                0.07456875
               2.03537536                6.97474792               57.06147433                0.01000000               -0.54445733               -0.27490477                0.14416261                1.28704000               -0.02169197                0.05723675
               3.02488100                6.97482647               57.06344485                0.01000001               -0.77099000               -0.53642805                0.15153493                1.81648876                0.02063751                0.07736921
               4.01995556                6.97777931               57.06604942                0.01000004               -0.49971687               -0.54022492                0.17018267                2.00296439                0.07856948                0.11586934
               5.01488666                6.98585163               57.06906070                0.01000001               -0.48739699               -0.45312832                0.17243879                2.23997023                0.11200727                0.19821557
               6.01020762                6.99502458               57.07237788                0.01000000               -0.44120287               -0.32127657                0.17457526                2.02286047                0.13092607                0.30418724
               7.00606261                7.00263904               57.07590717                0.01000000               -0.32731231               -0.33510812                0.17213278                1.55795913                0.13230117                0.43168964
               8.00366137                7.00668482               57.07942002                0.01000005               -0.14919220               -0.41589302                0.16877885                0.99556938                0.11266291                0.57372949
               9.00307876                7.00676578               57.08263993                0.01000002               -0.04163440               -0.38792683                0.17389687                0.47050932                0.06695018                0.62277829
              10.00282868                7.00296343               57.08515700                0.01000000               -0.02500771               -0.04413814                0.19558595                0.17981913                0.04074864                0.52356681
               0.04229924                7.98681065               57.05861212                1.00000000               -0.03058915               -0.02629996                0.08831046               -0.00003375               -0.00381277                0.01339606
               1.04199334                7.98054917               57.06056182                0.99999999               -0.03528707               -0.03581711                0.11855665                0.00097935               -0.00517059                0.00350886
               2.04159349                7.97429368               57.06248544                0.30489272               -0.04806203               -0.04620219                0.15184463                0.00394749                0.02449026                0.00318353
               3.04103210                7.96809144               57.06502148                0.01000007               -0.43240496               -0.36943713                0.24188844                1.02910092                0.07993363               -0.01943262
               4.03294539                7.97235018               57.06776446                0.01000001               -0.65982874               -0.83505894                0.17901248                2.01945366                0.13173348                0.08481748
               5.02783553                7.98138749               57.07125373                0.01000000               -0.62777560               -0.26784317                0.18532686                2.10774826                0.19761745                0.16429767
               6.02038988                7.99285865               57.07519011                0.01000000               -0.71570251               -0.06285933                0.18701892                1.67844253                0.25180414                0.25563117
               7.01352148                8.00045563               57.07958072                0.01000004               -0.58308443               -0.08136310                0.18624757                1.02337336                0.32021308                0.37156627
               8.00872819                8.00354393               57.08457897                0.01000002               -0.34765727               -0.16929767                0.18327735                0.41343389                0.32388866                0.52487805
               9.00656833                8.00367079               57.08861449                0.01000002               -0.16759830               -0.22080661                0.18235262               -0.05502961                0.22325395                0.84301988
              10.00537623                8.00330599               57.09122509                0.01000001               -0.11921049               -0.06851634                0.19085090               -0.09326278                0.16156079                0.62987764
               0.04860838                8.98654860               57.05951594                1.00000000               -0.03016767               -0.02591402                0.08666972                0.00008983                0.00209891                0.01333473
               1.04830671                8.98019360               57.06143681                0.99999999               -0.03481740               -0.03555389                0.11750292               -0.00030856                0.00352480                0.00323432
               2.04791204                8.97382387               57.06337894                0.99999999               -0.04500979               -0.04609016                0.15092952               -0.00104881                0.00376694               -0.00182391
               3.04740651                8.96743772               57.06528360                0.23510838               -0.04317270               -0.06065859                0.18884506                0.00373026                0.10838186               -0.03858221
               4.04704858                8.96107813               57.06929156                0.01000000               -0.54366737               -0.59866891                0.18491006                1.68100937                0.18924220                0.02116568
               5.03653317                8.98049476               57.07305529                0.01000000               -1.11701281                0.15121945                0.19518797                1.80183800                0.23548408                0.09680591
               6.02470833                8.99376739               57.07731800                0.01000001               -1.03441870                0.17656629                0.19279876                1.02353875                0.32880122                0.15205577
               7.01584479                9.00101178               57.08241419                0.01000002               -0.79967172                0.11323420                0.19256625                0.47961976                0.45746700                0.22319775
               8.00871489                9.00329886               57.08856025                0.01000002               -0.68143431                0.07382171                0.18897241                0.04159153                0.75196796                0.33394746
               9.00221610                9.00234964               57.09846541                1.00000000               -0.35109367               -0.09228085                0.17549000               -0.26540163                0.50981888                0.50706657
              10.00169302                9.00159310               57.09816523                0.99999994               -0.05230862               -0.11146799                0.17307200               -0.22205919               -0.00044301                0.36062670
               0.05501103                9.98629237               57.06036226                1.00000000               -0.02991256               -0.02562282                0.08571401               -0.00516403                0.01050014                0.01035741
               1.05471190                9.97983809               57.06228136                0.99999995               -0.03413147               -0.03555132                0.11666269               -0.00550555                0.01464390                0.00173191
               2.05432840                9.97337188               57.06427483                0.99999989               -0.04297273               -0.04519970                0.14655124               -0.00635506                0.01622454               -0.00138310
               3.05385245                9.96687827               57.06621428                0.99999999               -0.04099282               -0.05594561                0.17788393               -0.00515998                0.11953866               -0.00544050
               4.05350854                9.96037681               57.07027226                0.01000002               -1.13347090               -0.07013272                0.18017437                1.52267631                0.19836311               -0.00191068
               5.03118303                9.98441188               57.07408891                0.01000001               -1.65824494                0.39171125                0.19329099                1.26564474                0.21507464                0.04239916
               6.02034364                9.99638997               57.07827848                0.01000000               -0.88003126                0.26225801                0.18978107                0.47895345                0.32029276                0.07664484
               7.01358240               10.00272031               57.08347523                0.01000001               -0.60607412                0.17085345                0.19015720                0.20528076                0.50563525                0.11054209
               8.00822216               10.00502036               57.09037672                0.01000000               -0.53081702                0.17215001                0.18664235               -0.09403037                0.70227891                0.18708756
               9.00296606               10.00182517               57.09818419                0.99999994               -0.28870132               -0.05244734                0.17392036               -0.12219061                0.40581182                0.00043290
              10.00244813               10.00107663               57.09788401                0.99999994               -0.05179298               -0.05164667                0.17149925                0.00065771                0.00043448               -0.00042356
              -0.04430861                0.00005853               58.04545367                0.99711416               -0.02308895               -0.02281547                0.07346370                0.00199629               -0.00810655                0.00762846
               0.95546050               -0.00321292               58.04866718                0.99999999               -0.02414590               -0.02507310                0.08075033                0.00116361               -0.00869023               -0.00153517
               1.95520847               -0.00646633               58.05186816                0.01000000                0.05829571               -0.02733071                0.08802674                0.09101418               -0.04968560               -0.00348319
               2.95662641               -0.00790334               58.05425641                0.01000000                0.12304693               -0.05206088                0.09713070                0.07454273               -0.09040424                0.00665705
               3.95766941               -0.00582591               58.05635184                0.01000000                0.04699477               -0.01497700                0.10159332                0.16830790               -0.10927495                0.01294731
               4.95756631                0.00079618               58.05806699                0.01000000               -0.16351691                0.02525802                0.10501445                0.32533800               -0.13939897                0.01874521
               5.95439907                0.01271412               58.05941514                0.01000002               -0.68068668                0.13668751                0.10436896                0.77508744               -0.16353802                0.01566630
               6.94395257                0.03191060               58.06057147                0.97245365               -0.53657520               -0.03007140                0.09318325                0.84227391               -0.08868835               -0.00138653
               7.94366757                0.03431084               58.06351702                1.00000000               -0.02921036               -0.03242573                0.09797978                0.00077058                0.00126725               -0.00017954
               8.94336837                0.03674661               58.06646871                0.99999997               -0.03069251               -0.03349738                0.10310030                0.00092508                0.00148573                0.00106864
               9.94305372                0.03922028               58.06941239                1.00000000               -0.03146513               -0.03503741                0.10815650               -0.00088210                0.00152302                0.00259072
              -0.04101719                0.99983038               58.04614179                1.00000000               -0.02482391               -0.02362150                0.07907083                0.00091016                0.00139035                0.00811623
               0.95873457                0.99653635               58.04935727                0.01000000               -0.02594942               -0.02596425                0.08635786                0.00007685                0.00424382               -0.00446179
               1.95846382                0.99326036               58.05263121                0.01000000               -0.08414714               -0.05644499                0.09363516                0.04056799               -0.03491529                0.00205582
               2.95705163                0.99157605               58.05506056                0.01000001               -0.17305462               -0.03799272                0.10158400                0.17245201               -0.08318287                0.01565904
               3.95500273                0.99402432               58.05714328                0.01000000               -0.27509745               -0.00462525                0.10401901                0.40188253               -0.11650922                0.02389369
               4.95154968                1.00104876               58.05881936                0.01000000               -0.42049955                0.03004012                0.10980232                0.70810643               -0.15749765                0.03473817
               5.94659274                1.01408099               58.05999454                0.01000001               -0.49863628                0.00108918                0.11149566                1.10086048               -0.19565168                0.04515563
               6.94157695                1.03160989               58.06082269                0.90594659               -0.26677333               -0.03179945                0.10612308                0.75808696               -0.10543066               -0.00164829
               7.94125727                1.03398658               58.06377363                0.99999999               -0.03270264               -0.03496374                0.11154040               -0.00033707                0.00072263                0.00027023
               8.94092290                1.03641163               58.06672803                0.99999999               -0.03430248               -0.03508406                0.11596432                0.00179992                0.00053424                0.00185707
               9.94057122                1.03886991               58.06967417                0.99999997               -0.03516788               -0.03755500                0.12088755                0.00019582                0.00031223                0.00388215
              -0.03770234                1.99958610               58.04684244                0.01000002               -0.02656018                0.06733797                0.08468503                0.08817504                0.00334494                0.09620229
               0.96203206                1.99626779               58.04998691                0.01000000               -0.06587674               -0.07276540                0.09197296                0.04136363                0.02151517                0.06908225
               1.96098012                1.99240477               58.05349842                0.01000001               -0.13602842               -0.11655378                0.09849840                0.14870951                0.00396910                0.03393055
               2.95931149                1.99133681               58.05610943                0.01000000               -0.23728869               -0.07707835                0.10493243                0.47407833               -0.06261295                0.04007967
               3.95623435                1.99408159               58.05824636                0.01000000               -0.38198592               -0.03883223                0.11182728                0.84816998               -0.10739598                0.05279595
               4.95167177                2.00139699               58.05995190                0.01000001               -0.51895962               -0.02825980                0.11779228                1.22715007               -0.15465103                0.07230475
               5.94585516                2.01273590               58.06118044                0.01000000               -0.62315239               -0.12569882                0.12168279                1.74618109               -0.24636329                0.09593938
               6.93920872                2.03127461               58.06107037                0.01000000               -0.34980386               -0.43329703                0.12124519                1.27251056               -0.15220163                0.14215026
               7.93885908                2.03361157               58.06403968                0.60807830               -0.03438390               -0.03645082                0.11792151                0.00217971                0.00101167                0.00497122
               8.93852104                2.03604493               58.06700072                0.99999999               -0.03589986               -0.03622994                0.12379192                0.00777801                0.00025837                0.00204299
               9.93814108                2.03846918               58.06995592                0.99999999               -0.03799612               -0.04213850                0.13591567                0.00253907               -0.00016718                0.00382942
              -0.03261707                3.00117714               58.04929725                0.01000035               -0.06397532                0.14060105                0.09173884                0.07668519                0.00197240                0.18569384
               0.96674318                2.99508104               58.05214783                0.01000001               -0.05069690               -0.15193153                0.09562573                0.17521568               -0.00067615                0.13842160
               1.96636899                2.99092928               58.05492143                0.01000000               -0.09434052               -0.21523056                0.10321147                0.48018847               -0.01416518                0.07990892
               2.96485637                2.99003449               58.05748179                0.01000000               -0.22315228               -0.19940525                0.11198590                0.87621241               -0.04486763                0.07128130
               3.96190595                2.99324768               58.05967801                0.01000001               -0.37090008               -0.15864289                0.12084570                1.30825851               -0.08840330                0.08584219
               4.95743837                3.00048357               58.06150916                0.01000000               -0.51336086               -0.15458787                0.12860249                1.73760995               -0.14112572                0.11375871
               5.95163873                3.01156702               58.06288940                0.01000001               -0.56434356               -0.22849693                0.13321049                2.00838934               -0.18337835                0.15164778
               6.94615150                3.02294395               58.06420646                0.01000001               -0.75540905               -0.62463388                0.13973393                2.05243222               -0.25695622                0.22527349
               7.93653055                3.03325757               58.06439949                0.01000002               -0.49653257               -0.35370270                0.02021330                1.46982828               -0.13906864                0.12866989
               8.93622084                3.03568703               58.06726862                0.01000000               -0.03785312               -0.42493906                0.12809551                1.02639709               -0.00570314                0.11811705
               9.93577349                3.03802714               58.07021701                0.99999998               -0.04473565               -1.01932451                0.15170812                1.19276642               -0.00232773                0.38952107
              -0.02397644                4.00239812               58.05165942                0.01000000               -0.02393379                0.05528025                0.10391138                0.18485903               -0.00297072                0.17842011
               0.97578422                3.99322916               58.05423414                0.01000000               -0.01965592               -0.25840357                0.10320729                0.42594191               -0.00554408                0.13882150
               1.97563044                3.98810015               58.05674813                0.01000000               -0.06334429               -0.34900741                0.10931484                0.86424415               -0.01361518                0.10854278
               2.97451734                3.98734870               58.05917298                0.01000005               -0.18400030               -0.33934588                0.11991424                1.30277897               -0.03112858                0.10050171
               3.97195044                3.99090873               58.06143665                0.01000000               -0.32063535               -0.30516993                0.13105604                1.73712056               -0.06308273                0.11974068
               4.96810463                3.99830523               58.06345628                0.01000001               -0.41939367               -0.29206107                0.14017147                2.10096981               -0.11104195                0.15891839
               5.96356256                4.00816596               58.06518816                0.01000001               -0.47689095               -0.37510563                0.14496121                2.35963529               -0.18667613                0.21287062
               6.95856681                4.01878193               58.06644819                0.01000004               -0.40250035               -0.48439091                0.13464621                2.36303490               -0.30994243                0.25926985
               7.95551256                4.02653751               58.06724461                0.01000001               -0.21436985               -0.68011713                0.09039504                2.25329885               -0.47052254                0.36991658
               8.95427942                4.02754614               58.06986749                0.01000000                0.09018225               -0.77866720                0.07805930                1.40150069               -0.80184119                0.76330650
               9.95731620                4.01808269               58.07821800                0.01000002                0.30367866               -1.39893710                0.05462031                0.98361455               -0.72149319                1.32368980
              -0.01058196                5.00228274               58.05399998                0.01000000                0.01419474               -0.19681751                0.11659658                0.36686714               -0.00678471                0.16867457
               0.98955999                4.98991297               58.05640308                0.01000000                0.00581481               -0.40650199                0.11410116                0.77468934               -0.01109874                0.14413489
               1.98953434                4.98394913               58.05873819                0.01000001               -0.07283081               -0.45760283                0.11816661                1.25592103               -0.01261817                0.12168865
               2.98810337                4.98324757               58.06109140                0.01000000               -0.19212511               -0.46605939                0.12942204                1.70411329               -0.01402987                0.11991078
               3.98569183                4.98714428               58.06345717                0.01000001               -0.29514191               -0.41835222                0.14220261                2.04901751               -0.02830692                0.14546631
               4.98220053                4.99464235               58.06575219                0.01000001               -0.36685514               -0.40778438                0.15231890                2.32908593               -0.06421202                0.20066627
               5.97835473                5.00406490               58.06786925                0.01000001               -0.35799451               -0.43826838                0.15688636                2.44788272               -0.13149724                0.27897743
               6.97504064                5.01325613               58.06971628                0.01000000               -0.27612066               -0.54928520                0.15123379                2.38988495               -0.23321487                0.39305973
               7.97283232                5.01965523               58.07156938                0.01000000               -0.11674812               -0.67187904                0.13833239                2.02870479               -0.37757210                0.60753629
               8.97270568                5.02011369               58.07386863                0.01000000                0.07701830               -0.72914718                0.10092742                1.28668970               -0.35204527                0.81045147
               9.97437268                5.01004840               58.07808522                0.01000000                0.16670036               -0.66894514                0.13971604                0.65982167               -0.17616242                0.46364073
               0.00810046                5.99846177               58.05632832                0.01000002                0.15111606               -0.79703731                0.11801873                0.88545720               -0.01195696                0.16136272
               1.00961162                5.98509912               58.05861796                0.01000001               -0.03430982               -0.49130539                0.12244181                1.22290103               -0.02038048                0.14750877
               2.00741426                5.97894810               58.06080600                0.01000000               -0.21035807               -0.50658324                0.12994544                1.82631857               -0.01549168                0.12422834
               3.00540446                5.97802751               58.06311850                0.01000001               -0.29391260               -0.47092374                0.14202825                1.90751618                0.00148609                0.11152041
               4.00153601                5.98254169               58.06560073                0.01000001               -0.38193649               -0.50173203                0.15470158                2.21416682                0.01550732                0.15590893
               4.99776573                5.99014954               58.06826998                0.01000003               -0.38147869               -0.45242168                0.16471588                2.36980885                0.00971262                0.22384197
               5.99390644                5.99940059               58.07095535                0.01000001               -0.34957696               -0.44226910                0.17023346                2.36248542               -0.02322324                0.32694428
               6.99077419                6.00779623               58.07360434                0.01000000               -0.23386726               -0.49760273                0.17069872                2.11746105               -0.08046067                0.46850000
               7.98922909                6.01309993               58.07619329                0.01000000               -0.05770747               -0.59906605                0.16525999                1.67816391               -0.12193427                0.62123682
               8.98962004                6.01296320               58.07896119                0.01000005                0.07070661               -0.62503864                0.16760073                0.97996649               -0.08159597                0.69380290
               9.99064322                6.00470379               58.08252062                0.01000000                0.10231838               -0.35407943                0.19064259                0.48334251               -0.01624641                0.51399887
               0.03385249                6.98634200               58.05866949                0.95348564               -0.03208056               -0.61942639                0.09144463                0.97711167               -0.01293508                0.08572212
               1.03353168                6.98008686               58.06092316                0.62826447               -0.03600878               -0.26852282                0.12107184                0.88526755               -0.02699312                0.07438624
               2.03313231                6.97381747               58.06290473                0.01000000               -0.54357894               -0.27868016                0.14334164                1.28892313               -0.04037410                0.06831221
               3.02266010                6.97382909               58.06488472                0.01000000               -0.76395850               -0.56157095                0.15749305                1.85682941                0.01387522                0.13519164
               4.01785314                6.97710964               58.06776878                0.01000004               -0.49611514               -0.54294268                0.16613814                2.06687664                0.07298029                0.12892690
               5.01273780                6.98559391               58.07079104                0.01000003               -0.49476974               -0.45351080                0.17635177                2.31673061                0.09596390                0.21843628
               6.00795775                6.99521952               58.07414930                0.01000000               -0.45236384               -0.31906128                0.18227645                2.12192347                0.11006141                0.32778954
               7.00369053                7.00330407               58.07766435                0.01000000               -0.33645617               -0.33953099                0.18426105                1.68004351                0.10408962                0.46376896
               8.00122863                7.00767390               58.08115288                0.01000001               -0.14946856               -0.43941191                0.18469934                1.12151127                0.08527501                0.61582986
               9.00070115                7.00761292               58.08442405                0.01000002               -0.03351343               -0.43562911                0.18839906                0.55329388                0.04996149                0.66387409
              10.00055836                7.00296681               58.08710175                0.01000000               -0.01427969               -0.07986312                0.20072304                0.21897875                0.03239699                0.53177294
               0.04015297                7.98607325               58.05950046                1.00000000               -0.03114722               -0.02667813                0.08987188                0.00021749               -0.00542263                0.01219323
               1.03984150                7.97972866               58.06174383                0.99999998               -0.03512397               -0.03565744                0.11874401                0.00077606               -0.00464375                0.00261002
               2.03945049                7.97337449               58.06401886                0.54035511               -0.02963108               -0.04431118                0.14652558               -0.00982587                0.06677322                0.00878457
               3.03924888                7.96679610               58.06770102                0.01000007               -0.41708828               -0.36621748                0.15472426                1.05247138                0.04658543                0.01808328
               4.03110872                7.97168283               58.06943320                0.01000001               -0.66292079               -0.84955118                0.17868868                2.07527148                0.07312195                0.10455782
               5.02599046                7.98107932               58.07312874                0.01000000               -0.62369898               -0.27487873                0.18561984                2.16664640                0.18780595                0.17899476
               6.01863474                7.99301937               58.07706489                0.01000000               -0.70348922               -0.07084097                0.19042310                1.75943045                0.23386014                0.27336154
               7.01192068                8.00100561               58.08146558                0.01000002               -0.56421357               -0.09728514                0.19289210                1.11655948                0.30213592                0.39195473
               8.00735047                8.00431169               58.08643994                0.01000002               -0.32638301               -0.19412839                0.19146680                0.50919183                0.30677799                0.54495473
               9.00539302                8.00425062               58.09046548                0.01000003               -0.15177276               -0.24847592                0.19039861                0.03087978                0.21328419                0.84927880
              10.00431502                8.00310653               58.09314795                0.01000001               -0.10779971               -0.05445387                0.19472439               -0.04228697                0.15759522                0.61802452
               0.04654600                8.98580843               58.06038350                0.99999997               -0.03000456               -0.02625770                0.08785607                0.00027465                0.00053359                0.01184655
               1.04624596                8.97937371               58.06260723                0.99999999               -0.03388182               -0.03548848                0.11685062                0.00070858                0.00324747                0.00377831
               2.04586837                8.97293125               58.06489081                0.99999999               -0.04223816               -0.04431750                0.14695373                0.00179787                0.00949026               -0.00183534
               3.04540119                8.96650474               58.06720429                0.31031343               -0.03965107               -0.04217418                0.18327963               -0.00923747                0.10296708               -0.07520442
               4.04507534                8.96011862               58.07127989                0.01000000               -0.53334995               -0.61389540                0.19870391                1.70204877                0.17001939                0.04765993
               5.03473419                8.98009634               58.07494916                0.01000000               -1.09276361                0.13918239                0.18843920                1.84374161                0.21211725                0.10221528
               6.02322007                8.99380270               58.07926020                0.01000005               -1.00024027                0.16082153                0.19469719                1.06950978                0.31477467                0.16196170
               7.01472939                9.00135837               58.08435381                0.01000002               -0.75263088                0.09000295                0.19676288                0.53040143                0.44363152                0.23307364
               8.00816745                9.00379134               58.09046435                0.01000000               -0.61027356                0.03917317                0.19294184                0.09056930                0.73624413                0.34174612
               9.00252392                9.00264340               58.10022044                1.00000000               -0.30833266               -0.10660585                0.17551167               -0.20120523                0.50358050                0.50300102
              10.00200080                9.00187773               58.09989558                1.00000000               -0.05231166               -0.08725254                0.17298716               -0.15407510               -0.00043819                0.35176693
               0.05302791                9.98554809               58.06121750                1.00000000               -0.02950550               -0.02603418                0.08678577               -0.00472879                0.00818597                0.00876674
               1.05273286                9.97901890               58.06344540                0.99999996               -0.03362492               -0.03548143                0.11578434               -0.00430740                0.01119988                0.00252802
               2.05235541                9.97248814               58.06573417                1.00000000               -0.04280505               -0.04431016                0.14565852               -0.00460944                0.01409306               -0.00209289
               3.05187676                9.96595261               58.06798488                0.99999999               -0.03986537               -0.05521319                0.18149403               -0.00660476                0.11422993               -0.01331812
               4.05155811                9.95940493               58.07226562                0.01000001               -1.13477740               -0.07136914                0.19864051                1.54379415                0.18595173               -0.00062630
               5.02918121                9.98386297               58.07597234                0.01000001               -1.63975993                0.37666346                0.18911780                1.28624499                0.19169350                0.04731358
               6.01876291                9.99623580               58.08021185                0.01000001               -0.83205695                0.24330979                0.19532902                0.50141838                0.30758469                0.08007639
               7.01254007               10.00280567               58.08540901                0.01000001               -0.54430381                0.14472989                0.19770350                0.22403585                0.49408472                0.11413345
               8.00787683               10.00509516               58.09226471                0.01000000               -0.46287754                0.13038209                0.19169018               -0.06342078                0.68966075                0.18703069
               9.00328252               10.00211850               58.09992379                1.00000000               -0.25559888               -0.05248975                0.17399936               -0.11082415                0.39967059                0.00045612
              10.00276485               10.00136148               58.09959885                0.99999990               -0.05176643               -0.05162543                0.17149041                0.00070265                0.00038225               -0.00043826
              -0.04763956               -0.00058140               59.04618957                0.99809582               -0.02304534               -0.02295433                0.07371403                0.00193586               -0.00809431                0.00761342
               0.95212999               -0.00394642               59.04947218                0.99999999               -0.02399021               -0.02497699                0.08024760                0.00104795               -0.00868181               -0.00154013
               1.95188064               -0.00729224               59.05274214                0.01000001                0.06733994               -0.02699928                0.08677072                0.09941962               -0.04905810               -0.00347835
               2.95347679               -0.00864998               59.05521187                0.01000001                0.13764867               -0.05848426                0.09576539                0.08141121               -0.08792709                0.00827112
               3.95463361               -0.00651529               59.05736274                0.01000000                0.05673288               -0.01835357                0.10073528                0.17375379               -0.11300266                0.01449312
               4.95461145                0.00021287               59.05911786                0.01000000               -0.15802723                0.02211177                0.10490943                0.32970047               -0.14486745                0.02053852
               5.95147307                0.01225882               59.06045180                0.01000003               -0.68109209                0.13548612                0.10512014                0.78248617               -0.17790417                0.01726919
               6.94098960                0.03158760               59.06150143                0.97152716               -0.53829562               -0.03007426                0.09244305                0.84906425               -0.09637990               -0.00086050
               7.94070716                0.03399172               59.06449293                1.00000000               -0.02891071               -0.03129421                0.09690175                0.00067462                0.00147717                0.00090788
               8.94041139                0.03643993               59.06749416                0.99999999               -0.03022992               -0.03250507                0.10137236                0.00070220                0.00189080                0.00174528
               9.94010256                0.03893211               59.07048605                0.99999945               -0.03088330               -0.03424649                0.10568292               -0.00143924                0.00212387                0.00391656
              -0.04425518                0.99918905               59.04693555                0.99999999               -0.02489316               -0.02381522                0.07967983                0.00096278                0.00139455                0.00810589
               0.95549589                0.99580381               59.05022014                0.01000000               -0.02591000               -0.02591502                0.08621534                0.00007443                0.00424463               -0.00446150
               1.95522662                0.99243777               59.05356309                0.01000000               -0.07967305               -0.05721881                0.09274070                0.05082285               -0.03456732                0.00199228
               2.95390243                0.99076517               59.05606845                0.01000001               -0.16434482               -0.04234372                0.10155334                0.18428760               -0.08575646                0.01475187
               3.95193972                0.99330118               59.05820766                0.01000000               -0.26905132               -0.00775944                0.10660047                0.41250119               -0.11851689                0.02741644
               4.94852140                1.00043399               59.05992013                0.01000000               -0.41645780                0.02749226                0.10977916                0.71682206               -0.16069873                0.03987627
               5.94361057                1.01361368               59.06111089                0.01000001               -0.49538026               -0.00218624                0.11135562                1.10919345               -0.20377568                0.04825066
               6.93861379                1.03128686               59.06188826                0.90187683               -0.26614142               -0.03240562                0.10738956                0.76613646               -0.10963761                0.00018046
               7.93828774                1.03367878               59.06489137                0.99999995               -0.03327866               -0.03322034                0.11133805               -0.00009971                0.00061406               -0.00159677
               8.93794822                1.03611488               59.06788700                0.99999999               -0.03458741               -0.03432255                0.11546337                0.00025363               -0.00033773                0.00058732
               9.93759599                1.03858964               59.07087979                0.99999999               -0.03522317               -0.03675186                0.12006529               -0.00177573               -0.00054563                0.00705421
              -0.04084982                1.99894229               59.04769413                0.01000000               -0.02674225                0.07028551                0.08565274                0.09914178                0.00334047                0.09659430
               0.95888276                1.99553528               59.05090772                0.01000000               -0.06072251               -0.07525721                0.09219030                0.05224923                0.02143399                0.06755628
               1.95793573                1.99156339               59.05448684                0.01000001               -0.12918145               -0.11874747                0.09997682                0.16481252                0.00731019                0.03092968
               2.95629913                1.99050314               59.05717927                0.01000000               -0.23604579               -0.07866690                0.10884421                0.49394916               -0.05842685                0.04068776
               3.95321482                1.99332952               59.05938414                0.01000000               -0.38318731               -0.03998485                0.11620362                0.86542945               -0.10559450                0.05870708
               4.94863539                2.00076272               59.06115107                0.01000001               -0.52053746               -0.02887932                0.12140053                1.23807416               -0.15436605                0.08164762
               5.94280407                2.01221509               59.06241530                0.01000000               -0.61940780               -0.12745599                0.12465232                1.74994341               -0.24799279                0.10439543
               6.93624723                2.03093949               59.06229504                0.01000000               -0.34634643               -0.44695791                0.12255468                1.26822763               -0.15809136                0.14809673
               7.93587714                2.03332732               59.06522203                0.36887033               -0.03708141               -0.02804056                0.12479614               -0.00496998               -0.00309302               -0.04774030
               8.93550560                2.03575348               59.06824002                1.00000000               -0.03798105               -0.03787434                0.12865265                0.00162691                0.00101730               -0.00371423
               9.93511752                2.03819707               59.07131812                0.99999999               -0.03880832               -0.04141796                0.13500424               -0.00158603                0.00279884                0.00964309
              -0.03545832                3.00059476               59.05021485                0.01000000               -0.06219015                0.14341511                0.09176720                0.08434109                0.00384078                0.18897828
               0.96391978                2.99429867               59.05309596                0.01000001               -0.04933353               -0.15422089                0.09462004                0.18934628                0.00629165                0.13097507
               1.96355501                2.99006282               59.05595549                0.01000000               -0.09522531               -0.21618612                0.10463359                0.49973606               -0.00339767                0.07345573
               2.96201527                2.98919183               59.05861767                0.01000000               -0.22831374               -0.19877172                0.11643161                0.90001303               -0.03507851                0.07150796
               3.95898873                2.99250148               59.06091582                0.01000004               -0.38089781               -0.15602145                0.12740089                1.33058636               -0.08094591                0.09298565
               4.95439731                2.99985640               59.06283335                0.01000000               -0.52780349               -0.14960189                0.13641781                1.75083889               -0.13598641                0.12434506
               5.94843266                3.01106456               59.06427428                0.01000001               -0.57655961               -0.22250044                0.14335517                1.99200246               -0.17738487                0.16202445
               6.94286612                3.02234770               59.06565354                0.01000000               -0.75291581               -0.61482114                0.14331704                2.00439500               -0.30201683                0.22947325
               7.93337435                3.03311797               59.06468230                0.01000001               -0.48775579               -0.36281740                0.12115178                1.25800685               -0.15717277                0.13143322
               8.93311101                3.03535739               59.06855084                0.05004691               -0.03486289                0.01390472                0.14106249                0.08466884                0.04021010                0.11363662
               9.93267709                3.03776128               59.07174308                0.99999997               -0.04339171               -0.05271518                0.14969036                0.09025870                0.00593565                0.15208028
              -0.02657080                4.00181059               59.05272978                0.01000000               -0.02275701                0.04984576                0.10256043                0.18422525                0.00385584                0.18325299
               0.97320163                3.99245086               59.05525480                0.01000000               -0.01959568               -0.25800597                0.09829639                0.42922566                0.00780043                0.13292323
               1.97303729                3.98723966               59.05783153                0.01000000               -0.06704486               -0.34719379                0.10826476                0.87924298                0.00522523                0.10217527
               2.97186073                3.98652771               59.06038129                0.01000113               -0.19376557               -0.33631463                0.12325598                1.32760950               -0.01379309                0.10143059
               3.96916197                3.99020910               59.06277786                0.01000000               -0.33858234               -0.29904029                0.13824822                1.76541189               -0.05043737                0.12733988
               4.96508909                3.99777068               59.06491103                0.01000001               -0.45045768               -0.28059174                0.15096904                2.12347045               -0.10267884                0.16968375
               5.96015282                4.00776508               59.06672224                0.01000001               -0.54036837               -0.35422823                0.16197786                2.37081313               -0.18255139                0.22209209
               6.95428172                4.01864307               59.06797863                0.01000000               -0.60626187               -0.43889243                0.17100104                2.30521660               -0.31097647                0.26261281
               7.94802758                4.02607097               59.06870680                0.01000001               -1.08630260               -0.56744337                0.21619623                2.50653161               -0.46682053                0.41759446
               8.93255567                4.03603158               59.07133030                0.01000000               -0.79563346               -0.50397878                0.09716002                2.16781578               -0.98386882                0.69867091
               9.93211491                4.03714277               59.07501271                0.01000001               -0.04407519               -1.23455644               -0.14546167                1.92044217               -1.09146841                1.33712771
              -0.01305435                5.00159168               59.05524723                0.01000003                0.01295724               -0.20533350                0.13567118                0.36519336               -0.00195953                0.17577610
               0.98707522                4.98913855               59.05754684                0.01000000                0.00586876               -0.40704441                0.10888547                0.77089417                0.00090326                0.14565390
               1.98706302                4.98311894               59.05990071                0.01000001               -0.07385956               -0.45649268                0.11102949                1.26242743                0.00781664                0.12197631
               2.98559803                4.98246554               59.06238818                0.01000000               -0.20045134               -0.46353058                0.12978133                1.72548570                0.00599645                0.12513325
               3.98305399                4.98652067               59.06490445                0.01000001               -0.31436468               -0.41239195                0.14838292                2.08434957               -0.01433975                0.15624765
               4.97931073                4.99424457               59.06733087                0.01000001               -0.40387281               -0.39413173                0.16384980                2.37456247               -0.05603430                0.21157498
               5.97497654                5.00397999               59.06953839                0.01000002               -0.43230833               -0.41110355                0.17664053                2.50468601               -0.12694338                0.28797224
               6.97066457                5.01356985               59.07143836                0.01000002               -0.44300343               -0.50316737                0.19272379                2.53413859               -0.23027604                0.39918948
               7.96611647                5.02176910               59.07328478                0.01000000               -0.26345221               -0.56839692                0.19741705                2.44141967               -0.38096262                0.60451853
               8.96539552                5.02527782               59.07533273                0.01000000                0.13735389               -1.06408066                0.21794608                2.21114482               -0.32674835                0.79005222
               9.96886355                5.01307016               59.08015368                0.01000001                0.34680245               -1.58452830                0.19158919                1.51005540               -0.12835641                0.65684554
               0.00563933                5.99770392               59.05760716                0.01000002                0.14529164               -0.79873832                0.15333833                0.87932571               -0.01583870                0.13046223
               1.00709225                5.98430997               59.05986461                0.01000001               -0.03402455               -0.49333744                0.12414839                1.21628591               -0.02282207                0.14613342
               2.00495884                5.97810981               59.06209185                0.01000000               -0.20617653               -0.51088232                0.12272262                1.82452065               -0.00863070                0.13719545
               3.00296872                5.97725709               59.06451630                0.01000001               -0.29444506               -0.47588803                0.13886323                1.92739350                0.01411351                0.13317680
               3.99906994                5.98196126               59.06717444                0.01000001               -0.39238503               -0.49976482                0.15894803                2.25428993                0.02441739                0.16655524
               4.99512102                5.98988805               59.06995921                0.01000006               -0.40743397               -0.44414917                0.17395833                2.43482221                0.01326459                0.23547870
               5.99092126                5.99954301               59.07274288                0.01000003               -0.39728172               -0.42545815                0.18699675                2.46253360               -0.02165828                0.33510586
               6.98717538                6.00857972               59.07544822                0.01000000               -0.28866238               -0.47583371                0.19692250                2.28181353               -0.08032494                0.47156091
               7.98514801                6.01470303               59.07806005                0.01000000               -0.08489347               -0.65071669                0.20777358                1.93304729               -0.12015026                0.61860810
               8.98547751                6.01474996               59.08090266                0.01000001                0.07916697               -0.83694276                0.21272129                1.17413806               -0.08538187                0.69635172
               9.98673135                6.00545220               59.08442138                0.01000000                0.12538389               -0.50492994                0.20120493                0.53310731               -0.03032716                0.49108297
               0.03132006                6.98561691               59.05959714                0.96020498               -0.03250110               -0.61817074                0.09426517                0.96872374               -0.01278289                0.06793870
               1.03099505                6.97927180               59.06213335                0.57949043               -0.03568742               -0.26963370                0.12109976                0.87871033               -0.02958505                0.07249029
               2.03060631                6.97290130               59.06434116                0.01000000               -0.53502998               -0.28132607                0.14049100                1.28444588               -0.04273796                0.07588326
               3.02029445                6.97294778               59.06659471                0.01000000               -0.75487357               -0.55617820                0.15711085                1.86024182                0.00465147                0.10050475
               4.01550884                6.97652538               59.06937219                0.01000004               -0.49345146               -0.55155123                0.16350664                2.11619876                0.06052333                0.14911688
               5.01042542                6.98536159               59.07258774                0.01000001               -0.49866523               -0.45393896                0.18165238                2.38921954                0.09630052                0.22654392
               6.00553554                6.99547083               59.07602341                0.01000000               -0.46423009               -0.31640160                0.19258244                2.22502902                0.10699114                0.33400402
               7.00114082                7.00405318               59.07959239                0.01000000               -0.34641818               -0.34872284                0.20078802                1.81488560                0.10089468                0.46638780
               7.99860717                7.00875477               59.08311401                0.01000002               -0.15058529               -0.47857387                0.20611911                1.26008156                0.08132471                0.61365577
               8.99812911                7.00853896               59.08640791                0.01000002               -0.02429790               -0.49449949                0.20790662                0.64326402                0.04728273                0.65426460
               9.99812122                7.00297156               59.08917146                0.01000000               -0.00078987               -0.12897734                0.20932349                0.26485157                0.03040217                0.52202340
               0.03770403                7.98534051               59.06040956                1.00000000               -0.03219664               -0.02742121                0.09282909                0.00025646               -0.00550816                0.01075172
               1.03738207                7.97891730               59.06293670                0.99999998               -0.03661302               -0.03520962                0.11868491                0.00060406               -0.00850748                0.00102071
               2.03697177                7.97248329               59.06541595                0.51221842               -0.04162974               -0.04147231                0.13899547                0.00573465                0.00036756                0.01029099
               3.03654947                7.96613353               59.06811596                0.01000006               -0.39958324               -0.36490030                0.08428921                1.06146329                0.02545614                0.03287755
               4.02898011                7.97093023               59.07133824                0.01000001               -0.62947596               -0.86632312                0.17246617                2.09355008                0.10792101                0.11399330
               5.02395995                7.98080927               59.07496613                0.01000000               -0.61249307               -0.28330568                0.18533152                2.23272653                0.17329800                0.18125602
               6.01673025                7.99321498               59.07899857                0.01000000               -0.68853992               -0.08055799                0.19554184                1.84298119                0.22871142                0.27622437
               7.01018915                8.00160526               59.08343856                0.01000002               -0.54331950               -0.11616769                0.20155664                1.21445122                0.29528634                0.39324713
               8.00586386                8.00513155               59.08840831                0.01000002               -0.30315745               -0.22228788                0.20159639                0.61103412                0.30012131                0.54213858
               9.00412601                8.00485997               59.09242246                0.01000004               -0.13503299               -0.27938037                0.19996121                0.12342328                0.20813574                0.83497427
              10.00316320                8.00287265               59.09511958                0.01000000               -0.09628086               -0.03970130                0.19932563                0.01190607                0.15224539                0.59468306
               0.04417161                8.98506849               59.06127306                1.00000000               -0.03072581               -0.02703994                0.09108015                0.00065801               -0.00086159                0.01050646
               1.04386435                8.97856761               59.06377382                0.99999999               -0.03334177               -0.03524944                0.11649564                0.00202629                0.00038232                0.00231910
               2.04350477                8.97207185               59.06631802                1.00000000               -0.03937893               -0.04200003                0.13960915                0.00905880                0.00745977                0.00188856
               3.04307677                8.96564978               59.06894920                0.40619591               -0.04003338               -0.05413966                0.17583045                0.00915980                0.10057446               -0.00606663
               4.04270411                8.95919892               59.07326564                0.01000000               -0.51407850               -0.62687021                0.18742727                1.71528513                0.15804513                0.03456153
               5.03279520                8.97969547               59.07682407                0.01000000               -1.05524710                0.12512573                0.18319891                1.88857343                0.19789743                0.10319343
               6.02159917                8.99385967               59.08121195                0.01000001               -0.96409659                0.14366065                0.19742645                1.11813864                0.30816841                0.16162523
               7.01351327                9.00172982               59.08634945                0.01000002               -0.70130092                0.06436622                0.20183921                0.58357126                0.43526369                0.23301377
               8.00757315                9.00430901               59.09241909                0.01000000               -0.53283963                0.00143481                0.19761401                0.14291363                0.72108626                0.33895478
               9.00285648                9.00295136               59.10197564                1.00000000               -0.26195870               -0.12161872                0.17559074               -0.13160792                0.49497509                0.49387874
              10.00233397                9.00217753               59.10162497                0.99999999               -0.05225066               -0.06056675                0.17291791               -0.08026028               -0.00046377                0.34041850
               0.05071896                9.98479971               59.06209797                0.99999999               -0.02997295               -0.02687773                0.09019790               -0.00400521                0.00522844                0.00750446
               1.05041923                9.97821231               59.06459705                0.99999999               -0.03240896               -0.03552947                0.11554485               -0.00233349                0.00872867                0.00189360
               2.05007078                9.97164329               59.06718800                0.99999998               -0.04068123               -0.04285636                0.14090339               -0.00147827                0.01733865                0.00153190
               3.04960560                9.96505074               59.06984416                1.00000000               -0.04153328               -0.05990378                0.18558711               -0.00964000                0.11274160               -0.00118068
               4.04924011                9.95839283               59.07424507                0.01000001               -1.12674690               -0.08060881                0.18758449                1.56665277                0.17225862                0.01142855
               5.02707067                9.98331178               59.07787126                0.01000001               -1.60907228                0.36163087                0.18573098                1.31231451                0.18111340                0.04586876
               6.01705867                9.99608819               59.08218506                0.01000001               -0.78297132                0.22285224                0.20133601                0.52499050                0.30166082                0.07916579
               7.01141124               10.00289259               59.08742930                0.01000001               -0.47790349                0.11627624                0.20555064                0.24339953                0.48422197                0.11262896
               8.00750060               10.00516025               59.09421052                0.01000000               -0.38929551                0.08512377                0.19722110               -0.03050440                0.67223040                0.18284141
               9.00362533               10.00242760               59.10166418                0.99999999               -0.21974768               -0.05237588                0.17406566               -0.09806155                0.39044825                0.00033108
              10.00310564               10.00166132               59.10131382                0.99999999               -0.05196852               -0.05162109                0.17139596                0.00053928                0.00066893               -0.00037721
              -0.05103572               -0.00128116               60.04692795                0.99913249               -0.02299898               -0.02309080                0.07395391                0.00187434               -0.00808237                0.00759734
               0.94873429               -0.00473965               60.05027213                0.99999999               -0.02383329               -0.02487782                0.07973968                0.00093115               -0.00867367               -0.00154538
               1.94848761               -0.00817779               60.05360357                0.01000000                0.07564924               -0.02667005                0.08552140                0.10808397               -0.04721104               -0.00347459
               2.95024728               -0.00945107               60.05617172                0.01000000                0.15078771               -0.06452388                0.09694708                0.09206108               -0.08817228                0.00947195
               3.95150337               -0.00722588               60.05836655                0.01000000                0.06663087               -0.02228651                0.10273680                0.18040861               -0.11876682                0.01713313
               4.95157989               -0.00039758               60.06016518                0.01000000               -0.15229750                0.02106581                0.09927968                0.33361839               -0.16096439                0.02984926
               5.94845742                0.01174133               60.06151754                0.01000003               -0.67980204                0.13411768                0.10926244                0.78503215               -0.19492027                0.02188700
               6.93798385                0.03111973               60.06242033                0.97040014               -0.53765222               -0.02998393                0.09169091                0.85152474               -0.10544865               -0.00048584
               7.93770437                0.03353211               60.06545505                1.00000000               -0.02853934               -0.03065590                0.09534518                0.00045063                0.00176361                0.00002074
               8.93741307                0.03599585               60.06849616                0.99999998               -0.02959722               -0.03183307                0.09893171                0.00041795                0.00203891                0.00119902
               9.93711243                0.03851113               60.07152605                1.00000000               -0.03006354               -0.03322180                0.10244468               -0.00224239                0.00226515                0.00430491
              -0.04755849                0.99848794               60.04773538                1.00000000               -0.02495928               -0.02400795                0.08028357                0.00101417                0.00139873                0.00809490
               0.95219192                0.99501158               60.05108158                0.01000000               -0.02586750               -0.02586271                0.08606669                0.00006513                0.00424639               -0.00446050
               1.95192416                0.99155550               60.05448603                0.01000000               -0.07499963               -0.05956260                0.09184780                0.06296410               -0.03263126                0.00332707
               2.95069193                0.98990369               60.05709162                0.01000000               -0.15717265               -0.04737972                0.10429843                0.19970649               -0.08485510                0.01696264
               3.94878071                0.99255125               60.05927529                0.01000000               -0.26297294               -0.01132743                0.10965648                0.42783367               -0.12601083                0.03403511
               4.94543247                0.99981308               60.06101494                0.01000000               -0.41158118                0.02571497                0.10581611                0.72523232               -0.17439382                0.05308093
               5.94054909                1.01308251               60.06222165                0.01000001               -0.49143790               -0.00404565                0.10661816                1.11503606               -0.20682307                0.05626203
               6.93560371                1.03081989               60.06297048                0.90022478               -0.26391352               -0.03242305                0.10863274                0.76996754               -0.11403396               -0.00044224
               7.93527082                1.03322555               60.06600039                1.00000000               -0.03379901               -0.03331365                0.11171460                0.00027477               -0.00008385               -0.00036001
               8.93492773                1.03567752               60.06903730                0.99999999               -0.03480467               -0.03445280                0.11533900               -0.00072017                0.00012172                0.00128961
               9.93457472                1.03817892               60.07207548                0.99999999               -0.03530079               -0.03561921                0.11898802               -0.00343916                0.00019856                0.00669115
              -0.04406271                1.99823869               60.04855550                0.01000001               -0.02692607                0.07165588                0.08662597                0.11324252                0.00333463                0.09632685
               0.95566802                1.99474310               60.05183071                0.01000000               -0.05412540               -0.08290561                0.09240779                0.06643586                0.02275129                0.06554999
               1.95485478                1.99063095               60.05549795                0.01000001               -0.12111847               -0.12508997                0.10394069                0.18567008                0.01273872                0.02881822
               2.95324566                1.98960134               60.05828631                0.01000000               -0.23520597               -0.08205327                0.11424695                0.52095826               -0.05393021                0.04266240
               3.95015066                1.99254757               60.06057043                0.01000000               -0.38461856               -0.04187935                0.12208752                0.89030136               -0.10523194                0.06845502
               4.94555328                2.00011672               60.06237991                0.01000001               -0.51996628               -0.03012821                0.12617724                1.25202781               -0.15699294                0.09747048
               5.93975133                2.01166042               60.06367348                0.01000000               -0.61565601               -0.12909701                0.12549202                1.75381460               -0.25421569                0.12291426
               6.93324016                2.03047126               60.06352147                0.01000003               -0.34495487               -0.44850340                0.12456670                1.26524186               -0.16050607                0.14926011
               7.93285223                2.03286583               60.06653560                0.36885158               -0.03974344               -0.04120404                0.13145181                0.00272561               -0.00220148               -0.01391943
               8.93244530                2.03530680               60.06957377                0.99999993               -0.04056887               -0.04040151                0.13409534               -0.00152755               -0.00063510               -0.00067428
               9.93204086                2.03779875               60.07265600                0.99999999               -0.04044376               -0.04023813                0.13456174               -0.00415487                0.00050517                0.00768468
              -0.03830246                2.99992105               60.05113260                0.01000001               -0.05691656                0.13960609                0.09195669                0.09890895                0.00416098                0.18271827
               0.96112837                2.99335346               60.05404023                0.01000000               -0.04591050               -0.16531785                0.09906034                0.21515531                0.01471436                0.11511920
               1.96077933                2.98905371               60.05701410                0.01000000               -0.09669471               -0.22162556                0.11091571                0.53314239                0.01191532                0.06140896
               2.95919448                2.98826263               60.05981043                0.01000000               -0.23539842               -0.19972670                0.12451118                0.93547281               -0.02089498                0.06969192
               3.95607136                2.99171367               60.06222603                0.01000006               -0.39171495               -0.15403374                0.13608798                1.36045892               -0.07044119                0.10075467
               4.95136018                2.99921051               60.06423751                0.01000000               -0.54002613               -0.14576702                0.14465881                1.76701494               -0.12661557                0.13942890
               5.94527084                3.01050057               60.06575650                0.01000001               -0.58285213               -0.21583623                0.15117937                1.98659503               -0.17067104                0.17994620
               6.93970313                3.02184982               60.06707280                0.01000000               -0.73905183               -0.61109426                0.15132609                1.95117289               -0.26473676                0.26289295
               7.93048980                3.03240147               60.06682252                0.01000001               -0.48694341               -0.32894566                0.19258775                1.14959589               -0.15108112                0.18589317
               8.92996427                3.03486949               60.07008987                0.05900597               -0.04910397               -0.02845622                0.15427027                0.04117547                0.00712963                0.05659324
               9.92950772                3.03737415               60.07321082                0.99607114               -0.04565474               -0.06920514                0.14955666                0.05452346               -0.00173900                0.08367401
              -0.02894935                4.00103081               60.05371063                0.01000000               -0.02121660                0.04999152                0.09880293                0.19469804                0.01501477                0.18670331
               0.97083848                3.99143674               60.05620007                0.01000000               -0.02210932               -0.25686157                0.09585117                0.44819176                0.03302064                0.09707352
               1.97060846                3.98619844               60.05891342                0.01000000               -0.07716653               -0.34626782                0.11333928                0.91200323                0.04006654                0.07581554
               2.96929515                3.98560680               60.06163810                0.01000147               -0.20982541               -0.33237027                0.13247249                1.36467703                0.01376554                0.09465183
               3.96641195                3.98946690               60.06420161                0.01000000               -0.35942339               -0.29205054                0.14806913                1.79927842               -0.03066144                0.13309381
               4.96210668                3.99720138               60.06647566                0.01000001               -0.47840109               -0.26924251                0.16172061                2.14812656               -0.08383364                0.18065439
               5.95684393                4.00734370               60.06842771                0.01000001               -0.58719788               -0.33484315                0.17473237                2.37427706               -0.15306858                0.23655064
               6.95036272                4.01824938               60.06986821                0.01000005               -0.70097245               -0.40397459                0.19605691                2.29644080               -0.20817970                0.28431103
               7.94282448                4.02628692               60.07156853                0.01000001               -1.10333019               -0.50045609                0.24333671                2.36585913               -0.32389784                0.42284491
               8.92829612                4.03473767               60.07181069                0.01000000               -0.73512388               -0.42635583                0.08558111                1.97326368               -0.19136610                0.30163284
               9.92812200                4.03641465               60.07530877                0.01000001               -0.01741170               -1.17987555                0.06686511                1.80049445               -0.02840708                0.37262679
              -0.01522037                5.00092088               60.05671341                0.01000003                0.01449445               -0.21548510                0.10987956                0.34044188                0.04002229                0.16303094
               0.98492457                4.98821623               60.05858079                0.01000000                0.00348511               -0.40007298                0.09097240                0.75197391                0.06481040                0.11116825
               1.98484933                4.98212835               60.06095878                0.01000001               -0.08525038               -0.44734440                0.11158059                1.26902474                0.06636648                0.09775257
               2.98321956                4.98161522               60.06368703                0.01000000               -0.21934884               -0.45611405                0.13508484                1.75266473                0.04805945                0.12127339
               3.98046235                4.98587266               60.06642483                0.01000001               -0.33868266               -0.40309201                0.15775202                2.11899681                0.01101845                0.16231735
               4.97644591                4.99382566               60.06902919                0.01000001               -0.43769874               -0.37995667                0.17474667                2.41434754               -0.03415783                0.21908011
               5.97170838                5.00380371               60.07140206                0.01000000               -0.48785924               -0.38630043                0.19149291                2.55424932               -0.08895006                0.29055947
               6.96668872                5.01377033               60.07357075                0.01000001               -0.51948438               -0.45879817                0.21370473                2.60382186               -0.15879880                0.38723024
               7.96131869                5.02239235               60.07551772                0.01000000               -0.36934548               -0.53220246                0.22531846                2.55596091               -0.18530700                0.46430584
               8.95930182                5.02634237               60.07822755                0.01000000                0.04224841               -0.94613078                0.24704844                2.23196220               -0.16947941                0.59201675
               9.96216366                5.01377664               60.08191700                0.01000001                0.28618422               -1.54534885                0.15016785                1.48728859               -0.15415365                0.55759690
               0.00326879                5.99672110               60.05939509                0.01000002                0.14017051               -0.80112575                0.24929212                0.85865760                0.02128724                0.10085221
               1.00467049                5.98343528               60.06110093                0.01000001               -0.03394130               -0.48758317                0.11111716                1.19009204               -0.00746591                0.15014783
               2.00258996                5.97725155               60.06326045                0.01000000               -0.20331788               -0.50586592                0.09784389                1.80080540                0.04260771                0.13358952
               3.00060414                5.97648452               60.06589576                0.01000001               -0.30042576               -0.46878514                0.13995345                1.93280267                0.05051061                0.14133276
               3.99658145                5.98140506               60.06877969                0.01000001               -0.40707767               -0.49722376                0.16510135                2.28629760                0.04464278                0.17393043
               4.99246258                5.98960225               60.07174914                0.01000001               -0.42985967               -0.43538974                0.18265085                2.48896537                0.03143575                0.23859519
               5.98798425                5.99961769               60.07469529                0.01000000               -0.43060304               -0.40799006                0.19876629                2.54278568                0.00402334                0.32989607
               6.98385052                6.00907342               60.07754279                0.01000000               -0.33063014               -0.45644160                0.21333672                2.39771426               -0.03153575                0.43811381
               7.98137165                6.01564287               60.08034876                0.01000000               -0.11497265               -0.63967939                0.22828905                2.07312739               -0.06265337                0.54604960
               8.98155107                6.01581506               60.08321561                0.01000002                0.08137943               -0.85819845                0.23021956                1.30761682               -0.05361579                0.57207669
               9.98299924                6.00550767               60.08654472                0.01000000                0.14481711               -0.55337809                0.20385202                0.64304371               -0.02422172                0.44092412
               0.02852442                6.98489837               60.06055480                0.96864817               -0.03284603               -0.60543689                0.09730899                0.94260659               -0.01180323                0.02663289
               1.02819596                6.97846457               60.06334515                0.52736390               -0.03541136               -0.26633393                0.12084509                0.85535636               -0.03302833                0.07025929
               2.02781620                6.97201103               60.06571455                0.01000001               -0.52369239               -0.28240467                0.13481467                1.27317867               -0.05562009                0.08744300
               3.01772211                6.97223952               60.06802694                0.01000000               -0.73728069               -0.56926829                0.14571308                1.85743647                0.00613739                0.09988125
               4.01307058                6.97592818               60.07103891                0.01000000               -0.48547640               -0.56679033                0.16759782                2.13569405                0.07181853                0.14659410
               5.00801259                6.98511787               60.07442409                0.01000000               -0.49888303               -0.45670692                0.18587346                2.45246121                0.10540346                0.22736660
               6.00309292                6.99564391               60.07800095                0.01000000               -0.46973810               -0.31311824                0.19976814                2.31379566                0.12030965                0.32486795
               6.99861782                7.00464149               60.08168011                0.01000000               -0.35266618               -0.34799625                0.21118804                1.92604991                0.11869692                0.44338117
               7.99603960                7.00959876               60.08527526                0.01000001               -0.15142350               -0.48967456                0.21851498                1.37671277                0.09808499                0.57127305
               8.99558935                7.00917840               60.08858218                0.01000002               -0.02001469               -0.52163395                0.21834782                0.72018579                0.05471330                0.60591958
               9.99563930                7.00270908               60.09128822                0.01000000                0.00499491               -0.14804982                0.20993275                0.30139058                0.02745741                0.48859486
               0.03498852                7.98461237               60.06135704                0.99999999               -0.03235619               -0.02841082                0.09652697               -0.00023545               -0.00635491                0.01018025
               1.03466496                7.97810860               60.06411753                0.99999999               -0.03549691               -0.03524103                0.11792595                0.00018869               -0.01071828               -0.00124465
               2.03427858                7.97160346               60.06679877                0.49501439               -0.04146229               -0.04070308                0.13645144                0.00082734               -0.01766869                0.00968183
               3.03383571                7.96509916               60.06938680                0.01000004               -0.39308018               -0.37921547                0.13621995                1.06043704                0.02292825                0.03035354
               4.02641698                7.97006925               60.07288252                0.01000001               -0.60198156               -0.90125843                0.16381790                2.13298687                0.11767839                0.11589431
               5.02179608                7.98046811               60.07683537                0.01000000               -0.58402188               -0.29313994                0.18221895                2.30096594                0.17905336                0.17643479
               6.01473654                7.99335532               60.08097573                0.01000000               -0.66897078               -0.08975944                0.19890569                1.92052630                0.23009253                0.26853844
               7.00841667                8.00211349               60.08549671                0.01000000               -0.51837733               -0.13067965                0.20701666                1.30518760                0.29799020                0.37755025
               8.00436900                8.00584938               60.09047186                0.01000002               -0.27861022               -0.24152696                0.20768876                0.70961403                0.30152896                0.51926861
               9.00284446                8.00538238               60.09446470                0.01000000               -0.12016468               -0.29495721                0.20518554                0.21627369                0.20696335                0.80225231
              10.00196570                8.00254667               60.09713446                0.01000000               -0.08787608               -0.01086110                0.20097815                0.06910719                0.14642974                0.56523691
               0.04152724                8.98433015               60.06220511                0.99999999               -0.03185968               -0.02820080                0.09561606                0.00024994               -0.00181015                0.00986322
               1.04120864                8.97775975               60.06493714                0.99999999               -0.03425255               -0.03491433                0.11653416                0.00096302               -0.00240447                0.00116897
               2.04084219                8.97119697               60.06768299                0.99999999               -0.03717880               -0.04123197                0.13620885                0.00359762                0.01056625               -0.00048680
               3.04046507                8.96465521               60.07072090                0.76780849               -0.02404095               -0.04800456                0.15772751               -0.00275763                0.08588695                0.01420083
               4.04036137                8.95790301               60.07502843                0.01000000               -0.48596169               -0.61973113                0.11028009                1.75795283                0.11100384                0.03838784
               5.03074583                8.97925507               60.07861314                0.01000000               -1.02516525                0.11089311                0.18131367                1.95065522                0.18697490                0.09645069
               6.01985806                8.99384872               60.08320872                0.01000003               -0.92591576                0.12587800                0.19894136                1.16371861                0.30734357                0.15626855
               7.01222752                9.00202790               60.08839060                0.01000002               -0.64475359                0.03925264                0.20484834                0.63509419                0.42901147                0.22377056
               8.00696299                9.00476822               60.09441663                0.01000001               -0.45049906               -0.03401280                0.20016987                0.19844657                0.70622797                0.32706509
               9.00321754                9.00327926               60.10373225                1.00000000               -0.21350690               -0.13171639                0.17499607               -0.05663185                0.48291580                0.48151945
              10.00269285                9.00249186               60.10335394                0.99999999               -0.05246821               -0.02852138                0.17298098               -0.00307799               -0.00158764                0.32574365
               0.04813433                9.98404835               60.06302146                1.00000000               -0.03169260               -0.02818017                0.09498531               -0.00309430                0.00474639                0.00699265
               1.04781740                9.97741032               60.06575629                1.00000000               -0.03396289               -0.03494304                0.11628572               -0.00260035                0.00602771                0.00174680
               2.04745507                9.97077882               60.06855224                0.99999996               -0.03714433               -0.04181474                0.13700807               -0.00227416                0.02258849                0.00081170
               3.04707452                9.96413907               60.07169662                0.99999998               -0.02394474               -0.05161447                0.16183948                0.00573534                0.09837169                0.00849319
               4.04697618                9.95767463               60.07601731                0.01000000               -1.11055169               -0.02283861                0.11157287                1.58882596                0.12272649                0.01483161
               5.02486348                9.98268597               60.07968696                0.01000001               -1.58690468                0.34308994                0.18244810                1.32167781                0.17115743                0.03718632
               6.01523808                9.99587288               60.08423857                0.01000001               -0.73322174                0.20241653                0.20589420                0.54863064                0.30073821                0.07475559
               7.01019905               10.00289854               60.08952002                0.01000001               -0.40757583                0.08706423                0.21072936                0.26196522                0.47292399                0.10644890
               8.00708657               10.00516912               60.09620913                0.01000000               -0.31054308                0.04009058                0.20086523                0.00483273                0.65051478                0.17527533
               9.00398819               10.00274805               60.10340510                0.99999999               -0.18038094               -0.05312123                0.17400878               -0.08257892                0.38074799                0.00203392
              10.00347895               10.00197625               60.10302677                0.99999998               -0.05092385               -0.05156123                0.17196201                0.00142908                0.00183899               -0.00183881
              -0.05448958               -0.00204432               61.04766865                1.00000000               -0.02295300               -0.02322722                0.07420829                0.00180946               -0.00804790                0.00760432
               0.94528089               -0.00559621               61.05106697                1.00000000               -0.02367941               -0.02477673                0.07924376                0.00081160               -0.00865700               -0.00154083
               1.94503684               -0.00912664               61.05445257                0.01000000                0.08347353               -0.02634297                0.08428639                0.11750336               -0.04340496               -0.00347773
               2.94695036               -0.01030036               61.05715082                0.01000002                0.16139881               -0.07098081                0.09980455                0.10339622               -0.08354124                0.01315701
               3.94826481               -0.00799011               61.05941747                0.01000000                0.06454014               -0.02318933                0.10761008                0.19367209               -0.12971995                0.01926626
               4.94824117               -0.00088967               61.06110345                0.01000000               -0.14726499                0.01705504                0.10667910                0.34852169               -0.17833393                0.02839223
               5.94531951                0.01128834               61.06263705                0.01000004               -0.66490241                0.12946392                0.07195912                0.78826904               -0.27211241                0.07844683
               6.93494312                0.03047760               61.06333525                0.97021430               -0.53264544               -0.03007145                0.09132052                0.84178123               -0.11727978               -0.00100857
               7.93466660                0.03290146               61.06639983                1.00000000               -0.02809724               -0.03104215                0.09406450                0.00046445                0.00172889                0.00008344
               8.93438117                0.03538162               61.06947280                1.00000000               -0.02892613               -0.03185649                0.09685999                0.00033444                0.00212156                0.00119275
               9.93408808                0.03791935               61.07253494                1.00000000               -0.02930938               -0.03258356                0.09971010               -0.00267433                0.00225240                0.00367191
              -0.05091960                0.99772340               61.04854122                0.99999999               -0.02502359               -0.02420316                0.08089999                0.00106284                0.00141165                0.00809371
               0.94883017                0.99415602               61.05194147                0.01000000               -0.02582303               -0.02580833                0.08591669                0.00004800                0.00425235               -0.00445519
               1.94856394                0.99060993               61.05540004                0.01000000               -0.07070547               -0.06308418                0.09094888                0.07659418               -0.02789037                0.00775927
               2.94741606                0.98898983               61.05815442                0.01000000               -0.15338793               -0.05310265                0.10871448                0.21828792               -0.07987892                0.02239216
               3.94549619                0.99177800               61.06040079                0.01000000               -0.26644485               -0.01310011                0.11740724                0.45214123               -0.13570186                0.04004008
               4.94208716                0.99928088               61.06203645                0.01000000               -0.39888072                0.01896119                0.11404678                0.74781411               -0.20963108                0.07211649
               5.93751857                1.01258298               61.06324325                0.01000001               -0.47663954               -0.00749056                0.10269805                1.10773411               -0.29005399                0.11625504
               6.93255437                1.03017688               61.06406092                0.89743882               -0.26496682               -0.03276119                0.10955198                0.76199667               -0.11224072               -0.00114593
               7.93221923                1.03259103               61.06712567                1.00000000               -0.03393992               -0.03373285                0.11269378                0.00001874                0.00012345               -0.00009235
               8.93187557                1.03506306               61.07019378                0.99999999               -0.03478114               -0.03470966                0.11557780               -0.00030987                0.00019738                0.00165510
               9.93152361                1.03759351               61.07325955                0.99999997               -0.03519612               -0.03519639                0.11809584               -0.00320021                0.00022327                0.00542671
              -0.04733356                1.99747161               61.04942665                0.01000000               -0.02711141                0.06852969                0.08761167                0.12806224                0.00332283                0.09557360
               0.95239533                1.99388762               61.05275588                0.01000000               -0.04657668               -0.09621652                0.09261728                0.08212255                0.02716813                0.06788973
               1.95173491                1.98961167               61.05656565                0.01000001               -0.11236386               -0.13671979                0.11060349                0.21045698                0.02029698                0.03470100
               2.95014805                1.98863759               61.05946421                0.01000000               -0.23591632               -0.08779725                0.12208835                0.55528024               -0.04955862                0.04972625
               3.94701658                1.99174789               61.06182589                0.01000000               -0.38777893               -0.04463023                0.13085837                0.92543034               -0.10603920                0.07963611
               4.94239247                1.99948956               61.06367462                0.01000001               -0.52191933               -0.03658271                0.13518023                1.28189982               -0.16764756                0.12576616
               5.93657820                2.01113852               61.06492514                0.01000000               -0.61087400               -0.13368610                0.13315703                1.74991017               -0.25252181                0.14938389
               6.93017499                2.02982237               61.06478637                0.01000003               -0.33986971               -0.44590319                0.12765041                1.25196347               -0.16148860                0.15670431
               7.92978080                2.03222680               61.06785107                0.36955495               -0.04012469               -0.03940673                0.13188141               -0.00092632               -0.00150850               -0.00259938
               8.92937250                2.03468743               61.07092193                1.00000000               -0.04088178               -0.04053598                0.13495917               -0.00108254               -0.00042525                0.00107684
               9.92896317                2.03721542               61.07400936                0.99999997               -0.04093328               -0.04057577                0.13608921               -0.00336132                0.00010947                0.00545628
              -0.04119037                2.99909400               61.05205399                0.01000001               -0.04770711                0.12461200                0.09750078                0.11797766                0.00818927                0.17509031
               0.95833256                2.99223169               61.05507717                0.01000000               -0.03932546               -0.20179223                0.11115449                0.25227273                0.02110033                0.10498661
               1.95802312                2.98787553               61.05817381                0.01000000               -0.09735549               -0.24001899                0.12472827                0.58339379                0.02101750                0.05690608
               2.95638545                2.98723389               61.06110790                0.01000000               -0.24351494               -0.20467239                0.13691561                0.98548325               -0.01172283                0.07372534
               3.95315282                2.99088539               61.06363758                0.01000006               -0.40254620               -0.15378623                0.14668058                1.40049723               -0.06345138                0.11165770
               4.94833452                2.99854923               61.06572652                0.01000000               -0.54844305               -0.14487318                0.15351000                1.79088471               -0.11891219                0.15472775
               5.94218396                3.00990925               61.06729786                0.01000001               -0.59145787               -0.21439903                0.15763974                1.99151465               -0.16092135                0.20075267
               6.93650537                3.02125882               61.06868007                0.01000000               -0.74241540               -0.59955205                0.16108396                1.93479787               -0.25261480                0.29082104
               7.92733565                3.03180290               61.06853406                0.01000003               -0.48200325               -0.31970648                0.16661971                1.14099282               -0.16507623                0.21470484
               8.92686530                3.03425234               61.07163625                0.05902498               -0.04676239               -0.03804392                0.15484137                0.02973541               -0.00020613                0.03497168
               9.92640040                3.03678200               61.07473421                0.99999997               -0.04648976               -0.06631504                0.15422295                0.03233891               -0.00115764                0.04799836
              -0.03124939                3.99996385               61.05470584                0.01000000               -0.00913591                0.00369182                0.09961024                0.24887770                0.00498964                0.14595155
               0.96865925                3.98985178               61.05717182                0.01000000               -0.01750085               -0.28853170                0.11922600                0.53204668                0.04374418                0.04729810
               1.96840059                3.98481129               61.06009832                0.01000000               -0.09056970               -0.35742815                0.13428163                0.99766745                0.06688640                0.04852098
               2.96684785                3.98454414               61.06303074                0.01000016               -0.23447032               -0.33002713                0.15019326                1.42842961                0.03587529                0.08885638
               3.96371118                3.98867217               61.06573924                0.01000000               -0.38307730               -0.28482245                0.16047667                1.84136706               -0.01672346                0.14041922
               4.95918631                3.99659209               61.06814544                0.01000001               -0.50061412               -0.25982704                0.17059161                2.17471040               -0.06770881                0.19118916
               5.95369890                4.00685054               61.07021688                0.01000001               -0.61045023               -0.31928222                0.18065268                2.38556258               -0.12067926                0.24968685
               6.94697730                4.01783133               61.07189977                0.01000000               -0.70458812               -0.38094714                0.19414310                2.29248426               -0.15555701                0.30158488
               7.93960714                4.02583267               61.07357353                0.01000001               -1.09945965               -0.47639543                0.18981383                2.32565503               -0.25681142                0.40824226
               8.92498811                4.03392655               61.07304192                0.01000000               -0.75282564               -0.42695497                0.16524372                1.93989003               -0.17875139                0.34902603
               9.92455063                4.03588912               61.07635002                0.01000001               -0.04374845               -1.18979263                0.15505813                1.79631486               -0.02458518                0.36034444
              -0.01598867                4.99916783               61.05744482                0.01000003                0.01147177               -0.20421367                0.09640582                0.42446237                0.07175814                0.18903595
               0.98412605                4.98646106               61.05936629                0.01000000               -0.03636119               -0.36516058                0.09535575                0.79887295                0.14998944               -0.03837460
               1.98328411                4.98072697               61.06213232                0.01000001               -0.15164402               -0.43927277                0.14704064                1.33939256                0.16350715                0.02064847
               2.98109317                4.98063334               61.06508988                0.01000000               -0.26759507               -0.44001466                0.15533157                1.80369057                0.08378879                0.11639201
               3.97793221                4.98518895               61.06805949                0.01000001               -0.37214077               -0.39231900                0.17055166                2.15587882                0.03051888                0.16658980
               4.97365035                4.99335269               61.07082580                0.01000001               -0.46381161               -0.36635217                0.18265364                2.44912416               -0.01335841                0.22274430
               5.96865597                5.00352361               61.07336824                0.01000004               -0.51387134               -0.36542498                0.19614619                2.58981812               -0.05316099                0.29053077
               6.96337293                5.01363988               61.07571245                0.01000005               -0.54512205               -0.42993466                0.20908392                2.63326348               -0.09430522                0.36684109
               7.95775353                5.02227499               61.07779115                0.01000000               -0.38831367               -0.49830910                0.21637868                2.53441731               -0.10323286                0.42495210
               8.95560665                5.02571324               61.08027370                0.01000000                0.03240159               -0.90448429                0.19563371                2.19661422               -0.07566388                0.55898646
               9.95840156                5.01298614               61.08315704                0.01000057                0.27949119               -1.54948263                0.14184510                1.47919445               -0.06307457                0.52541386
               0.00265341                5.99587958               61.06259300                0.01000003                0.04241649               -0.74901053                0.12369789                0.74149659                0.37809215               -0.34116642
               1.00307757                5.98254857               61.06208695                0.01000001               -0.08186257               -0.44003391                0.21842509                1.05974728                0.42710144               -0.09769375
               2.00101615                5.97602584               61.06404872                0.01000000               -0.23089409               -0.48075656                0.10698565                1.73616493                0.17362116                0.14364011
               2.99845969                5.97574385               61.06731536                0.01000001               -0.34533702               -0.45894874                0.15894497                1.93998056                0.10216863                0.14282991
               3.99410941                5.98082579               61.07047647                0.01000001               -0.43127809               -0.49172601                0.17381322                2.30685297                0.06378688                0.17424702
               4.98983413                5.98926505               61.07361222                0.01000004               -0.44506684               -0.42650008                0.18816840                2.53186814                0.04896466                0.23614385
               5.98520808                5.99954204               61.07671820                0.01000000               -0.44714683               -0.39179296                0.20171932                2.59986610                0.03280489                0.31741409
               6.98089119                6.00923264               61.07971496                0.01000000               -0.34929777               -0.43364990                0.21401692                2.45959822                0.01179884                0.40813211
               7.97822212                6.01586649               61.08262583                0.01000000               -0.13409743               -0.61089300                0.22103527                2.12587484               -0.00687842                0.48975645
               8.97820924                6.01583687               61.08550705                0.01000002                0.06832906               -0.81524877                0.21665741                1.33183710               -0.01581008                0.50673148
               9.97958870                6.00489947               61.08849842                0.01000000                0.13794611               -0.54162168                0.18823410                0.64909597               -0.01643872                0.43746774
               0.02550329                6.98418762               61.06154332                0.97788175               -0.03285535               -0.59928869                0.09999386                0.81740297               -0.01068296               -0.08302357
               1.02517473                6.97766038               61.06455025                0.47228624               -0.03455803               -0.26240737                0.11996459                0.77863077               -0.03670389                0.08012254
               2.02481213                6.97111184               61.06703746                0.01000001               -0.50409506               -0.26586791                0.12956123                1.20634810               -0.06167368                0.11456949
               3.01509283                6.97145437               61.06950897                0.01000000               -0.71320335               -0.58486052                0.15217316                1.83535903                0.01903567                0.10181291
               4.01054806                6.97535443               61.07272414                0.01000005               -0.47606881               -0.57835946                0.17071836                2.15720038                0.08325325                0.14800794
               5.00557146                6.98482269               61.07630521                0.01000000               -0.49311758               -0.45580673                0.18772646                2.49735045                0.11760735                0.21756418
               6.00068571                6.99568775               61.08001877                0.01000000               -0.46655046               -0.30820361                0.20084236                2.38034339                0.13641884                0.30945060
               6.99624045                7.00496688               61.08381615                0.01000000               -0.35094527               -0.33934280                0.21145944                2.00655078                0.14146342                0.41410380
               7.99366680                7.01005713               61.08748431                0.01000002               -0.15150157               -0.47454645                0.21706775                1.45728552                0.11980267                0.52742616
               8.99321042                7.00940826               61.09077487                0.01000002               -0.02042610               -0.50409602                0.21507415                0.77450064                0.06517976                0.55829433
               9.99325828                7.00215371               61.09337011                0.01000000                0.00478649               -0.13938953                0.20467352                0.33272354                0.02780160                0.46736055
               0.03205595                7.98389380               61.06234010                1.00000000               -0.03299813               -0.02931461                0.09970923               -0.00093593               -0.00639608                0.01100616
               1.03172597                7.97730042               61.06529522                0.99999995               -0.03534127               -0.03540792                0.11763767               -0.00108404               -0.01208849               -0.00269358
               2.03134913                7.97070848               61.06814498                0.46912549               -0.04008442               -0.04015975                0.13327086               -0.00667872               -0.02448650                0.01040466
               3.03092428                7.96404663               61.07084036                0.01000001               -0.37320119               -0.39151975                0.14344425                1.04531762                0.02314269                0.02890311
               4.02388510                7.96925860               61.07461459                0.01000001               -0.57382355               -0.92612677                0.16824279                2.12930863                0.12524432                0.06667119
               5.01944781                7.98014892               61.07861051                0.01000000               -0.56071738               -0.30248937                0.17728392                2.34511654                0.17872411                0.17103246
               6.01267076                7.99337797               61.08297669                0.01000000               -0.63974935               -0.09827730                0.19789044                1.97898668                0.23910052                0.25390847
               7.00665282                8.00244578               61.08757889                0.01000002               -0.48721544               -0.13924744                0.20642827                1.38213696                0.30380766                0.35486161
               8.00292645                8.00637556               61.09256208                0.01000002               -0.25250744               -0.24720421                0.20696931                0.79992035                0.30608699                0.48943987
               9.00160268                8.00575494               61.09652617                0.01000001               -0.10870840               -0.28834572                0.20397030                0.30515912                0.20698877                0.76499404
              10.00075228                8.00211168               61.09913914                0.01000000               -0.08503971                0.03231891                0.19852577                0.12570160                0.14000081                0.53794490
               0.03867134                8.98360133               61.06318538                0.99999999               -0.03329637               -0.02934750                0.09987998               -0.00049769               -0.00155387                0.01087142
               1.03833838                8.97695222               61.06610451                0.99999999               -0.03695024               -0.03457407                0.11694894               -0.00048287               -0.00150962                0.00098168
               2.03793234                8.97030864               61.06904220                0.99999995               -0.04446540               -0.03937290                0.13435502               -0.00475758                0.00468550                0.00007712
               3.03744907                8.96362397               61.07210375                0.78226810               -0.04501925               -0.03887338                0.13457850               -0.01465314                0.02341692                0.01297445
               4.03703195                8.95683189               61.07547124                0.01000000               -0.45473290               -0.62734391                0.06874168                1.74840624                0.10258240               -0.00560830
               5.02835441                8.97877290               61.08045035                0.01000000               -0.95316877                0.08794709                0.17623673                1.98575262                0.23467574                0.09210600
               6.01796858                8.99372220               61.08519077                0.01000002               -0.87344055                0.10728220                0.19612828                1.19893208                0.30507946                0.14666349
               7.01088560                9.00218193               61.09044642                0.01000002               -0.58062642                0.01584651                0.20384489                0.68185881                0.42506419                0.20979680
               8.00635605                9.00511305               61.09642249                0.01000006               -0.36540595               -0.06474062                0.19916067                0.25793940                0.69060583                0.31059325
               9.00357748                9.00364135               61.10547556                1.00000000               -0.16485984               -0.13161802                0.17292809                0.02535052                0.46902510                0.46695072
              10.00305885                9.00280009               61.10508459                1.00000000               -0.05186306                0.00835986                0.17325631                0.07321389               -0.00271080                0.31108252
               0.04534422                9.98330685               61.06399768                1.00000000               -0.03352168               -0.02944756                0.09956908               -0.00250405                0.00657305                0.00816374
               1.04500900                9.97660894               61.06692276                0.99999998               -0.03809979               -0.03432835                0.11692143               -0.00222920                0.00951408                0.00164007
               2.04458222                9.96992102               61.06992816                1.00000000               -0.04505141               -0.03876203                0.13621838               -0.00199988                0.01933315                0.00128207
               3.04410797                9.96326917               61.07308095                0.99999998               -0.04389602               -0.03548065                0.13508568                0.00542517                0.03634079                0.00406819
               4.04370430                9.95671172               61.07647653                0.01000000               -1.09177115               -0.01201715                0.07131541                1.59916961                0.11346363               -0.00754777
               5.02227255                9.98190786               61.08152023                0.01000001               -1.52319663                0.31349579                0.17589088                1.33240880                0.22024565                0.02670905
               6.01324037                9.99552362               61.08630295                0.01000001               -0.66866963                0.18014127                0.20425663                0.56992206                0.29993708                0.06763137
               7.00889916               10.00276271               61.09164389                0.01000001               -0.33072772                0.05807840                0.21123230                0.27921223                0.46226965                0.09775887
               8.00662581               10.00508075               61.09822783                0.01000000               -0.22382564               -0.00323009                0.20103653                0.04497033                0.62600204                0.16576321
               9.00442264               10.00312258               61.10514435                1.00000000               -0.13633693               -0.05187644                0.17373060               -0.05557729                0.36920930                0.00373645
              10.00389908               10.00227887               61.10475306                0.99999998               -0.05235687               -0.05212158                0.17406197               -0.00034855                0.00300863               -0.00329999
              -0.05799333               -0.00287421               62.04841211                1.00000000               -0.02294411               -0.02339779                0.07459535                0.00173168               -0.00798517                0.00765426
               0.94177723               -0.00651946               62.05185701                1.00000000               -0.02354983               -0.02469670                0.07882008                0.00068723               -0.00862006               -0.00152248
               1.94153567               -0.01014230               62.05528930                0.01000001                0.09171588               -0.02600961                0.08305458                0.12799061               -0.03669287               -0.00348926
               2.94361155               -0.01119513               62.05816781                0.01000001                0.17103287               -0.07667242                0.10175168                0.11496222               -0.07283868                0.01859993
               3.94495633               -0.00880718               62.06051875                0.01000000                0.05910440               -0.02491774                0.11333929                0.19780144               -0.12063265                0.02600855
               4.94479363               -0.00169573               62.06229876                0.01000001               -0.20864768                0.03799726                0.11417332                0.40562741               -0.20480170                0.01780783
               5.94078338                0.01209787               62.06295672                0.01272902               -0.64590789                0.10216505                0.09005231                0.76121338               -0.26634786                0.12352793
               6.93187548                0.02964822               62.06424674                0.97038357               -0.45909886               -0.03023736                0.09098144                0.75931224               -0.08892815               -0.00127964
               7.93160140                0.03208211               62.06733634                1.00000000               -0.02775446               -0.03096395                0.09321524                0.00037970                0.00164457                0.00000565
               8.93132039                0.03457775               62.07043336                0.99999999               -0.02841027               -0.03162623                0.09536301                0.00040364                0.00191184                0.00118035
               9.93103319                0.03713536               62.07352025                1.00000000               -0.02871929               -0.03223268                0.09758337               -0.00279458                0.00195002                0.00314755
              -0.05433076                0.99689181               62.04935338                1.00000000               -0.02510936               -0.02441982                0.08158980                0.00110688                0.00143474                0.00812219
               0.94541814                0.99323357               62.05279991                0.01000000               -0.02579123               -0.02576664                0.08579892                0.00004745                0.00426902               -0.00443858
               1.94515341                0.98959760               62.05630501                0.01000000               -0.06622675               -0.06532460                0.09002400                0.09106433               -0.01986405                0.01631203
               2.94409361                0.98803814               62.05926591                0.01000000               -0.14843854               -0.05812416                0.11203151                0.23643714               -0.06751496                0.03166137
               3.94218464                0.99094364               62.06162344                0.01000000               -0.28481132               -0.01446587                0.12407835                0.47546193               -0.12575529                0.04680264
               4.93839738                0.99868425               62.06329588                0.01000000               -0.47305509                0.03188483                0.13748900                0.82416622               -0.20669450                0.06386550
               5.93272354                1.01311952               62.06427561                0.01000001               -0.44604503               -0.07521942                0.12053663                1.17336780               -0.29183681                0.14652655
               6.92947648                1.02934584               62.06516152                0.89241463               -0.17915564               -0.03310071                0.11050457                0.69309668               -0.10991057               -0.00150174
               7.92914043                1.03177247               62.06825427                1.00000000               -0.03393417               -0.03383251                0.11295447                0.00003789                0.00041019                0.00013706
               8.92879780                1.03426149               62.07134886                1.00000000               -0.03463913               -0.03459465                0.11533273               -0.00006634                0.00026907                0.00184942
               9.92844765                1.03681303               62.07443739                0.99999999               -0.03501534               -0.03510754                0.11746930               -0.00309633                0.00014762                0.00465165
              -0.05065471                1.99663739               62.05030773                0.01000001               -0.02729055                0.06259310                0.08859944                0.14006759                0.00330677                0.09953465
               0.94907238                1.99296520               62.05368306                0.01000000               -0.03964515               -0.10981585                0.09279985                0.09631149                0.03571185                0.07743168
               1.94855238                1.98855121               62.05771002                0.01000001               -0.10390654               -0.14692211                0.11675101                0.23463571                0.02956758                0.05549311
               2.94699425                1.98764239               62.06072808                0.01000000               -0.23664587               -0.09337677                0.12850985                0.58774687               -0.04522208                0.06527286
               3.94381947                1.99090350               62.06318760                0.01000000               -0.39465861               -0.04550895                0.13913191                0.96493240               -0.10048857                0.08911306
               4.93910108                1.99894197               62.06508351                0.01000001               -0.51151642               -0.04249997                0.14421469                1.33071214               -0.16314727                0.12832480
               5.93358914                2.01059348               62.06633663                0.01000000               -0.60083065               -0.19478212                0.14755766                1.82097768               -0.25663048                0.15803922
               6.92708447                2.02898620               62.06607447                0.01000003               -0.34513153               -0.43965004                0.12987692                1.23750687               -0.16816450                0.16326971
               7.92668651                2.03140546               62.06917323                0.37651458               -0.04029844               -0.03996833                0.13283131               -0.00043371               -0.00047704                0.00303859
               8.92627850                2.03388586               62.07227296                1.00000000               -0.04091592               -0.04062795                0.13541245               -0.00050313               -0.00021217                0.00173768
               9.92586819                2.03643321               62.07537779                0.99999996               -0.04103079               -0.04097849                0.13721432               -0.00321623               -0.00005511                0.00453485
              -0.04418504                2.99814367               62.05308261                0.01000001               -0.03844087                0.09608063                0.10674051                0.13301751                0.01099864                0.17514072
               0.95543056                2.99103725               62.05626332                0.01000000               -0.03230096               -0.24358116                0.12593548                0.28819963                0.02047101                0.13284695
               1.95516895                2.98665916               62.05950867                0.01000000               -0.09671514               -0.26704314                0.13897384                0.63341221                0.01672555                0.08132414
               2.95349625                2.98617061               62.06254874                0.01000000               -0.24926200               -0.21202176                0.14854524                1.03758900               -0.01584039                0.09431836
               3.95018371                2.99003346               62.06515964                0.01000006               -0.40873040               -0.15250682                0.15477433                1.44034758               -0.06408796                0.12469020
               4.94532164                2.99783425               62.06730771                0.01000000               -0.55424205               -0.15080446                0.16049309                1.81821019               -0.11654496                0.16302471
               5.93909886                3.00922388               62.06890930                0.01000001               -0.59534989               -0.21632158                0.16169928                1.99027327               -0.15829288                0.20904254
               6.93341465                3.02055284               62.07029448                0.01000000               -0.74333851               -0.58687546                0.16108399                1.92798453               -0.24781708                0.30337040
               7.92423209                3.03097310               62.07015492                0.01000001               -0.48273304               -0.31053930                0.16025386                1.13778427               -0.16685764                0.21709432
               8.92375999                3.03344893               62.07318670                0.06345807               -0.04717324               -0.04025623                0.15579282                0.03432337               -0.00455525                0.05176738
               9.92328863                3.03599346               62.07629528                0.99999998               -0.04713570               -0.06172477                0.15716651                0.01174877               -0.00132692                0.06273013
              -0.03378152                3.99855900               62.05570283                0.01000000                0.01024072               -0.06646161                0.11133331                0.28130212                0.01100333                0.15133207
               0.96632088                3.98809358               62.05858459                0.01000000               -0.00656021               -0.42518221                0.15132324                0.62288225                0.03181376                0.06209043
               1.96608727                3.98321035               62.06159905                0.01000000               -0.09745765               -0.40341246                0.16549850                1.12676538                0.04316989                0.08444731
               2.96437173                3.98340195               62.06464196                0.01000003               -0.25622457               -0.32560869                0.16735836                1.50574705                0.02037341                0.10865699
               3.96096278                3.98785337               62.06741114                0.01000000               -0.40484318               -0.27831165                0.17080093                1.88385160               -0.02303026                0.15228179
               4.95627487                3.99592588               62.06988749                0.01000001               -0.51433847               -0.25102418                0.17507517                2.19810140               -0.06299304                0.19873790
               5.95067601                4.00626705               62.07204077                0.01000001               -0.61899650               -0.30554393                0.18060354                2.39912277               -0.10803225                0.25638624
               6.94389494                4.01724869               62.07375107                0.01000001               -0.70649546               -0.36304403                0.18296581                2.29463420               -0.14063195                0.30720370
               7.93654610                4.02519467               62.07536481                0.01000000               -1.09751660               -0.45670053                0.17301140                2.31463662               -0.24790852                0.41036314
               8.92194460                4.03308074               62.07511557                0.01000000               -0.77659970               -0.41959796                0.23193347                1.93333532               -0.18076704                0.37155706
               9.92101411                4.03519871               62.07840993                0.01000001               -0.09304967               -1.19284730                0.22843423                1.80414062               -0.01069299                0.36875212
              -0.01762815                4.99681444               62.05864152                0.01000003                0.08650046               -0.63798644                0.10574015                0.85312975               -0.01875874                0.11588794
               0.98323686                4.98253361               62.06048790                0.01000000                0.00120149               -0.58980665                0.18932415                1.36061968                0.09626446                0.07403504
               1.98239588                4.97859091               62.06389960                0.01000001               -0.21343420               -0.39955621                0.18751526                1.59357646                0.13594785                0.02956397
               2.97896817                4.97965844               62.06679366                0.01000000               -0.35295384               -0.42399597                0.18453658                1.88621768                0.05089906                0.12903641
               3.97533681                4.98446723               62.06983587                0.01000001               -0.40490932               -0.38140111                0.18057985                2.18764369                0.02168962                0.16986398
               4.97086999                4.99281376               62.07268226                0.01000001               -0.47891481               -0.35400815                0.18570854                2.47855216               -0.00757496                0.22342837
               5.96575851                5.00311300               62.07532498                0.01000004               -0.52451371               -0.34758070                0.19324025                2.61699013               -0.03464168                0.28711964
               6.96037971                5.01329196               62.07775243                0.01000001               -0.55328639               -0.40581668                0.19893433                2.65050129               -0.06895847                0.36046718
               7.95469278                5.02183909               62.07984530                0.01000000               -0.39785303               -0.47249116                0.20149049                2.53304509               -0.08373549                0.42069368
               8.95242265                5.02505697               62.08214022                0.01000000                0.02213549               -0.88161095                0.18511820                2.18575469               -0.06736181                0.55799837
               9.95513549                5.01213652               62.08475391                0.01000003                0.27128395               -1.55773824                0.16920853                1.49163508               -0.05828434                0.51233462
               0.01184273                5.98579927               62.06186905                0.03577838               -0.00859313               -0.66618198               -0.02151832                1.04607017                0.65001263               -0.35428309
               1.01175680                5.97629745               62.06546943                0.01000001               -0.55043799               -0.28374299                0.17233848                1.40754204                0.44428435               -0.09956522
               2.00083397                5.97521922               62.06540016                0.01000000               -0.77685179               -0.41923747                0.22310091                1.89263519                0.04095290                0.12709806
               2.99621977                5.97492203               62.06907466                0.01000001               -0.46368239               -0.44538269                0.17875077                1.92270469                0.08963010                0.13393653
               3.99156033                5.98022534               62.07225595                0.01000001               -0.45098138               -0.48585093                0.18089428                2.32631461                0.05465430                0.16727367
               4.98720014                5.98884572               62.07551251                0.01000004               -0.45113543               -0.41714471                0.18884455                2.56451042                0.05602428                0.22811921
               5.98253762                5.99931544               62.07872968                0.01000004               -0.45106324               -0.37692844                0.19836019                2.64192427                0.04950068                0.30462730
               6.97817887                6.00913236               62.08182313                0.01000000               -0.35478133               -0.41161621                0.20628413                2.50156292                0.03553032                0.38860992
               7.97544199                6.01574485               62.08476947                0.01000000               -0.14083002               -0.58140328                0.20838144                2.15501552                0.01573815                0.46689501
               8.97536227                6.01544852               62.08754876                0.01000001                0.06228677               -0.78659029                0.20146615                1.34417937               -0.00006105                0.49158221
               9.97668773                6.00404395               62.09030940                0.01000000                0.13254523               -0.53604715                0.18560166                0.65301040               -0.00624815                0.44264360
               0.02229691                6.98349080               62.06255467                0.98585384               -0.03291602               -0.13044195                0.10176338                0.19217600               -0.00952311                0.00506600
               1.02196775                6.97685875               62.06574444                0.41340497               -0.03364541                0.01015146                0.11890643                0.17884376               -0.04097394               -0.03003488
               2.02162400                6.97020616               62.06830577                0.01000003               -0.47758028               -0.27062029                0.12385252                1.06508876               -0.06018561                0.11214649
               3.01241614                6.97075078               62.07107040                0.01000000               -0.68422962               -0.59197937                0.15797645                1.80766180                0.02344712                0.08211133
               4.00793941                6.97475021               62.07445328                0.01000000               -0.46730218               -0.57848834                0.17208674                2.16557419                0.08555211                0.13610584
               5.00307010                6.98447087               62.07817862                0.01000001               -0.48145274               -0.45510517                0.18527475                2.53162769                0.12403590                0.20216103
               5.99831035                6.99557443               62.08201779                0.01000000               -0.45442696               -0.30269731                0.19707512                2.43006584                0.14854882                0.29100828
               6.99398156                7.00505964               62.08590930                0.01000000               -0.34167111               -0.32759521                0.20531643                2.06825707                0.15676619                0.38959296
               7.99147693                7.01021102               62.08961661                0.01000001               -0.14872107               -0.45224264                0.20858850                1.51834972                0.13424565                0.49727959
               8.99100714                7.00932517               62.09288366                0.01000002               -0.02360457               -0.47334766                0.20612115                0.81247284                0.07286485                0.53256954
               9.99100484                7.00141557               62.09538169                0.01000000               -0.00022990               -0.12264278                0.19926857                0.35164365                0.02850912                0.46072549
               0.02895036                7.98319044               62.06335122                0.99999999               -0.03320438               -0.03003978                0.10191533               -0.00094607               -0.00585970                0.01283671
               1.02861831                7.97650048               62.06647028                1.00000000               -0.03533205               -0.03534527                0.11713373               -0.00148678               -0.01217603               -0.00322981
               2.02824371                7.96980682               62.06946419                0.43693548               -0.03946792               -0.03954172                0.13110468               -0.00526885               -0.02829120                0.01270937
               3.02782895                7.96308244               62.07225569                0.01000005               -0.35459969               -0.40383356                0.13545757                1.04684903                0.02326331                0.01953614
               4.02115172                7.96865558               62.07624738                0.01000000               -0.54102410               -0.94106499                0.15713642                2.13940890                0.12782451                0.02861192
               5.01700847                7.97974362               62.08038105                0.01000000               -0.53007769               -0.31416990                0.17700118                2.36278129                0.18639020                0.15167988
               6.01055017                7.99326149               62.08493354                0.01000000               -0.60505241               -0.10593533                0.19263435                2.02450336                0.24850917                0.23563821
               7.00490742                8.00258045               62.08962528                0.01000001               -0.45033570               -0.14503990                0.20120774                1.44770134                0.30943163                0.33196287
               8.00154345                8.00670000               62.09461125                0.01000002               -0.22501203               -0.24483421                0.20132889                0.88350722                0.30906198                0.46274156
               9.00040718                8.00598156               62.09854411                0.01000001               -0.10018318               -0.26625350                0.19868990                0.39099441                0.20610169                0.73184355
               9.99953979                8.00159109               62.10110498                0.01000000               -0.08673932                0.08420080                0.19487596                0.18173911                0.13411019                0.51634151
               0.03565791                8.98289000               62.06420271                1.00000000               -0.03362733               -0.03017049                0.10264714               -0.00055273               -0.00041702                0.01286392
               1.03532163                8.97615184               62.06727612                0.99999999               -0.03606243               -0.03469347                0.11685908               -0.00078911                0.00068687                0.00138267
               2.03493666                8.96941533               62.07037009                0.99999998               -0.04086348               -0.03871419                0.13032026               -0.00189505                0.00138619                0.00081991
               3.03450436                8.96267411               62.07341247                0.66728172               -0.04351212               -0.04082116                0.13839131               -0.00312021                0.00091538                0.01022554
               4.03406642                8.95592891               62.07640327                0.01000000               -0.43922759               -0.65712436                0.13981760                1.75839082                0.13434485               -0.03848185
               5.02571981                8.97818747               62.08213787                0.01000000               -0.90514162                0.06683903                0.16633150                1.99801599                0.27507257                0.07712623
               6.01596358                8.99345573               62.08713129                0.01000001               -0.81113630                0.08698349                0.19110701                1.22671797                0.31317410                0.13436892
               7.00949709                9.00215884               62.09246749                0.01000002               -0.51088083               -0.00608396                0.19909825                0.72353760                0.42270677                0.19462233
               8.00574597                9.00531434               62.09839984                0.01000000               -0.27805768               -0.09131411                0.19512907                0.32019768                0.67415616                0.29363754
               9.00393593                9.00400010               62.10719082                1.00000000               -0.11626984               -0.12481849                0.17018397                0.11126032                0.45504309                0.45103612
              10.00342057                9.00309959               62.10681907                0.99999999               -0.05153624                0.04911135                0.17366503                0.14904500               -0.00273429                0.29853385
               0.04241562                9.98258703               62.06501284                1.00000000               -0.03384202               -0.03029782                0.10250380               -0.00227013                0.00980765                0.01007757
               1.04207720                9.97580661               62.06809472                0.99999997               -0.03660390               -0.03452354                0.11684864               -0.00216761                0.01500579                0.00176244
               2.04168355                9.96903253               62.07127661                0.99999997               -0.04121187               -0.03827971                0.13116255               -0.00234056                0.02045270                0.00099074
               3.04125297                9.96226602               62.07439833                0.99999998               -0.04386848               -0.04080902                0.14035610               -0.00111182                0.01781451               -0.00288395
               4.04080618                9.95551309               62.07744361                0.01688823               -1.09054945               -0.04158221                0.14366939                1.61469484                0.14790916               -0.01468165
               5.01944198                9.98108040               62.08320478                0.01000001               -1.48465081                0.28929244                0.16820977                1.34662016                0.26582540                0.01750882
               6.01111316                9.99500116               62.08832370                0.01000001               -0.59612081                0.15454358                0.19885792                0.58387660                0.31213588                0.05945348
               7.00751956               10.00245877               62.09374467                0.01000000               -0.25035063                0.02999367                0.20732046                0.29587507                0.45431468                0.08853765
               8.00610615               10.00487371               62.10022986                0.01000000               -0.13362100               -0.04406278                0.19828446                0.08733904                0.60128950                0.15578991
               9.00484714               10.00348519               62.10687971                0.99999999               -0.08922196               -0.05149030                0.17332816               -0.02389881                0.35467260                0.00361048
              10.00432171               10.00257332               62.10650801                1.00000000               -0.05254334               -0.05262700                0.17682481               -0.00107382                0.00329406               -0.00323769
              -0.06153907               -0.00377378               63.04916056                1.00000000               -0.02296215               -0.02359931                0.07509410                0.00164282               -0.00797503                0.00766462
               0.93823131               -0.00751246               63.05264338                1.00000000               -0.02343751               -0.02463374                0.07845918                0.00055852               -0.00861843               -0.00151736
               1.93799218               -0.01122784               63.05611366                0.01000000                0.10164150               -0.02567165                0.08182741                0.14024227               -0.02890973               -0.00349471
               2.94026414               -0.01212457               63.05918585                0.01000001                0.18645118               -0.08126372                0.10004228                0.12574578               -0.05683583                0.02610046
               3.94172120               -0.00967931               63.06168426                0.01000000                0.07215116               -0.02754883                0.11147203                0.20283272               -0.11145046                0.03015281
               4.94170716               -0.00252774               63.06338692                0.01000001               -0.18383140                0.03011878                0.11031948                0.39941459               -0.16664566                0.04992030
               5.93804458                0.01112112               63.06443810                0.01000002               -0.64611126                0.10124880                0.11304411                0.73467213               -0.16018295               -0.05468238
               6.92878494                0.02862246               63.06515488                0.97048374               -0.47658476               -0.03033398                0.09067052                0.75648657               -0.11866039               -0.00132998
               7.92851288                0.03106571               63.06826414                1.00000000               -0.02747156               -0.03088249                0.09237352                0.00031019                0.00147788               -0.00001389
               8.92823551                0.03357423               63.07138006                1.00000000               -0.02797917               -0.03137809                0.09401306                0.00034743                0.00168144                0.00116474
               9.92795330                0.03614801               63.07448661                1.00000000               -0.02822083               -0.03190019                0.09573562               -0.00300183                0.00170015                0.00287989
              -0.05778396                0.99599023               63.05017302                1.00000000               -0.02521178               -0.02465760                0.08234181                0.00114654                0.00144010                0.00812309
               0.94196393                0.99224120               63.05365745                0.01005278               -0.02576926               -0.02573479                0.08570705                0.00005874                0.00427152               -0.00443514
               1.94170066                0.98851544               63.05720052                0.01000000               -0.06082985               -0.06271439                0.08907508                0.10553245               -0.01007617                0.02750649
               2.94074733                0.98706279               63.06039505                0.01000000               -0.13747723               -0.06076035                0.11098677                0.25158301               -0.05209560                0.04414086
               3.93895111                0.99004521               63.06288235                0.01000000               -0.27231165               -0.01633720                0.12282403                0.48204163               -0.10125199                0.05337102
               4.93530110                0.99777345               63.06478623                0.01000000               -0.45674582                0.02859802                0.13563479                0.81808688               -0.15098691                0.05601793
               5.92981620                1.01213360               63.06565398                0.01000001               -0.44617968               -0.07277468                0.13479410                1.14778598               -0.15563693                0.00315079
               6.92637750                1.02831912               63.06627101                0.88623744               -0.18880506               -0.03338242                0.11139120                0.69067249               -0.12419941               -0.00159708
               7.92604010                1.03075689               63.06938476                1.00000000               -0.03398355               -0.03393961                0.11320461                0.00006140                0.00057904                0.00017361
               8.92569783                1.03326045               63.07250043                1.00000000               -0.03453011               -0.03449410                0.11502677                0.00001567                0.00033318                0.00187160
               9.92534949                1.03582901               63.07560893                0.99999999               -0.03483368               -0.03498903                0.11678618               -0.00318819                0.00014798                0.00434506
              -0.05401808                1.99573307               63.05119864                0.01000000               -0.02746495                0.06057385                0.08959310                0.14658408                0.00330095                0.10673187
               0.94570727                1.99197284               63.05461187                0.01000000               -0.03503399               -0.11270521                0.09295944                0.10683979                0.04690338                0.09406344
               1.94528124                1.98751787               63.05890068                0.01000001               -0.09706176               -0.14512291                0.11761155                0.25294659                0.03877298                0.08644965
               2.94376604                1.98666022               63.06203441                0.01000000               -0.23149315               -0.09282100                0.12875317                0.60732100               -0.04208217                0.08760907
               3.94065138                1.98999395               63.06460852                0.01000000               -0.38927680               -0.04447762                0.13869484                0.97724858               -0.09084941                0.09922579
               4.93598050                1.99804422               63.06655891                0.01000001               -0.50983767               -0.03838511                0.14451389                1.33122702               -0.14191587                0.10303948
               5.93045462                2.00966562               63.06787629                0.01000000               -0.60027001               -0.18738212                0.14687851                1.80628661               -0.27541308                0.13391221
               6.92397510                2.02795481               63.06738391                0.01000003               -0.34409232               -0.43347431                0.13199976                1.23236018               -0.18013716                0.16802852
               7.92357278                2.03038692               63.07050769                0.38619656               -0.04057002               -0.04018431                0.13412257               -0.00021405                0.00015086                0.00542639
               8.92316370                2.03288435               63.07363018                1.00000000               -0.04101856               -0.04076867                0.13610403               -0.00013443               -0.00003849                0.00188701
               9.92275241                2.03544823               63.07675364                0.99999999               -0.04112922               -0.04122774                0.13779311               -0.00325132               -0.00009674                0.00436585
              -0.04733182                2.99720171               63.05418880                0.01000001               -0.03522620                0.08492559                0.11084705                0.13980062                0.01790524                0.19560963
               0.95231592                2.98998710               63.05759588                0.01000000               -0.02979851               -0.25519181                0.13068107                0.30516534                0.01472037                0.18489685
               1.95207221                2.98561298               63.06095329                0.01000000               -0.09491255               -0.27042797                0.14238420                0.65723234                0.00022559                0.13280125
               2.95041767                2.98520637               63.06407880                0.01000000               -0.24800643               -0.20939322                0.15017343                1.06099323               -0.03085773                0.12774951
               3.94711209                2.98915565               63.06673306                0.01000003               -0.40818540               -0.14761879                0.15490351                1.45765235               -0.07107592                0.13911001
               4.94225396                2.99700574               63.06893638                0.01000000               -0.55403724               -0.14259571                0.15963974                1.82733157               -0.12061470                0.16602079
               5.93603134                3.00838596               63.07053185                0.01000001               -0.59752789               -0.20515173                0.16047144                1.99319699               -0.15954849                0.20586875
               6.93030341                3.01964963               63.07190175                0.01000000               -0.74625313               -0.57186789                0.15994495                1.92163819               -0.25175393                0.30917971
               7.92110628                3.02995320               63.07173913                0.01000001               -0.48347852               -0.30186838                0.15796106                1.12535665               -0.17082123                0.21373728
               8.92063384                3.03244507               63.07475210                0.10338183               -0.04747904               -0.02400905                0.15736916                0.01076008               -0.00666815                0.09152012
               9.92015670                3.03500445               63.07787754                1.00000000               -0.04771375               -0.03213479                0.15894399                0.00571999               -0.00156613                0.09882182
              -0.03679284                3.99743158               63.05693251                0.01000000                0.01921459               -0.09411666                0.11931476                0.30750295                0.00339403                0.17868100
               0.96339930                3.98686901               63.06019829                0.01000000               -0.00002697               -0.44650875                0.16027569                0.65775347               -0.00259631                0.19805713
               1.96320662                3.98210931               63.06340829                0.01000000               -0.09780343               -0.40479218                0.17222280                1.16142187               -0.01614136                0.16868075
               2.96144323                3.98247235               63.06637790                0.01000003               -0.26007832               -0.32124984                0.16980175                1.53447355               -0.03148194                0.15451568
               3.95800505                3.98704157               63.06915526                0.01000000               -0.40732050               -0.27071177                0.17101488                1.90426318               -0.04573940                0.16708764
               4.95329682                3.99519230               63.07164694                0.01000001               -0.51651856               -0.24047530                0.17319165                2.21383948               -0.06960916                0.20327347
               5.94767468                4.00556259               63.07382895                0.01000001               -0.62281008               -0.29044336                0.17640248                2.40933877               -0.10646956                0.25844887
               6.94084062                4.01651745               63.07555909                0.01000000               -0.71951049               -0.34362350                0.17796418                2.29785016               -0.14548811                0.30779674
               7.93328447                4.02434956               63.07703376                0.01000000               -1.12564853               -0.43344984                0.17844786                2.32357328               -0.21956591                0.41429396
               8.91832765                4.03240416               63.07768059                0.01000000               -0.77682124               -0.40025282                0.18540347                1.95864749               -0.15418724                0.34729488
               9.91774804                4.03480553               63.08091870                0.01000001               -0.05796067               -1.18355428                0.18134390                1.83272776                0.00181976                0.33760937
              -0.02005660                4.99531938               63.05955962                0.01000000                0.08498655               -0.62754091                0.09519000                0.83604204               -0.00363639                0.18083668
               0.98079326                4.98105692               63.06315277                0.01000000               -0.01230472               -0.57841429                0.20937446                1.36153054               -0.05006315                0.24049168
               1.97969730                4.97751714               63.06588263                0.01000001               -0.23091913               -0.39738429                0.19198803                1.63739053               -0.07780298                0.19672432
               2.97617488                4.97878137               63.06878061                0.01000000               -0.36099524               -0.41632575                0.18855887                1.90887721               -0.03164545                0.14771615
               3.97247740                4.98374142               63.07167109                0.01000001               -0.40825712               -0.37438640                0.18007854                2.20872346               -0.01426734                0.17379383
               4.96800974                4.99219624               63.07453997                0.01000001               -0.47922141               -0.34306127                0.18243247                2.50098715               -0.01454233                0.22136053
               5.96289297                5.00257709               63.07723305                0.01000003               -0.52681486               -0.33104051                0.18731340                2.63968586               -0.03074286                0.28282587
               6.95747344                5.01277716               63.07969114                0.01000004               -0.56009705               -0.38347406                0.19122508                2.67142474               -0.06078352                0.35506831
               7.95169103                5.02128421               63.08182096                0.01000000               -0.40613180               -0.44582419                0.19236338                2.55948209               -0.08202821                0.42181229
               8.94935081                5.02444002               63.08397606                0.01000000                0.01587411               -0.87395472                0.19187924                2.21948014               -0.06881281                0.51450112
               9.95200851                5.01133337               63.08654121                0.01000000                0.26577065               -1.58404908                0.18843105                1.49905607               -0.05806355                0.46586334
               0.00845290                5.98488077               63.06216264                0.01777781               -0.00207563               -0.62563033               -0.02124247                0.99148990               -0.33450395                0.33161846
               1.00843215                5.97530072               63.06553372                0.01000001               -0.51114627               -0.24990481                0.10782645                1.35458772               -0.35276692                0.20327915
               1.99822998                5.97416163               63.06851074                0.01000000               -0.75178225               -0.41131989                0.23620363                1.87151366               -0.12559960                0.09614041
               2.99339650                5.97414584               63.07089038                0.01000001               -0.47326621               -0.44328998                0.18037937                1.93158021               -0.03906795                0.11446387
               3.98876465                5.97955385               63.07409435                0.01000001               -0.44578062               -0.48281511                0.17861169                2.34293621                0.03060517                0.15404661
               4.98448089                5.98833108               63.07738911                0.01000003               -0.44385897               -0.40994356                0.18431183                2.59329266                0.05127676                0.21663385
               5.97988747                5.99894178               63.08068541                0.01000000               -0.44594427               -0.36365211                0.19174791                2.67749606                0.05563696                0.29191995
               6.97556200                6.00884797               63.08384064                0.01000000               -0.35381095               -0.39102878                0.19739180                2.53974023                0.04461493                0.37453702
               7.97281125                6.01543307               63.08679346                0.01000000               -0.14469558               -0.55616320                0.19932798                2.18817111                0.02344557                0.45122018
               8.97266809                6.01492507               63.08953637                0.01000001                0.05656030               -0.76878565                0.19670394                1.36216547                0.00296779                0.48496181
               9.97394246                6.00312455               63.09221045                0.01000000                0.12743688               -0.53803622                0.19243694                0.66114298               -0.00609522                0.44065284
               0.01893329                6.98280677               63.06357859                0.99234728               -0.03291288               -0.11891295                0.10259089                0.18759253               -0.00842844                0.04275239
               1.01860416                6.97605883               63.06692838                0.35078764               -0.03254141                0.02017134                0.11773356                0.17106585               -0.04646246                0.02515423
               2.01828246                6.96929074               63.06951451                0.01000000               -0.45949457               -0.26316396                0.11726648                1.03123345               -0.05352071                0.02065855
               3.00941427                6.96991557               63.07266850                0.01000000               -0.65657875               -0.60252776                0.15407655                1.80021134                0.01668598                0.04240677
               4.00515088                6.97408512               63.07616588                0.01000001               -0.44633033               -0.58364995                0.16695797                2.18166847                0.07829065                0.11083007
               5.00048766                6.98399737               63.08001070                0.01000004               -0.46124403               -0.45539089                0.18009851                2.56137514                0.12625062                0.18395827
               5.99592600                6.99530405               63.08396028                0.01000000               -0.43553538               -0.29822682                0.19051450                2.47342274                0.15491652                0.27232834
               6.99177695                7.00495658               63.08792248                0.01000000               -0.32743258               -0.31605618                0.19720865                2.12293170                0.16410667                0.36898478
               7.98937735                7.01016094               63.09165608                0.01000001               -0.14371596               -0.42929535                0.19983375                1.57426606                0.13954701                0.47604748
               8.98890263                7.00906430               63.09489729                0.01000001               -0.02724730               -0.44202033                0.19886145                0.84872969                0.07502277                0.51482957
               9.98883241                7.00057264               63.09735549                0.01000003               -0.00702279               -0.10617098                0.19751296                0.36934863                0.02825490                0.45171238
               0.02570064                7.98250251               63.06437841                1.00000000               -0.03311503               -0.03048892                0.10307178               -0.00069149               -0.00555746                0.01468998
               1.02536949                7.97570415               63.06763790                0.99999995               -0.03513693               -0.03516955                0.11640523               -0.00117948               -0.01197762               -0.00405969
               2.02499790                7.96889835               63.07076707                0.39848718               -0.03815659               -0.03890628                0.12914410               -0.00338085               -0.03534862                0.01551807
               3.02460636                7.96209528               63.07354951                0.01000001               -0.33408360               -0.41148672                0.12745245                1.05012167                0.02093311                0.00824853
               4.01831623                7.96788085               63.07775732                0.01000000               -0.50584508               -0.96095490                0.15455531                2.14852723                0.14037667                0.01868118
               5.01448945                7.97922326               63.08215053                0.01000000               -0.49597585               -0.32528339                0.17393237                2.38682876                0.19763333                0.12930155
               6.00839671                7.99297724               63.08682937                0.01000000               -0.56628541               -0.11423162                0.18665966                2.06400072                0.25481163                0.21600089
               7.00316375                8.00252685               63.09160305                0.01000001               -0.41039268               -0.15007987                0.19401249                1.50820787                0.31228648                0.31103672
               8.00018886                8.00684716               63.09658866                0.01000002               -0.19663811               -0.23968779                0.19415546                0.96481572                0.30864098                0.44018795
               8.99923098                8.00608466               63.10049997                0.01000001               -0.09380529               -0.23689175                0.19272978                0.47552260                0.20355480                0.70370986
               9.99831275                8.00100113               63.10303666                0.01000000               -0.09182331                0.13975417                0.19204333                0.23741009                0.12853989                0.49731055
               0.03251618                8.98219699               63.06523832                1.00000000               -0.03314476               -0.03071869                0.10403331               -0.00035695                0.00017053                0.01473105
               1.03218473                8.97535543               63.06844169                0.99999999               -0.03462354               -0.03485854                0.11616361               -0.00042552                0.00061415                0.00140923
               2.03182371                8.96851262               63.07164860                0.99999999               -0.03752638               -0.03852719                0.12764082                0.00100842                0.00265476               -0.00148131
               3.03143420                8.96168584               63.07487157                0.76113921               -0.04151271               -0.04277586                0.14214446                0.00221507                0.01367150                0.01542131
               4.03099345                8.95486602               63.07826759                0.01000000               -0.41531800               -0.67717263                0.16420424                1.76728369                0.12892202               -0.03334743
               5.02312784                8.97749170               63.08377698                0.01000000               -0.85455085                0.04504785                0.16842578                2.01864586                0.27603672                0.06101174
               6.01390243                8.99301942               63.08901291                0.01000001               -0.75283269                0.06753107                0.18525785                1.25048867                0.32452632                0.12054002
               7.00807119                9.00195499               63.09442838                0.01000002               -0.43932930               -0.02738646                0.19288903                0.76316564                0.42076815                0.18022102
               8.00511585                9.00536719               63.10032507                0.01000001               -0.19060353               -0.11553320                0.18967827                0.38495923                0.65722440                0.27827087
               9.00425912                9.00432647               63.10887924                1.00000000               -0.06840907               -0.11338309                0.16749246                0.20037501                0.44066543                0.43548266
              10.00374767                9.00336773               63.10855789                1.00000000               -0.05114496                0.09175447                0.17409143                0.22390612               -0.00272606                0.28674966
               0.03937661                9.98188813               63.06604776                0.99999998               -0.03312598               -0.03088566                0.10415195               -0.00207226                0.01184485                0.01165119
               1.03904535                9.97500698               63.06925974                1.00000000               -0.03444724               -0.03484580                0.11614406               -0.00195432                0.01617925                0.00196827
               2.03868767                9.96812780               63.07255141                1.00000000               -0.03740458               -0.03848144                0.12762936               -0.00196448                0.02384020               -0.00033705
               3.03829726                9.96123977               63.07588807                1.00000000               -0.04158124               -0.04460707                0.14456538               -0.00321469                0.03377367                0.00016766
               4.03785604                9.95433739               63.07934992                0.01765677               -1.07941444               -0.05286233                0.16716986                1.63048153                0.14496459               -0.00407021
               5.01670897                9.98012422               63.08488442                0.01000001               -1.44564221                0.26325196                0.17333448                1.35763634                0.27337549                0.00871285
               6.00894320                9.99432786               63.09028010                0.01000001               -0.53148389                0.13084429                0.19305423                0.59682110                0.32746382                0.05164079
               7.00607929               10.00197912               63.09579030                0.01000000               -0.17133178                0.00241290                0.20144175                0.31124240                0.44871478                0.07986114
               8.00551656               10.00453650               63.10219352                0.01000000               -0.04206739               -0.08306869                0.19400770                0.13196552                0.57791797                0.14657458
               9.00523794               10.00381700               63.10861091                1.00000000               -0.04041027               -0.05094669                0.17291090                0.01286894                0.34057227                0.00363223
              10.00470836               10.00283622               63.10828955                0.99999998               -0.05295889               -0.05315047                0.17950679               -0.00200898                0.00323981               -0.00325037
              -0.06511847               -0.00474584               64.04991400                1.00000000               -0.02297734               -0.02379698                0.07559385                0.00155146               -0.00797561                0.00766329
               0.93465175               -0.00857797               64.05342619                1.00000000               -0.02332613               -0.02456658                0.07810402                0.00042736               -0.00861842               -0.00151722
               1.93441501               -0.01238592               64.05692585                0.01000000                0.11262388               -0.02533599                0.08061353                0.15425123               -0.02185022               -0.00349595
               2.93690423               -0.01309152               64.06016865                0.01000001                0.20556224               -0.08360749                0.09495735                0.13584414               -0.04676877                0.03249004
               3.93852625               -0.01060031               64.06274819                0.01000003                0.09013248               -0.03128919                0.10267172                0.20399626               -0.10830365                0.03783001
               4.93870688               -0.00349594               64.06450515                0.01000001               -0.13572436                0.01285540                0.10481078                0.34855146               -0.18568586                0.04008958
               5.93581176                0.00857246               64.06521761                0.01000005               -0.65153251                0.11718890                0.10070338                0.77569054               -0.19388120               -0.02358244
               6.92567623                0.02738935               64.06606015                0.97056195               -0.52029942               -0.03044874                0.09044954                0.82195582               -0.11320792               -0.00133215
               7.92540577                0.02984059               64.06918381                1.00000000               -0.02723429               -0.03082064                0.09160820                0.00022903                0.00130059               -0.00004860
               8.92513155                0.03236031               64.07231362                1.00000000               -0.02758370               -0.03115038                0.09271707                0.00025967                0.00149189                0.00114287
               9.92485410                0.03494831               64.07543496                1.00000000               -0.02774449               -0.03154098                0.09392303               -0.00325058                0.00154521                0.00275030
              -0.06127083                0.99501619               64.05100022                1.00000000               -0.02530992               -0.02489551                0.08309803                0.00118349                0.00143983                0.00812276
               0.93847607                0.99117637               64.05451405                0.01000000               -0.02574356               -0.02569920                0.08560967                0.00005958                0.00427321               -0.00443273
               1.93821429                0.98736072               64.05808651                0.01000000               -0.05530988               -0.05433197                0.08812046                0.11931718               -0.00131052                0.03759369
               2.93736987                0.98607241               64.06148565                0.01000000               -0.12229366               -0.05988331                0.10568001                0.26333018               -0.04070304                0.05643245
               3.93576842                0.98908680               64.06407992                0.01000000               -0.23819277               -0.01811904                0.11425712                0.47559685               -0.09540040                0.06250279
               4.93260601                0.99663262               64.06600858                0.01000000               -0.38211987                0.01742719                0.11377964                0.74728289               -0.14444317                0.05518966
               5.92812602                1.00974434               64.06697149                0.01000001               -0.46721459               -0.00892969                0.12243025                1.09481799               -0.17755655                0.01599261
               6.92326172                1.02708486               64.06738934                0.87966892               -0.26017184               -0.03366591                0.11228842                0.74810666               -0.13483664               -0.00166026
               7.92292259                1.02953238               64.07051836                1.00000000               -0.03407182               -0.03404920                0.11353253                0.00007113                0.00064099                0.00014577
               8.92258029                1.03204880               64.07364939                1.00000000               -0.03444946               -0.03441897                0.11478046                0.00003699                0.00036678                0.00186340
               9.92223360                1.03463290               64.07677312                1.00000000               -0.03466874               -0.03481962                0.11602537               -0.00332979                0.00016272                0.00424425
              -0.05741516                1.99475625               64.05209959                0.01000001               -0.02764230                0.06529048                0.09060138                0.14666767                0.00329987                0.11353150
               0.94230841                1.99090805               64.05554225                0.01000000               -0.03397620               -0.10137952                0.09311483                0.11278011                0.05698964                0.10791447
               1.94190531                1.98652744               64.06006226                0.01000001               -0.09318273               -0.12765734                0.11247913                0.26394999                0.04648644                0.11473510
               2.94044476                1.98571081               64.06330314                0.01000000               -0.22136683               -0.08451514                0.12207856                0.61196601               -0.04173262                0.10869123
               3.93747798                1.98903731               64.06596149                0.01000000               -0.37248827               -0.04089357                0.12976880                0.96389880               -0.08889355                0.11201234
               4.93299499                1.99685261               64.06797379                0.01000001               -0.51110501               -0.02829924                0.13548082                1.29305508               -0.14120864                0.10909681
               5.92725588                2.00839386               64.06927420                0.01000000               -0.60723344               -0.11778743                0.13433507                1.73399677               -0.27640750                0.12967087
               6.92085032                2.02671603               64.06871447                0.01000003               -0.34063087               -0.42618025                0.13403595                1.23381542               -0.18395901                0.17038143
               7.92044326                2.02915961               64.07185568                0.39625209               -0.04092748               -0.04053016                0.13548164               -0.00006900                0.00051307                0.00606895
               8.92003177                2.03167193               64.07499504                1.00000000               -0.04119675               -0.04099403                0.13688652                0.00001163                0.00010798                0.00194901
               9.91961932                2.03425191               64.07813365                1.00000000               -0.04124520               -0.04140270                0.13813554               -0.00336041               -0.00005848                0.00438469
              -0.05064109                2.99632200               64.05529956                0.01000000               -0.03984383                0.10027743                0.10686492                0.14117612                0.02152049                0.21114540
               0.94896047                2.98914878               64.05887694                0.01000000               -0.03341912               -0.22051126                0.12105949                0.29851683                0.00865925                0.23263585
               1.94869053                2.98480757               64.06235635                0.01000000               -0.09305768               -0.24364117                0.13153388                0.64564194               -0.01404206                0.17328878
               2.94709932                2.98438210               64.06555221                0.01000000               -0.23929630               -0.19601796                0.13999829                1.05058560               -0.04510645                0.15674103
               3.94390460                2.98826893               64.06825771                0.01000006               -0.39943793               -0.13901068                0.14647687                1.44927544               -0.07971683                0.15505558
               4.93911056                2.99606663               64.07050051                0.01000000               -0.54810362               -0.12324228                0.15126583                1.81668343               -0.12384892                0.17204914
               5.93294253                3.00738860               64.07211873                0.01000001               -0.59691388               -0.18295152                0.15526437                1.99366130               -0.16135514                0.20883523
               6.92717228                3.01856126               64.07349337                0.01000000               -0.74886099               -0.55503993                0.15783348                1.91316158               -0.25305899                0.31305359
               7.91796531                3.02872178               64.07331414                0.01000004               -0.48420363               -0.28804424                0.15807696                1.11288431               -0.17264993                0.21971945
               8.91748821                3.03122892               64.07633408                0.11788243               -0.04794453               -0.04346284                0.15909671                0.00136004               -0.00722357                0.05876834
               9.91700642                3.03380484               64.07947416                0.99999997               -0.04817903               -0.04823387                0.16030465                0.00533969               -0.00169476                0.06421415
              -0.04024520                3.99676180               64.05808913                0.01000000                0.00383763               -0.05604782                0.10939686                0.26129868                0.00418507                0.20273570
               0.95979317                3.98649782               64.06179011                0.01000000               -0.00849850               -0.35703868                0.13549653                0.59224685               -0.03205827                0.26578849
               1.95958483                3.98165462               64.06504351                0.01000000               -0.08990275               -0.36923132                0.14674746                1.09070424               -0.06722726                0.23176589
               2.95799512                3.98179045               64.06803800                0.01000003               -0.24029360               -0.31409105                0.15447024                1.50249818               -0.06896711                0.18613069
               3.95477895                3.98625710               64.07083144                0.01000000               -0.38930627               -0.26324537                0.16002756                1.89923988               -0.06525010                0.18009302
               4.95020899                3.99438776               64.07335132                0.01000001               -0.50722404               -0.22839158                0.16529835                2.21921754               -0.07675340                0.20765851
               5.94463447                4.00473483               64.07556882                0.01000001               -0.62143111               -0.27377646                0.17020936                2.41387152               -0.10785496                0.25881516
               6.93778037                4.01561524               64.07731035                0.01000007               -0.73005967               -0.32247435                0.17426921                2.30338677               -0.13767452                0.30619340
               7.93003328                4.02339872               64.07893377                0.01000000               -1.14022274               -0.41030716                0.18215970                2.29947069               -0.23948149                0.41008324
               8.91497592                4.03080267               64.07882364                0.01000000               -0.77294995               -0.38688554                0.13793245                1.93632251               -0.16954276                0.32940825
               9.91457428                4.03328724               64.08203681                0.01000000               -0.04016343               -1.18214056                0.13597102                1.84033190               -0.00200357                0.30645124
              -0.02488717                4.99520104               64.06054532                0.01000003                0.07997617               -0.41745595                0.08883904                0.61348075               -0.07474706                0.18608693
               0.97591259                4.98200800               64.06467539                0.01000000                0.00495787               -0.49552005                0.12366719                1.03910464               -0.15902483                0.39435103
               1.97521199                4.97742295               64.06773936                0.01000001               -0.16828914               -0.40722334                0.15226750                1.47363871               -0.17934963                0.25140526
               2.97254681                4.97810028               64.07056484                0.01000000               -0.29599448               -0.42335176                0.16134732                1.87203759               -0.09314664                0.16503870
               3.96929210                4.98300402               64.07343744                0.01000001               -0.37648147               -0.37228042                0.16786099                2.21466294               -0.04088342                0.17492770
               4.96501718                4.99149880               64.07633091                0.01000001               -0.46498036               -0.33400469                0.17377505                2.51673369               -0.02321489                0.21845917
               5.95999249                5.00191307               64.07907125                0.01000000               -0.52205240               -0.31541104                0.17978045                2.65886643               -0.03033154                0.27716397
               6.95457613                5.01211177               64.08157693                0.01000000               -0.56125994               -0.36117388                0.18501507                2.68926622               -0.05835731                0.34773693
               7.94876729                5.02051564               64.08369256                0.01000000               -0.41249901               -0.42322920                0.18588326                2.57806647               -0.07196258                0.40399902
               8.94632615                5.02349121               64.08597781                0.01000000                0.00383215               -0.82880720                0.19033208                2.23375540               -0.06066635                0.52216206
               9.94884393                5.01016203               64.08852253                0.01000000                0.25177836               -1.56222547                0.18887364                1.49925074               -0.05875437                0.47275487
              -0.00158952                5.98841268               64.06144420                0.01000000               -0.00571251               -0.65354824                0.00666163                0.83327165               -0.40475171                0.57663116
               0.99835336                5.97658742               64.06762596                0.01000001               -0.27225802               -0.33751742                0.10319606                1.21437342               -0.52106724                0.36432888
               1.99296532                5.97351015               64.07012423                0.01000000               -0.42492805               -0.45299717                0.12795880                1.81687393               -0.26784334                0.07201500
               2.98985480                5.97332342               64.07268225                0.01000001               -0.36458148               -0.45802492                0.15785213                1.94265129               -0.08601080                0.09732428
               3.98567369                5.97881149               64.07582819                0.01000001               -0.41100895               -0.48500879                0.16665196                2.36275860                0.00717841                0.13994607
               4.98163462                5.98770767               64.07919875                0.01000000               -0.42374320               -0.40550908                0.17587140                2.61993296                0.04633560                0.20502713
               5.97719883                5.99842661               64.08256463                0.01000004               -0.43357478               -0.35180169                0.18366549                2.70942554                0.05667179                0.27940863
               6.97296312                6.00839176               64.08577096                0.01000000               -0.34918304               -0.37174236                0.18918168                2.57496474                0.04825538                0.35986450
               7.97021517                6.01493414               64.08875603                0.01000000               -0.14792458               -0.52894345                0.19267395                2.21802703                0.02564057                0.43645296
               8.97000463                6.01422653               64.09148284                0.01000001                0.05012461               -0.74165263                0.19385735                1.37953115                0.00327326                0.46388560
               9.97121766                6.00204273               64.09415814                0.01000000                0.12130300               -0.52692072                0.19549844                0.67210056               -0.00713394                0.42230179
               0.01542877                6.98213008               64.06460649                0.99792098               -0.03261824               -0.32940861                0.10265468                0.50824517               -0.00743979                0.13085683
               1.01510258                6.97525766               64.06809911                0.28391955               -0.03076491               -0.08407253                0.11603269                0.49348322               -0.05414101               -0.02178440
               2.01481347                6.96836300               64.07065110                0.01000002               -0.45020437               -0.27635327                0.10836322                1.11709655               -0.04932348                0.00235899
               3.00609850                6.96893978               64.07415193                0.01000000               -0.63252241               -0.61395399                0.14051062                1.81717046                0.01817524                0.00625291
               4.00216302                6.97330384               64.07779244                0.01000000               -0.41488917               -0.59419991                0.15773797                2.20666896                0.07563837                0.09253073
               4.99780071                6.98338862               64.08178059                0.01000000               -0.43330554               -0.45721487                0.17292536                2.59138286                0.12771907                0.16635543
               5.99349691                6.99487703               64.08582808                0.01000000               -0.41164084               -0.29488683                0.18284063                2.51416800                0.15714809                0.25502624
               6.98956790                7.00467693               64.08985347                0.01000000               -0.31019245               -0.30482370                0.18908651                2.17452395                0.16613021                0.35037204
               7.98729306                7.00993677               64.09361329                0.01000001               -0.13798559               -0.40496892                0.19225148                1.62927067                0.14022311                0.45594029
               8.98680818                7.00865816               64.09686089                0.01000000               -0.03197560               -0.40763574                0.19383402                0.88562488                0.07441049                0.49734992
               9.98665355                6.99962362               64.09933195                0.01000003               -0.01546364               -0.08539162                0.19683953                0.38752330                0.02668257                0.43786276
               0.02232023                7.98182450               64.06541266                1.00000000               -0.03301317               -0.03073990                0.10366484               -0.00056218               -0.00535177                0.01615550
               1.02199010                7.97490597               64.06879839                0.99999997               -0.03475497               -0.03497331                0.11557914               -0.00101826               -0.01211261               -0.00502862
               2.02162513                7.96798309               64.07204707                0.35081843               -0.03663639               -0.03808196                0.12717242               -0.00576165               -0.04297081                0.02143505
               3.02125737                7.96104434               64.07480474                0.01000001               -0.31334451               -0.41479036                0.12076723                1.05023563                0.02378452               -0.00049908
               4.01535824                7.96692749               64.07933848                0.01000000               -0.46841404               -0.98172364                0.15335412                2.15477306                0.15146648               -0.00160539
               5.01188909                7.97856337               64.08385970                0.01000000               -0.45821769               -0.33574015                0.16798566                2.41479472                0.20143459                0.11428496
               6.00619388                7.99252887               64.08866673                0.01000000               -0.52476105               -0.12306185                0.18028449                2.10188549                0.25815315                0.19802005
               7.00139387                8.00229528               64.09350553                0.01000001               -0.36872679               -0.15504600                0.18664775                1.56691409                0.31142577                0.29206543
               7.99881935                8.00683476               64.09849436                0.01000002               -0.16817916               -0.23309329                0.18722054                1.04625337                0.30499228                0.41998827
               8.99803028                8.00607381               64.10239871                0.01000009               -0.08910655               -0.20296761                0.18749467                0.56041825                0.19931007                0.67684032
               9.99703722                8.00033489               64.10494584                0.01000002               -0.09930656                0.19790346                0.19002684                0.29386753                0.12302655                0.47713764
               0.02925458                8.98151528               64.06628337                1.00000000               -0.03309472               -0.03116608                0.10510253               -0.00029211               -0.00011443                0.01610715
               1.02892364                8.97455819               64.06959939                0.99999999               -0.03473582               -0.03480477                0.11579407               -0.00034380                0.00007115                0.00104422
               2.02855987                8.96760136               64.07292291                0.99999983               -0.03824159               -0.03814579                0.12666833               -0.00036649                0.00079583               -0.00256434
               3.02815881                8.96064398               64.07625536                0.78904180               -0.04102087               -0.04039842                0.13678500               -0.00297124                0.00615023                0.02033395
               4.02773945                8.95366937               64.07968735                0.01000000               -0.38317917               -0.68302273                0.14176126                1.76903621                0.13140586               -0.04400393
               5.02049522                8.97667382               64.08550639                0.01000000               -0.79683730                0.02381988                0.16855261                2.04183184                0.28710152                0.05274976
               6.01180271                8.99241580               64.09083645                0.01000001               -0.69474651                0.04853607                0.17997168                1.27324316                0.32746633                0.10804611
               7.00660029                9.00157601               64.09632527                0.01000002               -0.36815535               -0.04815600                0.18651115                0.80228440                0.41729313                0.16721534
               8.00443960                9.00527490               64.10219340                0.01000001               -0.10419382               -0.13832236                0.18409540                0.45236736                0.63934552                0.26438800
               9.00451642                9.00459881               64.11054067                1.00000000               -0.02154302               -0.09896620                0.16479375                0.29195238                0.42624659                0.42034405
              10.00400874                9.00358168               64.11030089                0.99999999               -0.05076779                0.13550496                0.17451006                0.29788811               -0.00272619                0.27516328
               0.03622856                9.98120118               64.06709588                1.00000000               -0.03314283               -0.03140948                0.10571899               -0.00173294                0.01214752                0.01268835
               1.03589713                9.97420988               64.07041760                0.99999998               -0.03482745               -0.03483120                0.11616425               -0.00170122                0.01622100                0.00187917
               2.03553201                9.96722017               64.07382920                0.99999999               -0.03835977               -0.03811951                0.12726705               -0.00146103                0.02279400               -0.00055025
               3.03512994                9.96023637               64.07728964                0.99999994               -0.04114451               -0.04076046                0.13866931               -0.00054368                0.02711549                0.00132041
               4.03470912                9.95326703               64.08078701                0.01477628               -1.05753194               -0.04023365                0.14380555                1.63713682                0.14910914               -0.00252118
               5.01397930                9.97903977               64.08667147                0.01000001               -1.39762819                0.23659515                0.17397940                1.36003563                0.29103538                0.00369568
               6.00675656                9.99349960               64.09218479                0.01000001               -0.46994261                0.10837995                0.18815270                0.61000504                0.33370767                0.04431334
               7.00458045               10.00133216               64.09777350                0.01000000               -0.09563326               -0.02438418                0.19520942                0.32645124                0.44257344                0.07228853
               8.00484389               10.00406831               64.10411001                0.01000000                0.04910513               -0.12065908                0.18929617                0.17854567                0.55583926                0.13828456
               9.00556255               10.00409449               64.11033793                0.99999999                0.00926667               -0.05043192                0.17249223                0.05344729                0.32701059                0.00362698
              10.00502923               10.00304499               64.11009815                0.99999999               -0.05333229               -0.05366921                0.18220888               -0.00290086                0.00324828               -0.00324611
              -0.06872298               -0.00579295               65.05067243                1.00000000               -0.02299347               -0.02399548                0.07609366                0.00145834               -0.00797569                0.00766322
               0.93104709               -0.00971852               65.05420546                1.00000000               -0.02321547               -0.02449860                0.07774862                0.00029496               -0.00861939               -0.00151669
               1.93081271               -0.01361908               65.05772593                0.01000001                0.12296643               -0.02500119                0.07940322                0.16950132               -0.01708004               -0.00349647
               2.93350642               -0.01410876               65.06108500                0.01000000                0.22029581               -0.08342852                0.08902583                0.14499017               -0.04153761                0.03730445
               3.93521863               -0.01158616               65.06373769                0.01000003                0.10088064               -0.03318852                0.09572426                0.19895350               -0.11573358                0.04095659
               4.93552403               -0.00473279               65.06548314                0.01000001               -0.13033397                0.01413974                0.09920864                0.33605473               -0.19379219                0.03760043
               5.93261195                0.00714169               65.06645217                0.01000000               -0.64847304                0.12551768                0.11448229                0.76074668               -0.25179757                0.02448483
               6.92255457                0.02593744               65.06696387                0.97083385               -0.51632623               -0.03058429                0.09034038                0.82063098               -0.13032832               -0.00136996
               7.92228543                0.02839564               65.07009630                1.00000000               -0.02701876               -0.03077062                0.09091538                0.00014838                0.00111395               -0.00009983
               8.92201419                0.03092553               65.07323440                1.00000000               -0.02719561               -0.03092386                0.09143892                0.00017488                0.00132367                0.00112731
               9.92174151                0.03352671               65.07636507                1.00000000               -0.02726801               -0.03114985                0.09207750               -0.00350385                0.00143195                0.00267586
              -0.06478282                0.99396709               65.05183498                1.00000000               -0.02540733               -0.02513404                0.08385369                0.00121926                0.00144024                0.00812182
               0.93496310                0.99003649               65.05536965                0.01000000               -0.02571628               -0.02566198                0.08550930                0.00005643                0.00427375               -0.00443196
               1.93470285                0.98613091               65.05896293                0.01000000               -0.05116217               -0.04190968                0.08716457                0.13289090                0.00497809                0.04435454
               2.93393986                0.98505695               65.06250865                0.01000000               -0.10913346               -0.05618746                0.09917325                0.27383878               -0.03526893                0.06544651
               3.93252018                0.98808196               65.06516750                0.01000000               -0.22096016               -0.01787194                0.10535313                0.46679411               -0.10305200                0.07077068
               4.92952066                0.99540860               65.06706182                0.01000000               -0.38179392                0.02335077                0.10698843                0.73172516               -0.17186532                0.06978307
               5.92488430                1.00839687               65.06810259                0.01000001               -0.46933767               -0.00149415                0.11387185                1.08984182               -0.24866491                0.06857707
               6.92013390                1.02563160               65.06851678                0.87267732               -0.25457194               -0.03395181                0.11321709                0.74254692               -0.13546641               -0.00176712
               7.91979286                1.02808794               65.07165541                1.00000000               -0.03417446               -0.03415602                0.11388222                0.00008719                0.00065839                0.00008700
               8.91945041                1.03061629               65.07479604                1.00000000               -0.03437800               -0.03434469                0.11454469                0.00004832                0.00038162                0.00186837
               9.91910530                1.03321521               65.07792944                1.00000000               -0.03451094               -0.03459127                0.11521830               -0.00348354                0.00017743                0.00421054
              -0.06083739                1.99370437               65.05301067                0.01000000               -0.02782062                0.07339944                0.09161336                0.14271944                0.00329941                0.11548737
               0.93888440                1.98976824               65.05647417                0.01000000               -0.03562657               -0.08222683                0.09326966                0.11537846                0.06375030                0.11450982
               1.93845008                1.98554273               65.06115026                0.01000001               -0.09261282               -0.10167017                0.10463346                0.27062536                0.05261694                0.12966854
               2.93703214                1.98476749               65.06447598                0.01000000               -0.21236080               -0.07253084                0.11264348                0.60940035               -0.04147122                0.12190407
               3.93420286                1.98805640               65.06720390                0.01000000               -0.35942590               -0.03475701                0.11998820                0.95080013               -0.09211393                0.12530103
               4.92984363                1.99573422               65.06926853                0.01000001               -0.50085320               -0.01697058                0.12579703                1.27253558               -0.15165610                0.13219414
               5.92418580                2.00711181               65.07056299                0.01000000               -0.60645954               -0.10644109                0.12926941                1.72256262               -0.27234188                0.14646126
               6.91771444                2.02525840               65.07006463                0.01000003               -0.34416621               -0.41583890                0.13597662                1.22568155               -0.18115827                0.16983892
               7.91730247                2.02771252               65.07321732                0.40581443               -0.04132719               -0.04092171                0.13684878               -0.00000252                0.00079125                0.00603999
               8.91688789                2.03023864               65.07636791                1.00000000               -0.04142268               -0.04122285                0.13768813                0.00006439                0.00025225                0.00201911
               9.91647402                2.03283488               65.07951636                0.99999999               -0.04138739               -0.04148160                0.13837111               -0.00350898               -0.00000415                0.00445634
              -0.05405618                2.99543508               65.05632610                0.01000000               -0.05115073                0.12680825                0.09935682                0.13200234                0.02489819                0.21154037
               0.94543231                2.98839196               65.06001707                0.01000000               -0.04138534               -0.16909547                0.10657510                0.27908891                0.00789677                0.24077765
               1.94511611                2.98409751               65.06358396                0.01000000               -0.09090610               -0.20905507                0.11530656                0.61892398               -0.01645562                0.18414517
               2.94361419                2.98360633               65.06687877                0.01000000               -0.22733313               -0.17925749                0.12557044                1.02665640               -0.04713116                0.16888482
               3.94056945                2.98738682               65.06966260                0.01000002               -0.38491111               -0.12963495                0.13445812                1.43233601               -0.08198566                0.16715820
               4.93591597                2.99506919               65.07196170                0.01000000               -0.53790371               -0.11095741                0.14174003                1.80309892               -0.12298039                0.18186987
               5.92981137                3.00626804               65.07363714                0.01000001               -0.59345755               -0.16627178                0.14878794                1.98091909               -0.15853065                0.21600979
               6.92404681                3.01731482               65.07505842                0.01000000               -0.74993990               -0.53503212                0.15533812                1.90046026               -0.24952394                0.31510202
               7.91481258                3.02726950               65.07490067                0.01000001               -0.48587353               -0.27698643                0.15983967                1.10780512               -0.17179572                0.21621546
               8.91432934                3.02979184               65.07793404                0.13339509               -0.04849669               -0.04450203                0.16093307                0.00309678               -0.00708578                0.04830138
               9.91384264                3.03238558               65.08108364                1.00000000               -0.04867025               -0.04743450                0.16157767               -0.00024542               -0.00176844                0.05263613
              -0.04411110                3.99624053               65.05912044                0.01000003               -0.00851481                0.01254806                0.09984748                0.22680510               -0.00576836                0.18799383
               0.95580375                3.98638633               65.06290822                0.01000000               -0.01373617               -0.26419322                0.10218758                0.50537590               -0.03570312                0.25222291
               1.95561418                3.98136163               65.06634324                0.01000000               -0.07638970               -0.33164911                0.11784452                0.99503795               -0.06631124                0.22527655
               2.95427596                3.98118234               65.06946731                0.01000002               -0.21137286               -0.30842198                0.13326273                1.45508811               -0.06983880                0.19024741
               3.95138672                3.98546371               65.07235581                0.01000000               -0.36257907               -0.25717952                0.14507660                1.88284746               -0.06718714                0.18659990
               4.94702438                3.99351507               65.07495291                0.01000001               -0.49140849               -0.21755963                0.15464672                2.21591641               -0.07678274                0.21161127
               5.94155855                4.00378637               65.07723314                0.01000001               -0.61510991               -0.25717432                0.16268748                2.41358164               -0.10432965                0.25869991
               6.93472218                4.01455776               65.07904447                0.01000002               -0.72884990               -0.30217650                0.17021178                2.30122958               -0.13302185                0.30227752
               7.92698155                4.02217280               65.08067695                0.01000000               -1.14442124               -0.38637888                0.17331256                2.29145831               -0.23710749                0.39996783
               8.91183376                4.02934860               65.08043924                0.01000000               -0.78499601               -0.37838898                0.17120710                1.93457829               -0.16842307                0.33550519
               9.91128163                4.03188619               65.08363812                0.01000000               -0.05521224               -1.18592196                0.17045399                1.84882644               -0.00629304                0.30940311
              -0.02981168                4.99568604               65.06133641                0.01000003                0.02304117               -0.19441547                0.08264857                0.34747771               -0.04979088                0.16487274
               0.97041873                4.98310809               65.06562612                0.01000000                0.00162710               -0.36113769                0.07729260                0.76527478               -0.12669065                0.28075420
               1.97022086                4.97746452               65.06892798                0.01000001               -0.09024314               -0.43357208                0.10587240                1.32662198               -0.14361429                0.21323341
               2.96861387                4.97743789               65.07200756                0.01000000               -0.21636015               -0.43385503                0.13291373                1.82375393               -0.08395803                0.16034669
               3.96589366                4.98224323               65.07502831                0.01000001               -0.33511205               -0.37329704                0.15149559                2.21425547               -0.04204150                0.17476817
               4.96191163                4.99071800               65.07801547                0.01000001               -0.44266703               -0.32665637                0.16289876                2.52640518               -0.02396661                0.21570823
               5.95704032                5.00112456               65.08082866                0.01000000               -0.51133241               -0.30066277                0.17135908                2.67217148               -0.02865636                0.27118504
               6.95168498                5.01127129               65.08339144                0.01000003               -0.55947085               -0.33945203                0.17807914                2.70154525               -0.05483159                0.33675358
               7.94585090                5.01954193               65.08553863                0.01000000               -0.41887331               -0.39656948                0.18254910                2.57917052               -0.07213623                0.39135863
               8.94330751                5.02222406               65.08778271                0.01000000               -0.00534577               -0.80144506                0.18196505                2.23114516               -0.06270731                0.51545863
               9.94574399                5.00866714               65.09031868                0.01000000                0.24364723               -1.55625130                0.18299877                1.50268528               -0.05835567                0.46917785
              -0.01200564                5.99235222               65.06229587                0.01000003                0.13364121               -0.71152975                0.13799352                0.76168172               -0.21189108                0.37797533
               0.98933077                5.97916358               65.06759764                0.01000001               -0.00887697               -0.43286925                0.02455945                1.06979796               -0.23024892                0.27009321
               1.98781682                5.97269018               65.07106992                0.01000000               -0.16792168               -0.50247167                0.08165053                1.71819850               -0.15148990                0.06235516
               2.98597233                5.97250524               65.07404742                0.01000001               -0.27125456               -0.47598739                0.12871186                1.96650720               -0.06456992                0.08810334
               3.98239172                5.97799776               65.07742739                0.01000001               -0.36505910               -0.49088983                0.15358682                2.38090219                0.01058358                0.13122172
               4.97867115                5.98698195               65.08090654                0.01000003               -0.39715162               -0.40272379                0.16625809                2.64350587                0.04559710                0.19574163
               5.97444869                5.99777311               65.08435872                0.01000005               -0.41677180               -0.34110394                0.17512862                2.73712676                0.05725733                0.26769103
               6.97033572                6.00776872               65.08762427                0.01000000               -0.34182498               -0.35209140                0.18151972                2.60488318                0.04917622                0.34520456
               7.96761219                6.01424141               65.09064693                0.01000000               -0.15021338               -0.50002539                0.18606145                2.24372347                0.02699364                0.41984484
               8.96733145                6.01331970               65.09341352                0.01000001                0.04184946               -0.70643121                0.19006732                1.39422117                0.00406056                0.44935691
               9.96844918                6.00076116               65.09612042                0.01000000                0.11177334               -0.50624708                0.19398519                0.67814429               -0.00818361                0.41192622
               0.01179925                6.98145545               65.06563169                1.00000000               -0.03225169               -0.56017419                0.10248023                0.84091552               -0.00659755                0.14008399
               1.01147673                6.97445071               65.06924903                0.21228987               -0.02780362               -0.25301380                0.11393828                0.75608516               -0.06546991                0.03628226
               2.01124317                6.96741509               65.07168177                0.01000001               -0.44201479               -0.28174717                0.09449063                1.18913794               -0.04862095                0.01483473
               3.00263643                6.96791815               65.07547871                0.01000000               -0.61040901               -0.62616820                0.12818690                1.84143184                0.03594381               -0.00610880
               3.99903499                6.97242543               65.07932064                0.01000007               -0.38150184               -0.60219698                0.14933629                2.23221232                0.08253468                0.07946275
               4.99500640                6.98266352               65.08346921                0.01000020               -0.40194563               -0.45993912                0.16540824                2.61978974                0.13005236                0.15283588
               5.99099608                6.99430248               65.08761709                0.01000000               -0.38460217               -0.29219178                0.17503459                2.55155936                0.15714117                0.23966939
               6.98731435                7.00422946               65.09170421                0.01000000               -0.29108438               -0.29361838                0.18123792                2.22339297                0.16516046                0.33284886
               7.98517439                7.00954142               65.09550110                0.01000001               -0.13210869               -0.37872963                0.18531654                1.68246547                0.13834922                0.43633157
               8.98467218                7.00809543               65.09877397                0.01000000               -0.03752272               -0.36890006                0.18883895                0.92175154                0.07254161                0.47755027
               9.98442394                6.99854220               65.10129228                0.01000003               -0.02482406               -0.05931105                0.19455920                0.40616745                0.02493357                0.42080588
               0.01882215                7.98114874               65.06645171                1.00000000               -0.03293180               -0.03097675                0.10425115               -0.00041348               -0.00504431                0.01762181
               1.01849283                7.97410330               65.06994948                1.00000000               -0.03450047               -0.03468014                0.11461525               -0.00118053               -0.01180855               -0.00545445
               2.01813214                7.96705524               65.07331052                0.29164849               -0.03510988               -0.03679435                0.12542426               -0.00904761               -0.05332433                0.03153886
               3.01779063                7.95998187               65.07596486                0.01000001               -0.29207712               -0.41552670                0.10909543                1.05274562                0.02584978               -0.00238452
               4.01229059                7.96595383               65.08082440                0.01000000               -0.43003655               -0.99440092                0.14427210                2.15684216                0.16619603               -0.01246137
               5.00918990                7.97778316               65.08551024                0.01000000               -0.41883252               -0.34642985                0.16190923                2.43449174                0.20543919                0.10109006
               6.00391394                7.99192928               65.09043506                0.01000000               -0.48126317               -0.13200955                0.17337767                2.13749898                0.25846198                0.18282332
               6.99956464                8.00189635               65.09533600                0.01000001               -0.32592079               -0.15990696                0.17952296                1.62416369                0.30747042                0.27489861
               7.99739553                8.00666681               65.10033307                0.01000002               -0.13994662               -0.22510639                0.18063933                1.12791596                0.29896872                0.40069110
               8.99676570                8.00594170               65.10424987                0.01000001               -0.08582593               -0.16506551                0.18268946                0.64562546                0.19402067                0.65018428
               9.99567901                7.99957494               65.10683719                0.01000002               -0.10866940                0.25882451                0.18786604                0.35076209                0.11759616                0.45635590
               0.02588185                8.98083591               65.06734037                1.00000000               -0.03352361               -0.03159275                0.10646258               -0.00018228               -0.00023191                0.01736885
               1.02554661                8.97375710               65.07075757                0.99999999               -0.03491005               -0.03475832                0.11593086               -0.00065405               -0.00028077                0.00097105
               2.02518365                8.96667920               65.07418197                0.99999999               -0.03769269               -0.03755086                0.12491561               -0.00050601               -0.00023324               -0.00366237
               3.02479276                8.95960761               65.07760727                0.81387607               -0.04065527               -0.03921269                0.13348268               -0.00253335                0.00337427                0.02898112
               4.02437054                8.95253741               65.08110281                0.01000000               -0.35359921               -0.69330854                0.14100332                1.76465588                0.13655145               -0.04831018
               5.01772078                8.97573493               65.08714803                0.01000000               -0.73688364                0.00424026                0.15978234                2.05334392                0.29489751                0.04464855
               6.00963287                8.99166229               65.09261235                0.01000001               -0.63303422                0.02940855                0.17453136                1.29488822                0.32840735                0.09795728
               7.00506009                9.00103132               65.09815861                0.01000002               -0.29727523               -0.06839616                0.18016252                0.84089501                0.41080640                0.15569855
               8.00368737                9.00503929               65.10400698                0.01000002               -0.01917672               -0.15989220                0.17865877                0.52180973                0.62027583                0.25148847
               9.00467656                9.00479412               65.11217511                1.00000000                0.02426593               -0.08233429                0.16209400                0.38518565                0.41165363                0.40508623
              10.00417269                9.00371869               65.11204810                0.99999998               -0.05038722                0.18009229                0.17493041                0.37114986               -0.00272362                0.26353882
               0.03297612                9.98051688               65.06816214                1.00000000               -0.03396601               -0.03190291                0.10782538               -0.00144845                0.01249562                0.01348411
               1.03263646                9.97340813               65.07158302                1.00000000               -0.03523036               -0.03489702                0.11715461               -0.00164892                0.01635043                0.00184919
               2.03227151                9.96630422               65.07509675                0.99999999               -0.03773509               -0.03749793                0.12595993               -0.00174001                0.02280654               -0.00094526
               3.03188175                9.95919762               65.07866146                0.99999998               -0.04075557               -0.04099942                0.13594503               -0.00192922                0.02594878                0.00151238
               4.03145640                9.95208765               65.08222603                0.01693389               -1.03749258               -0.04497580                0.14359624                1.64210276                0.15691765               -0.00344589
               5.01113190                9.97786797               65.08836401                0.01000001               -1.34705414                0.21330421                0.16471143                1.36260229                0.30450570               -0.00063084
               6.00451531                9.99251745               65.09404316                0.01000001               -0.40631848                0.08551627                0.18259719                0.62126720                0.33810993                0.03844904
               7.00300553               10.00052843               65.09969449                0.01000000               -0.02231975               -0.05028919                0.18898068                0.34211994                0.43429955                0.06570003
               8.00406892               10.00346897               65.10597944                0.01000000                0.13922447               -0.15703215                0.18464616                0.22648425                0.53459951                0.13068792
               9.00579002               10.00429501               65.11206076                0.99999999                0.05919822               -0.04991132                0.17207334                0.09673736                0.31404334                0.00362651
              10.00525288               10.00317679               65.11193373                0.99999999               -0.05371385               -0.05418958                0.18490979               -0.00380239                0.00324484               -0.00324511
              -0.07234403               -0.00691767               66.05143587                1.00000000               -0.02300986               -0.02419425                0.07659418                0.00136524               -0.00797603                0.00766316
               0.92742587               -0.01093668               66.05498117                1.00000000               -0.02310507               -0.02443047                0.07739326                0.00016250               -0.00862004               -0.00151654
               1.92719386               -0.01492985               66.05851391                0.01000000                0.13179254               -0.02466620                0.07819221                0.18529625               -0.01388470               -0.00349673
               2.93006172               -0.01519274               66.06194917                0.01000000                0.23097871               -0.08169102                0.08427473                0.15427468               -0.03852368                0.03944921
               3.93181344               -0.01264078               66.06466268                0.01000000                0.10274234               -0.03232145                0.09038770                0.19864865               -0.11650237                0.04350153
               4.93211656               -0.00590130               66.06648933                0.01000001               -0.12591787                0.01441894                0.09738250                0.33180928               -0.20070842                0.04456473
               5.92929508                0.00576131               66.06750725                0.01000000               -0.63455170                0.12437501                0.10101770                0.74814082               -0.26536606                0.02888933
               6.91942553                0.02425613               66.06786696                0.97139153               -0.50687804               -0.03073755                0.09032880                0.80535826               -0.13823078               -0.00143331
               7.91915752                0.02672038               66.07100212                1.00000000               -0.02681398               -0.03072821                0.09027480                0.00006938                0.00089326               -0.00016451
               8.91888925                0.02925958               66.07414240                0.99999998               -0.02680580               -0.03069147                0.09015323                0.00009804                0.00112717                0.00111229
               9.91862140                0.03187308               66.07727651                1.00000000               -0.02678471               -0.03072593                0.09018778               -0.00375605                0.00130267                0.00259011
              -0.06831137                0.99284039               66.05267729                1.00000000               -0.02550461               -0.02537284                0.08460948                0.00125498                0.00144037                0.00812142
               0.93143358                0.98881901               66.05622424                0.01000000               -0.02568882               -0.02562459                0.08540894                0.00005277                0.00427388               -0.00443183
               1.93117485                0.98482349               66.05982980                0.01000000               -0.04868279               -0.02851824                0.08620831                0.14666595                0.00904465                0.04730031
               2.93045993                0.98399035               66.06346911                0.01000000               -0.10103234               -0.05142439                0.09383022                0.28562461               -0.03154841                0.06982155
               3.92915421                0.98703600               66.06618698                0.01000000               -0.21131578               -0.01554970                0.10016979                0.46411221               -0.10516641                0.07688997
               4.92623361                0.99424289               66.06814834                0.01000000               -0.37282179                0.02489562                0.10722468                0.72276327               -0.17698486                0.07939462
               5.92169777                1.00700506               66.06924893                0.01000001               -0.46170188                0.00136151                0.11344992                1.07118610               -0.24514134                0.07087746
               6.91699958                1.02394876               66.06965368                0.86515679               -0.25206397               -0.03424804                0.11418730                0.72776705               -0.13609856               -0.00191742
               7.91665649                1.02641310               66.07279601                1.00000000               -0.03428460               -0.03426211                0.11424318                0.00010940                0.00066725                0.00001275
               8.91631388                1.02895266               66.07594029                1.00000000               -0.03430745               -0.03426322                0.11429689                0.00006280                0.00039272                0.00188115
               9.91597034                1.03156582               66.07907748                1.00000000               -0.03435406               -0.03431178                0.11437164               -0.00363728                0.00019158                0.00416362
              -0.06427618                1.99257488               66.05393186                0.01000023               -0.02799881                0.08013191                0.09262464                0.13691059                0.00329926                0.11351313
               0.93544383                1.98855083               66.05740764                0.01000000               -0.03839857               -0.06443646                0.09342439                0.11759323                0.06669626                0.11346153
               1.93495584                1.98449978               66.06215492                0.01000001               -0.09410681               -0.07629942                0.09799624                0.27764052                0.05762872                0.13231137
               2.93356169                1.98377878               66.06555601                0.01000000               -0.20563478               -0.06109431                0.10471583                0.60832873               -0.03761040                0.12651188
               3.93084315                1.98704822               66.06836126                0.01000000               -0.34794571               -0.02879134                0.11242321                0.94227930               -0.09046499                0.13329137
               4.92660278                1.99459661               66.07048973                0.01000001               -0.49151076               -0.01116207                0.12007562                1.25915580               -0.15031393                0.14135827
               5.92101293                2.00578854               66.07185958                0.01000000               -0.60149741               -0.09832058                0.12856863                1.69759969               -0.26999310                0.15280478
               6.91457283                2.02357117               66.07143400                0.01000000               -0.34285645               -0.40326497                0.13788178                1.20826490               -0.17747697                0.16662378
               7.91415580                2.02603514               66.07459266                0.41501049               -0.04175200               -0.04133182                0.13820983                0.00002120                0.00110456                0.00599033
               8.91373779                2.02857431               66.07774880                1.00000000               -0.04167286               -0.04145210                0.13848558                0.00006751                0.00041955                0.00212038
               9.91332235                2.03118684               66.08090107                0.99999998               -0.04154420               -0.04150104                0.13854170               -0.00367171                0.00005983                0.00452447
              -0.05752506                2.99444303               66.05728669                0.01000000               -0.06143952                0.14682433                0.09446326                0.12572911                0.02593411                0.20073991
               0.94186054                2.98753029               66.06100845                0.01000000               -0.04876110               -0.13087984                0.09776374                0.26334778                0.01305994                0.22698441
               1.94149972                2.98329750               66.06466248                0.01000000               -0.08912408               -0.18418250                0.10491166                0.59909239               -0.00730821                0.17351663
               2.94007806                2.98276847               66.06806362                0.01000000               -0.21588787               -0.16560817                0.11382769                1.00933780               -0.03829198                0.16784869
               3.93718196                2.98646018               66.07094687                0.01000002               -0.37008222               -0.12124191                0.12363552                1.41788215               -0.07482561                0.17164705
               4.93267642                2.99401965               66.07333531                0.01000000               -0.52533772               -0.10151999                0.13354753                1.78858511               -0.11672267                0.18811257
               5.92667520                3.00503865               66.07509449                0.01000001               -0.58790728               -0.15356142                0.14345596                1.96535980               -0.15046162                0.21850501
               6.92091827                3.01588346               66.07660014                0.01000000               -0.75107137               -0.51217056                0.15312630                1.88255559               -0.24197815                0.31115575
               7.91165378                3.02558646               66.07651093                0.01000001               -0.48773696               -0.26375078                0.16250613                1.09903597               -0.16821617                0.21003094
               8.91116353                3.02812362               66.07955274                0.15021475               -0.04909629               -0.04551037                0.16283453                0.00289143               -0.00687336                0.04605186
               9.91067185                3.03073580               66.08270571                1.00000000               -0.04916811               -0.04732944                0.16281670               -0.00236685               -0.00181255                0.05022055
              -0.04793612                3.99551136               66.06008608                0.01000000               -0.02075684                0.04400198                0.09752506                0.19531939               -0.00083726                0.16009832
               0.95185631                3.98593323               66.06383386                0.01000000               -0.01821867               -0.22983124                0.09311746                0.46157154               -0.01829001                0.19471679
               1.95169951                3.98081613               66.06740040                0.01000000               -0.06352739               -0.31682803                0.10267945                0.94959630               -0.03739974                0.19151467
               2.95058577                3.98046661               66.07070325                0.01000002               -0.18749487               -0.30206837                0.11833407                1.42482561               -0.04701494                0.18037031
               3.94794961                3.98462339               66.07373297                0.01000000               -0.33948779               -0.25161859                0.13230733                1.86804941               -0.05506824                0.18827774
               4.94379601                3.99256621               66.07644426                0.01000001               -0.47466473               -0.20801587                0.14438373                2.20774997               -0.06862538                0.21351950
               5.93845632                4.00271731               66.07882257                0.01000001               -0.60599442               -0.24137271                0.15515641                2.40648718               -0.09707220                0.25684319
               6.93167612                4.01332776               66.08071459                0.01000001               -0.72799776               -0.28082092                0.16485546                2.29470367               -0.12623655                0.29511303
               7.92389636                4.02076012               66.08240002                0.01000000               -1.15149195               -0.36068184                0.17262632                2.28079320               -0.23262688                0.38986051
               8.90864628                4.02766411               66.08224778                0.01000000               -0.79228531               -0.36487581                0.18645011                1.93042730               -0.16659763                0.32301908
               9.90805066                4.03024025               66.08544589                0.01000000               -0.05956277               -1.18362556                0.18632563                1.85426572               -0.00331521                0.29759960
              -0.03446241                4.99532307               66.06219829                0.01000003                0.02496154               -0.19172294                0.10454212                0.33632093               -0.02093814                0.13883531
               0.96578720                4.98293366               66.06622124                0.01000000                0.02103360               -0.37834295                0.07651098                0.73779432               -0.04321752                0.16350561
               1.96595826                4.97696094               66.06985681                0.01000001               -0.05099421               -0.44063361                0.09598230                1.27898386               -0.05585932                0.15561413
               2.96476732                4.97672710               66.07322311                0.01000000               -0.17574557               -0.44261408                0.11961400                1.80435149               -0.04544147                0.15294364
               3.96244335                4.98142781               66.07646735                0.01000001               -0.30149127               -0.37398972                0.13913443                2.21044314               -0.02631423                0.17536209
               4.95873749                4.98985933               66.07958889                0.01000001               -0.41999752               -0.31987234                0.15257114                2.53013051               -0.01775328                0.21458831
               5.95404340                5.00021119               66.08249843                0.01000002               -0.49839824               -0.28626545                0.16274016                2.67888194               -0.02420407                0.26488063
               6.94876953                5.01026704               66.08513852                0.01000000               -0.55550501               -0.31723418                0.17145948                2.70719710               -0.05084834                0.32568012
               7.94293330                5.01837283               66.08734355                0.01000000               -0.42387900               -0.36957838                0.17923351                2.58142489               -0.06940552                0.37758741
               8.94029195                5.02082610               66.08961711                0.01000000               -0.01642139               -0.77208524                0.18449001                2.23282656               -0.06135580                0.50187379
               9.94260487                5.00706329               66.09218250                0.01000000                0.23129206               -1.54662995                0.18870441                1.50319469               -0.05908313                0.45992046
              -0.01643088                5.99167690               66.06420407                0.01000005                0.14052169               -0.72735740                0.16300866                0.79517348               -0.02327958                0.14942471
               0.98497433                5.97836637               66.06811715                0.01000001               -0.00416845               -0.46510988                0.07625509                1.11412259               -0.03285183                0.12688718
               1.98348575                5.97200346               66.07175724                0.01000000               -0.13842029               -0.52709208                0.08677210                1.74505355               -0.05154882                0.05316895
               2.98220593                5.97161433               66.07525649                0.01000001               -0.22297506               -0.49134648                0.12265424                1.97756616               -0.01671462                0.08771178
               3.97902625                5.97714359               66.07889992                0.01000001               -0.32953458               -0.49658606                0.14568809                2.39671507                0.02317802                0.13017994
               4.97561524                5.98616877               66.08252391                0.01000002               -0.37000001               -0.40088474                0.15795603                2.66081106                0.04797782                0.19065202
               5.97162624                5.99699200               66.08606721                0.01000001               -0.39784031               -0.33085592                0.16669575                2.75878246                0.05774772                0.25759011
               6.96765843                6.00698308               66.08940136                0.01000000               -0.33302244               -0.33224331                0.17396664                2.62970590                0.04964998                0.33054485
               7.96496580                6.01336856               66.09247726                0.01000000               -0.15230369               -0.46977820                0.18013444                2.26481534                0.02678015                0.40266297
               8.96461236                6.01222240               66.09528418                0.01000001                0.03371946               -0.67266422                0.18537058                1.40574968                0.00335738                0.43287432
               9.96564019                5.99930765               66.09803784                0.01000000                0.10278305               -0.48701628                0.19072452                0.68406231               -0.00876772                0.39935545
               0.00806212                6.98077592               66.06665610                1.00000000               -0.03190218               -0.56043250                0.10223275                0.86828800               -0.00599145                0.09598190
               1.00774310                6.97363146               66.07037788                0.13553415               -0.02253746               -0.25390122                0.11165005                0.77819750               -0.08350470                0.06572215
               2.00761137                6.96641909               66.07254091                0.01000106               -0.42822940               -0.29448962                0.07246601                1.21631127               -0.04459524                0.03394596
               2.99917851                6.96690017               66.07671567                0.01000000               -0.58940774               -0.63731220                0.12864665                1.85657719                0.06317075               -0.01394177
               3.99582322                6.97149608               66.08077916                0.01000002               -0.35366016               -0.61237547                0.14691971                2.25259956                0.08889682                0.07222511
               4.99210531                6.98184164               66.08508875                0.01000000               -0.37092413               -0.46312078                0.15930198                2.64349825                0.13072970                0.14310047
               5.98840473                6.99359407               66.08932878                0.01000000               -0.35591086               -0.29009588                0.16754475                2.58458297                0.15480081                0.22652829
               6.98498709                7.00362217               66.09347823                0.01000000               -0.27072257               -0.28221104                0.17355877                2.26850134                0.16208613                0.31628158
               7.98299028                7.00897726               66.09731962                0.01000001               -0.12596225               -0.35129241                0.17836574                1.73348541                0.13524072                0.41673658
               8.98246784                7.00737282               66.10063767                0.01000005               -0.04373368               -0.32730230                0.18345409                0.95699581                0.07039132                0.45814082
               9.98211561                6.99732296               66.10322314                0.01000003               -0.03522365               -0.03007313                0.19079088                0.42372894                0.02327241                0.40454477
               0.01522379                7.98046825               66.06749768                1.00000000               -0.03286811               -0.03118476                0.10478915               -0.00031895               -0.00465647                0.01910988
               1.01489511                7.97328835               66.07109069                0.99999999               -0.03402625               -0.03436960                0.11359562               -0.00106280               -0.01093463               -0.00542422
               2.01454326                7.96611367               66.07455555                0.21870948               -0.03173136               -0.03386044                0.12317834               -0.01630649               -0.06830331                0.04848135
               3.01426048                7.95886809               66.07698664                0.01000001               -0.27032458               -0.41865875                0.09901013                1.04546748                0.02761161               -0.00215604
               4.00913677                7.96489608               66.08222393                0.01000000               -0.39366346               -1.00972698                0.14060220                2.15723843                0.18471972               -0.01967626
               5.00638721                7.97690635               66.08709788                0.01000000               -0.37997036               -0.35643067                0.15587721                2.45361666                0.20923672                0.08876537
               6.00153736                7.99119008               66.09213429                0.01000000               -0.43709728               -0.14136136                0.16705805                2.16940260                0.25581311                0.16972694
               6.99764527                8.00133886               66.09709599                0.01000001               -0.28262531               -0.16453424                0.17232190                1.67936630                0.30099433                0.25907471
               7.99588486                8.00634271               66.10210715                0.01000001               -0.11193462               -0.21594788                0.17409947                1.20879108                0.29113600                0.38198412
               8.99540657                8.00567636               66.10605249                0.01000000               -0.08351880               -0.12415907                0.17769556                0.73020042                0.18800948                0.62350732
               9.99421448                7.99870619               66.10870316                0.01000002               -0.11920906                0.32164813                0.18495953                0.40761841                0.11236650                0.43603237
               0.02241555                8.98015222               66.06841262                1.00000000               -0.03391250               -0.03204565                0.10788547               -0.00016971                0.00018463                0.01874028
               1.02207643                8.97294407               66.07191801                0.99999999               -0.03550259               -0.03461939                0.11598705               -0.00079619               -0.00018112                0.00125259
               2.02170550                8.96574189               66.07542122                0.99999999               -0.03854913               -0.03709870                0.12391150               -0.00253181               -0.00056660               -0.00548849
               3.02130544                8.95852700               66.07892502                0.91125350               -0.03878889               -0.03549217                0.12563998               -0.00905911                0.00318384                0.04233147
               4.02092972                8.95130154               66.08250742                0.01000000               -0.32109023               -0.69721952                0.12380384                1.75970897                0.14008346               -0.05021775
               5.01488364                8.97471302               66.08870203                0.01000000               -0.67847229               -0.01555779                0.15530505                2.06651849                0.30060683                0.03660985
               6.00736028                8.99076685               66.09432707                0.01000001               -0.57309255                0.01084348                0.16798769                1.31346899                0.32811052                0.08923050
               7.00342179                9.00033149               66.09992852                0.01000002               -0.22658353               -0.08822294                0.17373655                0.87881753                0.40195871                0.14530609
               8.00282861                9.00465831               66.10576658                0.01000004                0.06432903               -0.18027804                0.17317032                0.59214509                0.60011618                0.23921638
               9.00470837                9.00488964               66.11378255                1.00000000                0.06898481               -0.06403128                0.15938994                0.47900838                0.39684855                0.38976409
              10.00420830                9.00375592               66.11379950                1.00000000               -0.05000675                0.22513137                0.17535123                0.44331324               -0.00272100                0.25225308
               0.02963670                9.97982734               66.06925239                1.00000000               -0.03471788               -0.03248846                0.11021089               -0.00102312                0.01361116                0.01444600
               1.02928952                9.97259596               66.07276070                0.99999997               -0.03634996               -0.03481114                0.11815911               -0.00147277                0.01699022                0.00197815
               2.02890970                9.96537169               66.07634839                0.99999998               -0.03849419               -0.03701921                0.12612682               -0.00146556                0.02380118               -0.00209713
               3.02851964                9.95815824               66.08000854                0.99999994               -0.03823884               -0.03687517                0.12861653                0.00041937                0.02668084                0.00176579
               4.02814493                9.95095169               66.08365894                0.01326768               -1.01336797               -0.03498525                0.12697135                1.64336777                0.16079946               -0.00228925
               5.00825228                9.97659519               66.08996570                0.01000001               -1.29783245                0.18821718                0.15975464                1.35962695                0.31540815               -0.00501105
               6.00218828                9.99140695               66.09583673                0.01000001               -0.34610616                0.06401061                0.17580743                0.63176027                0.34163462                0.03347319
               7.00133016                9.99957440               66.10155312                0.01000000                0.04906675               -0.07570907                0.18268316                0.35734654                0.42467112                0.05990860
               8.00316961               10.00273715               66.10780294                0.01000000                0.22794830               -0.19211574                0.18003766                0.27516706                0.51411028                0.12365391
               9.00588912               10.00439573               66.11377940                0.99999999                0.10892831               -0.04939093                0.17165382                0.14165884                0.30160005                0.00362515
              10.00534818               10.00320882               66.11379635                0.99999996               -0.05409448               -0.05471043                0.18761514               -0.00470348                0.00324335               -0.00324315
              -0.07597309               -0.00812254               67.05220432                1.00000000               -0.02302647               -0.02439336                0.07709530                0.00127217               -0.00797625                0.00766292
               0.92379665               -0.01223500               67.05575332                0.99999999               -0.02299478               -0.02436239                0.07703795                0.00003004               -0.00862070               -0.00151637
               1.92356702               -0.01632079               67.05928978                0.01000001                0.13952660               -0.02433100                0.07698058                0.20095122               -0.01179836               -0.00349707
               2.92658718               -0.01635967               67.06277049                0.01000000                0.23907060               -0.07937911                0.08040383                0.16425583               -0.03538648                0.03993864
               3.92834843               -0.01376473               67.06554545                0.01000001                0.10390547               -0.03140928                0.08573075                0.19892616               -0.11451815                0.04454102
               4.92866529               -0.00715954               67.06743079                0.01000000               -0.12107162                0.01556272                0.09131556                0.32541409               -0.20028035                0.04482403
               5.92592700                0.00423611               67.06847252                0.01000000               -0.61851018                0.12259676                0.09430152                0.72965738               -0.27126172                0.02823984
               6.91629508                0.02233533               67.06877044                0.97230698               -0.49495698               -0.03091225                0.09045714                0.78540050               -0.14133541               -0.00151383
               7.91602786                0.02480458               67.07190180                1.00000000               -0.02663685               -0.03069241                0.08972218                0.00000810                0.00058371               -0.00023933
               8.91576235                0.02735200               67.07503747                1.00000000               -0.02642588               -0.03044830                0.08886226                0.00004352                0.00081583                0.00108687
               9.91549934                0.02997657               67.07816882                1.00000000               -0.02630091               -0.03026441                0.08824976               -0.00400250                0.00106554                0.00239924
              -0.07184791                0.99163353               67.05352717                1.00000000               -0.02560195               -0.02561180                0.08536553                0.00129085                0.00144044                0.00812100
               0.92789607                0.98752138               67.05707783                0.01000000               -0.02566138               -0.02558723                0.08530881                0.00004924                0.00427396               -0.00443164
               1.92763887                0.98343590               67.06068710                0.01000000               -0.04721822               -0.01614720                0.08525159                0.16062110                0.01180121                0.04812603
               2.92695171                0.98284654               67.06438525                0.01000000               -0.09506211               -0.04685547                0.08986461                0.29858483               -0.02696135                0.07076454
               3.92573762                0.98592118               67.06717089                0.01000000               -0.20163514               -0.01364640                0.09632591                0.46304824               -0.10082398                0.07823817
               4.92291901                0.99299609               67.06920632                0.01000000               -0.36307429                0.02669783                0.10391006                0.71073203               -0.17161367                0.08022989
               5.91847614                1.00546208               67.07037159                0.01000001               -0.45270753                0.00431157                0.11104069                1.04723909               -0.24226425                0.06914590
               6.91386486                1.02202621               67.07080052                0.85718969               -0.24782670               -0.03454528                0.11517118                0.70861581               -0.13471975               -0.00211716
               7.91351960                1.02449766               67.07394027                0.99999994               -0.03440322               -0.03435891                0.11460668                0.00016076                0.00069812               -0.00007089
               8.91317679                1.02704751               67.07708198                1.00000000               -0.03424292               -0.03417014                0.11403898                0.00008923                0.00041735                0.00189970
               9.91283474                1.02967392               67.08021687                1.00000000               -0.03420465               -0.03397131                0.11348113               -0.00379239                0.00020981                0.00401514
              -0.06772297                1.99136523               67.05486316                0.01000000               -0.02817680                0.08310645                0.09363488                0.13214805                0.00329917                0.10930958
               0.93199526                1.98725326               67.05834266                0.01000000               -0.04113746               -0.05079766                0.09357925                0.12063410                0.06752234                0.11083409
               1.93145428                1.98335627               67.06311018                0.01000001               -0.09608292               -0.05567703                0.09419777                0.28629361                0.06016038                0.13045905
               2.93007360                1.98270322               67.06657029                0.01000000               -0.19972190               -0.05152372                0.09871859                0.61091627               -0.03165679                0.12546147
               3.92745984                1.98596234               67.06945237                0.01000000               -0.33672897               -0.02365658                0.10617808                0.93674091               -0.08252638                0.13369295
               4.92333902                1.99337442               67.07167004                0.01000001               -0.48090893               -0.00595889                0.11564374                1.24374475               -0.14141181                0.14225508
               5.91784166                2.00432235               67.07313437                0.01000000               -0.59535991               -0.08934607                0.12601585                1.66655897               -0.25888164                0.15128122
               6.91143182                2.02164442               67.07282227                0.01000000               -0.34159494               -0.38844308                0.13960765                1.18605043               -0.17134360                0.16094070
               7.91100976                2.02411740               67.07598152                0.42396582               -0.04219777               -0.04174498                0.13951543                0.00001081                0.00158796                0.00627122
               8.91058787                2.02666859               67.07913762                0.99999999               -0.04195442               -0.04168100                0.13928246                0.00000204                0.00067122                0.00229439
               9.91017068                2.02929714               67.08228719                0.99999999               -0.04171936               -0.04143768                0.13860721               -0.00386044                0.00014930                0.00456248
              -0.06098101                2.99329566               67.05821536                0.01000000               -0.07012745                0.15828329                0.08888764                0.12595526                0.02450699                0.19670757
               0.93831772                2.98650543               67.06197234                0.01000000               -0.05521071               -0.10926959                0.10341539                0.25775358                0.01440771                0.20399201
               1.93791478                2.98232236               67.06568220                0.01000000               -0.08768769               -0.16793352                0.10159516                0.59265729               -0.00153824                0.16114014
               2.93656396                2.98181607               67.06915532                0.01000000               -0.20567671               -0.15364889                0.10501099                1.00275846               -0.02625217                0.16063752
               3.93380124                2.98544804               67.07213531                0.01000001               -0.35650330               -0.11267789                0.11476139                1.40726786               -0.06181867                0.17038925
               4.92943390                2.99287691               67.07463265                0.01000000               -0.51319640               -0.09212673                0.12624559                1.77251855               -0.10421708                0.18804844
               5.92353731                3.00367516               67.07650626                0.01000001               -0.58215451               -0.14015276                0.13879279                1.94427733               -0.13825843                0.21566994
               6.91779081                3.01425735               67.07812094                0.01000000               -0.75208329               -0.48613907                0.15108944                1.85878855               -0.22977562                0.30299061
               7.90849565                3.02366276               67.07815080                0.01000001               -0.48968545               -0.24900057                0.16614655                1.08713047               -0.16185464                0.20258939
               8.90799710                3.02621389               67.08119073                0.16972264               -0.04976015               -0.04619915                0.16482283                0.00252373               -0.00685911                0.04799446
               9.90750045                3.02884517               67.08433997                0.99999999               -0.04966515               -0.04678736                0.16392404               -0.00445069               -0.00188051                0.05228607
              -0.05162340                3.99453089               67.06107094                0.01000000               -0.02529673                0.05245473                0.10685334                0.18893097                0.00219824                0.15203192
               0.94812363                3.98506787               67.06477056                0.01000000               -0.01899049               -0.22052562                0.09324717                0.45224294               -0.00354613                0.16148976
               1.94799679                3.97999760               67.06839683                0.01000000               -0.05602708               -0.30511999                0.09783004                0.93747022               -0.01007194                0.16678943
               2.94700309                3.97963024               67.07183399                0.01000001               -0.17262188               -0.29362670                0.10865199                1.41208606               -0.02127786                0.17228418
               3.94454435                3.98370878               67.07500196                0.01000000               -0.32204058               -0.24322617                0.12228513                1.85510020               -0.03683548                0.18825034
               4.94056228                3.99153189               67.07784058                0.01000001               -0.45987860               -0.19733991                0.13517207                2.19510468               -0.05549915                0.21334659
               5.93534678                4.00151929               67.08033627                0.01000001               -0.59711399               -0.22488148                0.14776299                2.39295255               -0.08562743                0.25204092
               6.92862000                4.01192164               67.08234158                0.01000003               -0.72754771               -0.25796126                0.16073308                2.28250977               -0.11564358                0.28508032
               7.92079582                4.01913739               67.08412948                0.01000156               -1.15820313               -0.33231613                0.17340571                2.26557594               -0.21844463                0.37532161
               8.90545593                4.02574461               67.08416824                0.01000000               -0.79883549               -0.34943818                0.19705728                1.92341719               -0.15741473                0.30988184
               9.90481911                4.02836139               67.08736463                0.01000000               -0.06368205               -1.17857877                0.19571740                1.85823273               -0.00318585                0.28772756
              -0.03827634                4.99434475               67.06342725                0.01000003                0.01722100               -0.18239901                0.12555880                0.34131693                0.00126473                0.12053557
               0.96189587                4.98209492               67.06715634                0.01000000                0.01890721               -0.37615927                0.09990985                0.74360672               -0.00432087                0.12555367
               1.96210181                4.97621996               67.07084763                0.01000001               -0.04006864               -0.44640708                0.09869362                1.27491628               -0.00868502                0.14213074
               2.96109450                4.97594353               67.07439984                0.01000000               -0.15501009               -0.44316631                0.11608256                1.79279175               -0.01293193                0.15739163
               3.95900160                4.98058352               67.07781100                0.01000001               -0.27845083               -0.37096177                0.13000457                2.20150492               -0.01001724                0.18302441
               4.95552548                4.98893012               67.08106690                0.01000001               -0.39974971               -0.31183831                0.14324934                2.52475786               -0.00888334                0.21529135
               5.95100661                4.99917753               67.08408346                0.01000001               -0.48512915               -0.27123595                0.15415895                2.67737118               -0.01748628                0.25835696
               6.94582290                5.00909812               67.08682063                0.01000001               -0.55112058               -0.29408703                0.16492261                2.70687862               -0.04399987                0.31285115
               7.93998420                5.01701644               67.08912330                0.01000000               -0.42907288               -0.34094002                0.17663360                2.57980788               -0.06330759                0.36031027
               8.93724144                5.01922513               67.09147251                0.01000000               -0.02763301               -0.73939945                0.18593451                2.23196175               -0.05762166                0.47694117
               9.93943154                5.00527359               67.09409277                0.01000003                0.21900963               -1.53268756                0.19194642                1.50221616               -0.05696152                0.43978559
              -0.02029739                5.99088291               67.06555604                0.01000000                0.14179428               -0.71316407                0.13487710                0.79178634               -0.02634342                0.12295989
               0.98112056                5.97754468               67.06912274                0.01000001               -0.00280585               -0.46516566                0.10459362                1.11062445               -0.03010113                0.12809421
               1.97964650                5.97106946               67.07280536                0.01000000               -0.13125962               -0.54621306                0.12444545                1.75669548               -0.02896215                0.04193444
               2.97849536                5.97076692               67.07650051                0.01000001               -0.20293167               -0.50171887                0.12666265                1.98935949               -0.00466238                0.11240409
               3.97558786                5.97628955               67.08034115                0.01000001               -0.30159705               -0.50187962                0.14307982                2.39832220                0.02558744                0.14162499
               4.97246342                5.98529512               67.08406566                0.01000001               -0.34308334               -0.39892789                0.14996555                2.66754610                0.04725357                0.19015265
               5.96872620                5.99609457               67.08769263                0.01000124               -0.37723799               -0.32057830                0.15819336                2.77203959                0.05786437                0.24897389
               6.96491866                6.00603990               67.09110361                0.01000000               -0.32306134               -0.31188296                0.16626541                2.64831777                0.05049113                0.31564298
               7.96226497                6.01231859               67.09424962                0.01000000               -0.15403256               -0.43850868                0.17407797                2.28261448                0.02778262                0.38327896
               8.96183801                6.01095662               67.09712093                0.01000000                0.02507713               -0.63675953                0.18143876                1.41620481                0.00385070                0.41293473
               9.96276651                5.99770764               67.09993491                0.01000000                0.09285000               -0.46529117                0.18774194                0.68944797               -0.00898805                0.38291623
               0.00423585                6.98008147               67.06767634                0.99960786               -0.03140316               -0.55542530                0.10127314                0.86303191               -0.00570557                0.07869991
               1.00392182                6.97279160               67.07148203                0.05396544               -0.01111847               -0.25449974                0.10889689                0.76549672               -0.11286716                0.06944540
               2.00401348                6.96529570               67.07313109                0.01000001               -0.41301107               -0.29624478                0.07343499                1.21705864               -0.05878637                0.04490377
               2.99566160                6.96590915               67.07805164                0.01000000               -0.57868175               -0.65187572                0.16011923                1.87146758                0.06013786               -0.01707083
               3.99243985                6.97054593               67.08225903                0.01000001               -0.32951087               -0.62287508                0.14737659                2.26641441                0.07691506                0.07138715
               4.98907138                6.98095156               67.08665525                0.01000001               -0.33686129               -0.46749644                0.15417500                2.66104435                0.12375781                0.13707953
               5.98570262                6.99276597               67.09096798                0.01000000               -0.32530732               -0.28845260                0.16020572                2.61074028                0.14932552                0.21574859
               6.98256523                7.00286046               67.09517538                0.01000000               -0.24914266               -0.27061749                0.16557551                2.30866479                0.15769368                0.30013425
               7.98071977                7.00824626               67.09906842                0.01000000               -0.11943722               -0.32295288                0.17117212                1.78131260                0.13154619                0.39674608
               8.98017649                7.00648994               67.10244305                0.01000001               -0.05006537               -0.28448266                0.17741506                0.99066848                0.06810292                0.43783462
               9.97971846                6.99596777               67.10510809                0.01000003               -0.04580298                0.00057917                0.18577312                0.44070741                0.02196537                0.38799645
               0.01154299                7.97977441               67.06854749                1.00000000               -0.03267304               -0.03127313                0.10480168               -0.00002567               -0.00416132                0.02041792
               1.01121626                7.97245469               67.07222139                0.99999998               -0.03364380               -0.03397247                0.11239615               -0.00086352               -0.00993664               -0.00504778
               2.01087012                7.96514456               67.07577409                0.14359914               -0.02708877               -0.02595547                0.12107972               -0.02867278               -0.08473271                0.07770412
               3.01067449                7.95772940               67.07794506                0.01000001               -0.24981850               -0.42384051                0.08745970                1.03980639                0.03362275               -0.01257322
               4.00587375                7.96383205               67.08363645                0.01000002               -0.36051073               -1.02239401                0.13935237                2.15855699                0.20322158               -0.04246220
               5.00346427                7.97594519               67.08862779                0.01000000               -0.34208241               -0.36761234                0.15439044                2.46676767                0.20388775                0.08075347
               5.99903210                7.99032552               67.09377622                0.01000000               -0.39263059               -0.15107559                0.16028154                2.19741655                0.24998173                0.15747799
               6.99561166                8.00062755               67.09878244                0.01000000               -0.23851788               -0.16900731                0.16490182                1.73142721                0.29209717                0.24411055
               7.99426174                8.00585954               67.10381506                0.01000002               -0.08408932               -0.20592183                0.16730497                1.28776608                0.28224214                0.36356295
               8.99392988                8.00526697               67.10780378                0.01000001               -0.08183700               -0.08137188                0.17236378                0.81319036                0.18160286                0.59729132
               9.99262500                7.99771922               67.11053638                0.01000002               -0.13048732                0.38513975                0.18135153                0.46352021                0.10739461                0.41740365
               0.01887478                8.97945601               67.06949808                1.00000000               -0.03403806               -0.03240679                0.10885421                0.00005072                0.00067215                0.02007890
               1.01853440                8.97211215               67.07307731                0.99999999               -0.03547331               -0.03461842                0.11598078               -0.00077149                0.00084099                0.00154492
               2.01816531                8.96477659               67.07666020                0.99999998               -0.03820780               -0.03683137                0.12289393               -0.00251210               -0.00455927               -0.00609389
               3.01777024                8.95743234               67.08012007                0.84241105               -0.03850563               -0.03317609                0.12434657               -0.01241013               -0.00970096                0.05368333
               4.01739520                8.95009805               67.08357889                0.01000000               -0.29284904               -0.70466046                0.12362292                1.75042252                0.14967062               -0.06529576
               5.01191326                8.97359931               67.09025413                0.01000000               -0.62133035               -0.03523856                0.15075506                2.07222007                0.31595151                0.03088369
               6.00496859                8.98974445               67.09597210                0.01000000               -0.51267485               -0.00789588                0.16178219                1.33047441                0.32315149                0.08041870
               7.00165976                8.99948031               67.10163334                0.01000002               -0.15664599               -0.10750680                0.16699223                0.91522287                0.39168150                0.13565171
               8.00183567                9.00412783               67.10747038                0.01000156                0.14604223               -0.19951025                0.16743870                0.66226449                0.57921349                0.22738791
               9.00458061                9.00486250               67.11536291                0.99999997                0.11243410               -0.04465798                0.15668054                0.57207390                0.38191649                0.37451236
              10.00408435                9.00367056               67.11555512                1.00000000               -0.04962541                0.26995080                0.17577299                0.51374877               -0.00271777                0.24167260
               0.02623172                9.97912627               67.07036635                1.00000000               -0.03514706               -0.03297383                0.11218180               -0.00070040                0.01467850                0.01553871
               1.02588025                9.97176232               67.07394620                0.99999999               -0.03660193               -0.03498330                0.11914944               -0.00133113                0.01904516                0.00190879
               2.02549969                9.96440793               67.07761929                0.99999997               -0.03877123               -0.03686581                0.12608861               -0.00138431                0.02130621               -0.00250268
               3.02510483                9.95706588               67.08123379                0.99999994               -0.03922272               -0.03664622                0.12811911                0.00000415                0.01452745               -0.00083445
               4.02471523                9.94973884               67.08476545                0.01445254               -0.99212794               -0.03592116                0.12822843                1.64073035                0.17138626               -0.00746086
               5.00526227                9.97524042               67.09155910                0.01000001               -1.24773231                0.16411089                0.15469220                1.35633946                0.33597939               -0.00891520
               5.99976059                9.99016760               67.09755931                0.01000001               -0.28647619                0.04231489                0.16951538                0.64104929                0.34125624                0.02850558
               6.99953275                9.99847742               67.10334815                0.01000000                0.11821294               -0.10028988                0.17623845                0.37238490                0.41447268                0.05472133
               8.00212484               10.00186933               67.10958019                0.01000002                0.31479345               -0.22584961                0.17527943                0.32373710                0.49445257                0.11714507
               9.00582862               10.00437381               67.11549384                1.00000000                0.15795052               -0.04886930                0.17123330                0.18724645                0.28969558                0.00362395
              10.00528385               10.00311824               67.11568603                1.00000000               -0.05447612               -0.05523239                0.19032579               -0.00560669                0.00324124               -0.00324116
              -0.07960157               -0.00941011               68.05297778                1.00000000               -0.02304362               -0.02459228                0.07759726                0.00117876               -0.00797504                0.00766122
               0.92016799               -0.01361602               68.05652192                1.00000000               -0.02288507               -0.02429388                0.07668330               -0.00010278               -0.00862073               -0.00151583
               1.91994073               -0.01779444               68.06005352                0.01000001                0.14651618               -0.02399590                0.07576997                0.21589877               -0.01040639               -0.00349807
               2.92309832               -0.01762349               68.06355725                0.01000001                0.24610263               -0.07706710                0.07710218                0.17353915               -0.03263722                0.03902893
               3.92486278               -0.01500085               68.06637729                0.01000000                0.10427842               -0.03053024                0.08132718                0.19876883               -0.11105431                0.04345276
               4.92518389               -0.00855588               68.06831564                0.01000001               -0.11662951                0.01641142                0.08697158                0.31811677               -0.19805603                0.04343501
               5.92253019                0.00252797               68.06939328                0.01000000               -0.60071694                0.11981576                0.09132455                0.70888801               -0.27247811                0.02680460
               6.91316955                0.02016570               68.06967610                0.97370524               -0.48140089               -0.03111065                0.09084962                0.76222905               -0.14181808               -0.00168954
               7.91290217                0.02263865               68.07279656                1.00000000               -0.02655029               -0.03066911                0.08936392                0.00001250                0.00007499               -0.00034977
               8.91263854                0.02519229               68.07591964                1.00000000               -0.02610873               -0.03017909                0.08761130                0.00002449                0.00021513                0.00102700
               9.91238000                0.02782496               68.07904151                1.00000000               -0.02585429               -0.02972082                0.08630539               -0.00425796                0.00052079                0.00188734
              -0.07538388                0.99034397               68.05438460                1.00000000               -0.02569910               -0.02585083                0.08612085                0.00132644                0.00144001                0.00811971
               0.92435913                0.98614105               68.05793041                0.01000000               -0.02563354               -0.02554945                0.08520787                0.00004449                0.00427340               -0.00443043
               1.92410345                0.98196560               68.06153483                0.01000000               -0.04611099               -0.00458457                0.08429266                0.17277424                0.01371572                0.04797442
               2.92343691                0.98160584               68.06526641                0.01000000               -0.08933930               -0.04292875                0.08620924                0.31081537               -0.02239012                0.06920504
               3.92231666                0.98469385               68.06811350                0.01000000               -0.19181337               -0.01207442                0.09224089                0.46162444               -0.09328003                0.07567196
               4.91960064                0.99160824               68.07022655                0.01000000               -0.35291920                0.02856291                0.10037506                0.69704657               -0.16332244                0.07737036
               5.91525828                1.00372613               68.07146975                0.01000001               -0.44320730                0.00757605                0.10898296                1.01996202               -0.23473909                0.06530517
               6.91073650                1.01985459               68.07195711                0.84844454               -0.24346401               -0.03480653                0.11606594                0.68675430               -0.13122698               -0.00249215
               7.91038900                1.02233196               68.07508814                0.99999994               -0.03454350               -0.03443049                0.11497450                0.00029726                0.00082344               -0.00015379
               8.91004563                1.02489050               68.07822107                1.00000000               -0.03421272               -0.03404209                0.11377788                0.00014013                0.00048107                0.00195642
               9.90970475                1.02752776               68.08134711                0.99999997               -0.03408816               -0.03349853                0.11246840               -0.00396466                0.00022386                0.00354108
              -0.07116920                1.99007287               68.05580456                0.01045834               -0.02835500                0.09127142                0.09464467                0.12176214                0.00329933                0.10049583
               0.92854725                1.98587300               68.05927923                0.01000000               -0.04496924               -0.04794131                0.09373487                0.11818624                0.06736926                0.11503077
               1.92793142                1.98211387               68.06403888                0.01000001               -0.09804387               -0.03659722                0.08939733                0.29137311                0.05580954                0.13269366
               2.92658637                1.98151794               68.06753038                0.01000000               -0.19192696               -0.04441595                0.09288088                0.61533951               -0.02472522                0.11871277
               3.92409288                1.98475766               68.07048482                0.01000000               -0.32469172               -0.01877416                0.10045114                0.93245156               -0.07103578                0.12890214
               4.92009254                1.99201538               68.07280260                0.01000001               -0.47049019                0.00009188                0.11081452                1.22711561               -0.12822744                0.13775301
               5.91468307                2.00267949               68.07437990                0.01000000               -0.58968678               -0.07879925                0.12294447                1.63088270               -0.24338853                0.14602027
               6.90829880                2.01946957               68.07422615                0.01000000               -0.34054319               -0.37153178                0.14075622                1.16061348               -0.16229783                0.15303527
               7.90787221                2.02195004               68.07738296                0.43453161               -0.04266289               -0.04208311                0.14063408               -0.00001103                0.00258478                0.00771923
               8.90744555                2.02451145               68.08053445                0.99999999               -0.04230067               -0.04188060                0.14009289               -0.00017499                0.00113202                0.00272884
               9.90702620                2.02715499               68.08367321                0.99999999               -0.04193497               -0.04118407                0.13835656               -0.00409543                0.00027074                0.00446602
              -0.06454888                2.99216940               68.05906444                0.01000000               -0.07692579                0.16336202                0.11566037                0.09517266               -0.03652557                0.13000670
               0.93468186                2.98518222               68.06307675                0.01000000               -0.05825747               -0.09469829                0.10263054                0.24882586               -0.04424271                0.22518946
               1.93428597                2.98123365               68.06669439                0.01000000               -0.07909789               -0.15636874                0.09306842                0.60192672               -0.00982739                0.14125329
               2.93309990                2.98071752               68.07016384                0.01000000               -0.19088573               -0.14250785                0.09707992                1.00267080               -0.01413705                0.14964757
               3.93046826                2.98431837               68.07324210                0.01000001               -0.34393877               -0.10224780                0.10704401                1.40029909               -0.04481072                0.16434762
               4.92622113                2.99161007               68.07586022                0.01000000               -0.50232551               -0.08082408                0.11930784                1.75454786               -0.08741858                0.18316911
               5.92042175                3.00215014               68.07787034                0.01000001               -0.57714541               -0.12492843                0.13368264                1.91867914               -0.12163235                0.20857030
               6.91467822                3.01242396               68.07962193                0.01000000               -0.75374235               -0.45699433                0.14932711                1.83056955               -0.21128519                0.29092554
               7.90534690                3.02149030               68.07983386                0.01000000               -0.49205232               -0.23279921                0.17073794                1.07287658               -0.15227888                0.19447691
               8.90483717                3.02405289               68.08284920                0.19338320               -0.05055733               -0.04657436                0.16707218                0.00155331               -0.00752571                0.05370512
               9.90433575                3.02670407               68.08598419                0.99999999               -0.05014221               -0.04564932                0.16463186               -0.00648356               -0.00210486                0.05729536
              -0.05529139                3.99334011               68.06222314                0.01000000               -0.02490972                0.05396425                0.10546071                0.19657090               -0.01013593                0.16125472
               0.94445951                3.98397903               68.06569880                0.01000000               -0.01369795               -0.20448326                0.08805469                0.46224629                0.00123000                0.13309054
               1.94443465                3.97898649               68.06935700                0.01000000               -0.04522157               -0.29193181                0.09072742                0.94719203                0.01595714                0.14277361
               2.94355508                3.97866778               68.07287629                0.01000001               -0.16141684               -0.27545539                0.09964029                1.40858115                0.00454181                0.16393228
               3.94120631                3.98271271               68.07617868                0.01000000               -0.31016786               -0.22846327                0.11303142                1.84194017               -0.01429465                0.18546438
               4.93735172                3.99039890               68.07914770                0.01000001               -0.44817693               -0.18349980                0.12644832                2.17672236               -0.03878817                0.21041750
               5.93224277                4.00018092               68.08177783                0.01000001               -0.58908389               -0.20640875                0.14031131                2.37244904               -0.07029086                0.24402963
               6.92557004                4.01032968               68.08392925                0.01000007               -0.72709812               -0.23309599                0.15598686                2.26423037               -0.09960882                0.27181717
               7.91770081                4.01729406               68.08586813                0.01000001               -1.16536047               -0.30157045                0.17410031                2.24593253               -0.19407855                0.35647782
               8.90226283                4.02357996               68.08618893                0.01000000               -0.80533273               -0.33203257                0.20923969                1.91404110               -0.14100832                0.29514527
               9.90159415                4.02624201               68.08936024                0.01000001               -0.06686786               -1.17076772                0.20357121                1.86067245               -0.00524645                0.27639994
              -0.04189530                4.99324868               68.06470947                0.01000001                0.01757035               -0.17265522                0.13954087                0.34439931                0.00763035                0.12184747
               0.95828041                4.98109255               68.06821944                0.01000000                0.02181769               -0.36882354                0.10056733                0.74049120                0.01921254                0.11830740
               1.95854106                4.97539502               68.07183068                0.01000001               -0.03675491               -0.42139056                0.09177279                1.26049784                0.02351252                0.15244477
               2.95754531                4.97520842               68.07554477                0.01000000               -0.14825581               -0.42285877                0.10599829                1.76879467                0.02296023                0.16805342
               3.95557594                4.97974910               68.07906744                0.01000001               -0.26289749               -0.35923256                0.12014438                2.17490948                0.00586357                0.19574828
               4.95228736                4.98794008               68.08245387                0.01000001               -0.38180007               -0.30077152                0.13362465                2.50649876                0.00262951                0.21562426
               5.94793994                4.99802197               68.08558161                0.01000001               -0.47188325               -0.25469841                0.14518837                2.66623894               -0.00825953                0.25071699
               6.94284970                5.00776204               68.08843697                0.01000001               -0.54623370               -0.26942497                0.15769898                2.69890679               -0.03352153                0.29765099
               7.93701527                5.01545889               68.09087622                0.01000000               -0.43398259               -0.31025206                0.17282322                2.57267582               -0.05245892                0.33874225
               8.93417004                5.01741224               68.09333580                0.01000000               -0.03950772               -0.70347072                0.18529931                2.22855407               -0.05007571                0.44406947
               9.93622511                5.00328872               68.09602143                0.01000002                0.20550693               -1.51456764                0.19231659                1.49956373               -0.05207604                0.41340029
              -0.02409116                5.98988701               68.06690161                0.01000001                0.12141501               -0.69451035                0.15661764                0.78315079               -0.03797866                0.09114827
               0.97712299                5.97660256               68.07020902                0.01000001               -0.01900509               -0.45854157                0.11473980                1.12111328               -0.02611788                0.10155840
               1.97552874                5.97055868               68.07424615                0.01000000               -0.12730533               -0.55232886                0.11401856                1.74665105                0.02546184                0.07550373
               2.97457689                5.97021061               68.07778974                0.01000001               -0.17779516               -0.50471073                0.12014263                1.93386984               -0.03265089                0.19821931
               3.97197284                5.97552806               68.08176152                0.01000001               -0.26840294               -0.50602851                0.13475393                2.36774158                0.02166632                0.16004987
               4.96920883                5.98438347               68.08552322                0.01000001               -0.31136247               -0.39594876                0.14009774                2.65715232                0.04433333                0.19394494
               5.96574559                5.99508696               68.08923107                0.01000001               -0.35487844               -0.30982584                0.14908418                2.77444416                0.05853046                0.24106727
               6.96211126                6.00494118               68.09272667                0.01000000               -0.31207322               -0.29080052                0.15783183                2.65964455                0.05261812                0.29985386
               7.95950412                6.01108901               68.09595882                0.01000000               -0.15535896               -0.40560698                0.16704072                2.29538178                0.03042577                0.36151757
               8.95900408                6.00951055               68.09891296                0.01000007                0.01641695               -0.59827850                0.17575166                1.42409127                0.00569260                0.38936826
               9.95983246                5.99595065               68.10179268                0.01000000                0.08283832               -0.44036511                0.18218479                0.69399653               -0.00805882                0.36320564
               0.00033662                6.97935847               68.06868156                0.99819887               -0.03056191               -0.54160695                0.09936411                0.85052041               -0.00547067                0.06024472
               1.00003100                6.97192172               68.07255582                0.01009770               -0.02352942               -0.25052218                0.10588867                0.76683751               -0.12587193                0.06758218
               1.99986603                6.96434844               68.07400961                0.01000003               -0.43888357               -0.32100176                0.14394466                1.23943397               -0.43307386                0.27574565
               2.99125333                6.96511420               68.07991805                0.01000000               -0.55540599               -0.68312053                0.17272730                1.88868898               -0.00887143               -0.02189109
               3.98875791                6.96962853               68.08372670                0.01000007               -0.26909109               -0.64005398                0.14024199                2.27262694                0.03059214                0.08531275
               4.98587151                6.98002110               68.08817225                0.01000028               -0.29434021               -0.47304653                0.14866346                2.66566409                0.10893905                0.13908910
               5.98287111                6.99182545               68.09253289                0.01000000               -0.29154907               -0.28757146                0.15144267                2.62808424                0.14200737                0.20540819
               6.98004053                7.00194603               68.09678974                0.01000000               -0.22587861               -0.25890334                0.15705360                2.34292044                0.15309063                0.28414039
               7.97835354                7.00734675               68.10074306                0.01000007               -0.11251496               -0.29385051                0.16349062                1.82524410                0.12829606                0.37617235
               8.97779023                7.00544667               68.10418597                0.01000000               -0.05643518               -0.24041140                0.17082747                1.02239489                0.06625319                0.41692987
               9.97722483                6.99448142               68.10693860                0.01000000               -0.05653958                0.03282921                0.17981671                0.45670981                0.02110538                0.37199614
               0.00779275                7.97905487               68.06959372                1.00000000               -0.03229769               -0.03117674                0.10416372                0.00042035               -0.00365250                0.02134891
               1.00746977                7.97159212               68.07333862                0.99999998               -0.03339047               -0.03357812                0.11118261               -0.00080473               -0.00871467               -0.00432292
               2.00712494                7.96413865               68.07697715                0.07580428               -0.01995994               -0.02868172                0.11957770               -0.01691996               -0.10778793                0.09088218
               3.00707058                7.95654820               68.07873584                0.01000001               -0.23032329               -0.44011342                0.07131707                1.07638668                0.04056551               -0.04835792
               4.00251848                7.96272698               68.08501097                0.01000003               -0.33726930               -1.03809536                0.16175143                2.17027523                0.19740750               -0.03649726
               5.00032519                7.97492254               68.09018569                0.01000000               -0.30680645               -0.38108596                0.14940623                2.47732503                0.19196479                0.06937190
               5.99638235                7.98933553               68.09533992                0.01000000               -0.34384088               -0.16166573                0.15279489                2.22067860                0.23858084                0.14624205
               6.99344837                7.99976312               68.10039403                0.01000007               -0.19369912               -0.17336071                0.15702958                1.77965428                0.28278056                0.22961502
               7.99250836                8.00521200               68.10545324                0.01000001               -0.05655327               -0.19529072                0.16027714                1.36344842                0.27289626                0.34523175
               8.99231731                8.00470232               68.10949977                0.01000001               -0.08056030               -0.03784203                0.16678290                0.89334848                0.17512339                0.57166581
               9.99089716                7.99660724               68.11233019                0.01000002               -0.14201479                0.44791541                0.17731240                0.51772676                0.10278131                0.40108904
               0.01527054                8.97873494               68.07058971                0.99999998               -0.03394062               -0.03266487                0.10929222                0.00041321                0.00126787                0.02098435
               1.01493113                8.97125016               68.07423762                0.99999999               -0.03494922               -0.03478819                0.11603168               -0.00062081                0.00105921                0.00186740
               2.01457155                8.96377481               68.07787910                0.99999997               -0.03691996               -0.03675945                0.12218728               -0.00074656               -0.00437916               -0.00773602
               3.01419273                8.95631193               68.08141195                0.86758268               -0.03912385               -0.03170382                0.12822487               -0.01573669               -0.00769366                0.07595265
               4.01378908                8.94886662               68.08497988                0.01000000               -0.26916356               -0.71488133                0.13585960                1.74081565                0.15211652               -0.06858444
               5.00880946                8.97239938               68.09171713                0.01000000               -0.56724876               -0.05577936                0.14652569                2.07891681                0.31411024                0.01833224
               6.00244410                8.98859214               68.09756272                0.01000000               -0.45261627               -0.02664380                0.15567979                1.34607175                0.31828241                0.07235786
               6.99975714                8.99847881               68.10326837                0.01000002               -0.08804008               -0.12619598                0.16002645                0.94995745                0.38005341                0.12647907
               8.00068330                9.00344093               68.10911535                0.01000001                0.22524137               -0.21757852                0.16153737                0.73078145                0.55824910                0.21580645
               9.00426196                9.00468983               68.11691616                1.00000000                0.15431164               -0.02479784                0.15396418                0.66293393                0.36700295                0.35952293
              10.00376953                9.00343973               68.11731496                1.00000000               -0.04924306                0.31374651                0.17619592                0.58156221               -0.00271417                0.23212866
               0.02277057                9.97840157               68.07149602                1.00000000               -0.03530821               -0.03333656                0.11344042               -0.00051872                0.01567456                0.01621290
               1.02241749                9.97089635               68.07514368                0.99999999               -0.03611665               -0.03538088                0.12009013               -0.00126998                0.01955150                0.00194252
               2.02204824                9.96340346               68.07887017                0.99999999               -0.03767326               -0.03713504                0.12598621               -0.00144309                0.02233012               -0.00359249
               3.02166402                9.95591412               68.08257092                0.99999999               -0.04004493               -0.03978136                0.13300612               -0.00157606                0.01853154               -0.00050695
               4.02124734                9.94842935               68.08622350                0.01976353               -0.97430055               -0.04372736                0.14119785                1.64046789                0.17490114               -0.00553659
               5.00217801                9.97380695               68.09305954                0.01000000               -1.20114941                0.14075672                0.15059587                1.35552021                0.34022782               -0.01400200
               5.99722435                9.98880265               68.09922704                0.01000001               -0.22896441                0.02105130                0.16377528                0.64963742                0.34167961                0.02382074
               6.99759873                9.99723920               68.10507789                0.01000000                0.18443137               -0.12396164                0.16981186                0.38704813                0.40349880                0.05004736
               8.00091298               10.00086043               68.11130853                0.01000002                0.39892334               -0.25804996                0.17046415                0.37132636                0.47604371                0.11112876
               9.00557719               10.00420636               68.11720406                1.00000000                0.20578130               -0.04834631                0.17081155                0.23260970                0.27845907                0.00362277
              10.00502861               10.00288217               68.11760286                0.99999999               -0.05485869               -0.05575573                0.19304332               -0.00651225                0.00323909               -0.00323887
              -0.08322089               -0.01078297               69.05375626                1.00000000               -0.02306280               -0.02478900                0.07810271                0.00108358               -0.00796945                0.00765291
               0.91654849               -0.01508229               69.05728699                1.00000000               -0.02277735               -0.02422394                0.07633265               -0.00023695               -0.00861683               -0.00151534
               1.91632357               -0.01935336               69.06080518                0.01000001                0.15310903               -0.02366026                0.07456627                0.22960599               -0.00955283               -0.00349765
               2.91961067               -0.01899741               69.06431253                0.01000000                0.25226928               -0.07450854                0.07440067                0.18072110               -0.03016373                0.03658353
               3.92136895               -0.01636809               69.06717199                0.01000001                0.10387563               -0.03048254                0.07873948                0.19853115               -0.10619492                0.04105601
               4.92168818               -0.01011265               69.06917022                0.01000000               -0.11259922                0.01691827                0.08571861                0.31018152               -0.19356122                0.04099757
               5.91911697                0.00061928               69.07029901                0.01000000               -0.58163690                0.11622871                0.09163645                0.68599204               -0.27116636                0.02450770
               6.91005544                0.01773953               69.07058744                0.97593795               -0.46655747               -0.03132207                0.09178747                0.73640592               -0.14101089               -0.00220866
               7.90978582                0.02021444               69.07368908                1.00000000               -0.02668661               -0.03062527                0.08943823                0.00013694               -0.00080607               -0.00063555
               8.90952171                0.02276969               69.07678969                1.00000000               -0.02598965               -0.02978516                0.08668163                0.00000795               -0.00088994                0.00077865
               9.90926602                0.02540312               69.07989493                1.00000000               -0.02556832               -0.02900792                0.08469646               -0.00454505               -0.00063545                0.00050570
              -0.07891073                0.98896914               69.05524958                1.00000000               -0.02579578               -0.02608656                0.08687186                0.00136090                0.00143736                0.00811541
               0.92083131                0.98467547               69.05878198                0.01000000               -0.02560430               -0.02550882                0.08510270                0.00003634                0.00427012               -0.00442663
               1.92057719                0.98041003               69.06237295                0.01000000               -0.04530377                0.01019735                0.08332704                0.17888898                0.01463079                0.04470516
               2.91992524                0.98025750               69.06610944                0.01000000               -0.08326512               -0.04112713                0.08250697                0.32197719               -0.01705991                0.06431657
               3.91891188                0.98332709               69.06901571                0.01000000               -0.18144644               -0.01100648                0.08840851                0.45984894               -0.08413795                0.07117064
               4.91629631                0.99005653               69.07121382                0.01000000               -0.34305445                0.03042282                0.09755111                0.68228472               -0.15272203                0.07268467
               5.91205079                1.00178157               69.07255125                0.01000001               -0.43371945                0.01114375                0.10786385                0.99015787               -0.22459794                0.05986884
               6.90762192                1.01742631               69.07312184                0.83720601               -0.23893421               -0.03496123                0.11676570                0.66269905               -0.12605741               -0.00345071
               7.90727211                1.01990818               69.07623976                0.99999998               -0.03472367               -0.03441852                0.11522669                0.00064343                0.00111965               -0.00024522
               8.90692745                1.02247184               69.07935753                1.00000000               -0.03424825               -0.03373228                0.11329673                0.00017024                0.00056119                0.00207286
               9.90658715                1.02511304               69.08246624                0.99999995               -0.03403019               -0.03268718                0.11110006               -0.00425309                0.00019845                0.00216689
              -0.07460632                1.98869530               69.05675605                0.03707926               -0.02853543                0.02540309                0.09565123                0.02995252                0.00329808                0.12180609
               0.92510832                1.98440753               69.06021736                0.01000000               -0.05371821               -0.00429145                0.09388801                0.05634423                0.06409152                0.11121880
               1.92431931                1.98085058               69.06489813                0.01000001               -0.09875828               -0.02903642                0.08307763                0.29132365                0.05761670                0.11966133
               2.92313316                1.98018005               69.06842791                0.01000000               -0.17762043               -0.03971987                0.08753342                0.61847349               -0.01387824                0.10915163
               3.92076690                1.98341178               69.07146139                0.01000000               -0.31268818               -0.01429728                0.09521774                0.93062578               -0.05743223                0.12141903
               4.91687939                1.99049580               69.07388633                0.01000001               -0.46082805                0.00693345                0.10598852                1.20956708               -0.11308698                0.13050178
               5.91155034                2.00084215               69.07559326                0.01000000               -0.58482944               -0.06664627                0.11942738                1.59183362               -0.22447122                0.13800619
               6.90518280                2.01704031               69.07563739                0.01000000               -0.33985892               -0.35267766                0.14069536                1.13317855               -0.15029372                0.14338125
               7.90475316                2.01952607               69.07879420                0.44481542               -0.04312724               -0.04205276                0.14157718                0.00027101                0.00468062                0.01101952
               8.90432026                2.02209504               69.08193948                0.99999999               -0.04273017               -0.04191576                0.14083122               -0.00039442                0.00207558                0.00407695
               9.90389856                2.02474937               69.08505432                0.99999999               -0.04216987               -0.04044915                0.13711378               -0.00450650                0.00050155                0.00387458
              -0.06973614                2.98947721               69.06052857                0.01000001               -0.04609412                0.17078297                0.09845862                0.30268812               -0.09575986                0.08338291
               0.92980292                2.98458964               69.06402495                0.01000000                0.01836434               -0.09102707                0.06826175                0.31290750               -0.07465294                0.20060001
               1.93063115                2.97982931               69.06754356                0.01000000               -0.00347042               -0.15669022                0.08197246                0.58462951                0.00160690                0.11907952
               2.92973351                2.97946311               69.07109692                0.01000000               -0.17112521               -0.13260439                0.09113183                1.01754647                0.00601085                0.13446353
               3.92720864                2.98304114               69.07427619                0.01000001               -0.33381148               -0.09095266                0.10109609                1.39761190               -0.02586801                0.15496952
               4.92305728                2.99019520               69.07701881                0.01000000               -0.49328396               -0.06746103                0.11287304                1.73577342               -0.06897353                0.17517788
               5.91734296                3.00044864               69.07917991                0.01000001               -0.57278499               -0.10767686                0.12743091                1.88933140               -0.10236827                0.19824925
               6.91160158                3.01037276               69.08110748                0.01000000               -0.75600821               -0.42486829                0.14611750                1.79865983               -0.18556365                0.27544554
               7.90222280                3.01906713               69.08156555                0.01000002               -0.49526639               -0.21507347                0.18020906                1.05810862               -0.13687063                0.18495139
               8.90169625                3.02163352               69.08453217                0.22073251               -0.05172221               -0.04670635                0.17041228                0.00301655               -0.00821033                0.06602247
               9.90118835                3.02430405               69.08763261                0.99999999               -0.05078981               -0.04486090                0.16436956               -0.00929647               -0.00216106                0.06569008
              -0.05877743                3.99211096               69.06318016                0.01000001               -0.02081936                0.13130148                0.09927505                0.27722652                0.00061532                0.14232596
               0.94101437                3.98258699               69.06653166                0.01000000               -0.00420642               -0.23193982                0.08281096                0.54809061                0.02491682                0.09155019
               1.94113844                3.97771678               69.07021138                0.01000000               -0.03710610               -0.27248001                0.08275665                0.97782750                0.05185138                0.11036206
               2.94027225                3.97752796               69.07382680                0.01000000               -0.15756945               -0.25359778                0.09452832                1.42296906                0.03720986                0.14551979
               3.93798705                3.98159273               69.07726259                0.01000000               -0.30424442               -0.20627484                0.10587092                1.83098748                0.01093978                0.17676583
               4.93418736                3.98914658               69.08036955                0.01000001               -0.44138190               -0.16640592                0.11887947                2.15512547               -0.01944487                0.20332179
               5.92915941                3.99868862               69.08314249                0.01000001               -0.58249242               -0.18550080                0.13247775                2.34558601               -0.05273023                0.23299724
               6.92253751                4.00854294               69.08546132                0.01000000               -0.72524172               -0.20595184                0.14947630                2.23961291               -0.07980281                0.25537937
               7.91465458                4.01522460               69.08761148                0.01000080               -1.16969243               -0.26832649                0.16935859                2.22156792               -0.15920492                0.33169057
               8.89914367                4.02116091               69.08835304                0.01000000               -0.81415059               -0.31255162                0.22931516                1.90130089               -0.11531696                0.28359201
               9.89837156                4.02385215               69.09143606                0.01000000               -0.07721004               -1.15974491                0.21736219                1.86064388               -0.00613072                0.26628453
              -0.04514367                4.99210324               69.06621807                0.01000001                0.03025852               -0.16885857                0.12136865                0.34004424                0.04447572                0.11731851
               0.95515891                4.97995085               69.06916768                0.01000000                0.01952007               -0.36737598                0.08171925                0.72578776                0.07631231                0.08786965
               1.95524673                4.97437971               69.07268308                0.01000001               -0.04209864               -0.36580916                0.08424151                1.29384394                0.08211121                0.11891352
               2.95431694                4.97439115               69.07651980                0.01000000               -0.15184815               -0.35849713                0.09316165                1.72953354                0.06912137                0.15792425
               3.95220977                4.97891564               69.08021388                0.01000001               -0.26265194               -0.33807205                0.11194827                2.13882961                0.03550478                0.19444139
               4.94906390                4.98686708               69.08373939                0.01000001               -0.36757214               -0.28454723                0.12415444                2.47580764                0.01975780                0.21160578
               5.94485832                4.99673862               69.08698723                0.01000001               -0.46030214               -0.23619902                0.13623650                2.64602948                0.00346141                0.24107044
               6.93985786                5.00625372               69.08997461                0.01000002               -0.54110689               -0.24293689                0.14905501                2.68338709               -0.02043126                0.28046896
               7.93403619                5.01370060               69.09257976                0.01000000               -0.43815734               -0.27712475                0.16610572                2.55806905               -0.03866303                0.31465446
               8.93109471                5.01538249               69.09517849                0.01000000               -0.05087167               -0.66335496                0.17894552                2.21914468               -0.03913880                0.40355992
               9.93301875                5.00110915               69.09793910                0.01000002                0.19240403               -1.48987829                0.18716483                1.49638320               -0.04251420                0.38345036
              -0.02767177                5.98873379               69.06868840                0.01000002                0.09254279               -0.67544856                0.24302583                0.72664777                0.00287092                0.05582617
               0.97325366                5.97523947               69.07141754                0.01000001                0.01233903               -0.44685991                0.11056951                1.12921083               -0.00998406                0.10302358
               1.97257501                5.97040060               69.07508573                0.01000000               -0.14633379               -0.31500426                0.06065135                1.39307906                0.07633120                0.09868592
               2.97032698                5.97035802               69.07890336                0.01000001               -0.21436500               -0.49329586                0.10704905                1.79404177                0.02849662                0.21763112
               3.96828771                5.97483129               69.08303623                0.01000001               -0.22232239               -0.49564583                0.11787064                2.28426718                0.04584983                0.17355597
               4.96588053                5.98345564               69.08686762                0.01000001               -0.27971759               -0.38981073                0.12964871                2.62567062                0.04776219                0.19872089
               5.96269336                5.99396464               69.09067431                0.01000002               -0.33186261               -0.29866691                0.13922722                2.76477602                0.06306754                0.23097472
               6.95924328                6.00368421               69.09426024                0.01000000               -0.30030830               -0.26889066                0.14881759                2.66382397                0.05667308                0.28317808
               7.95668719                6.00968210               69.09759044                0.01000000               -0.15626403               -0.37126576                0.15879412                2.30314389                0.03450913                0.33866135
               8.95611800                6.00789381               69.10063596                0.01000000                0.00793504               -0.55703801                0.16812601                1.42918947                0.00843932                0.36484273
               9.95684589                5.99405459               69.10357861                0.01000000                0.07278923               -0.41194875                0.17410359                0.69690542               -0.00644633                0.34355681
              -0.00362208                6.97859426               69.06966362                0.98518559               -0.03015934               -0.52202765                0.09827413                0.82453399               -0.00522747                0.01838218
               0.99607633                6.97101365               69.07359981                0.01000002               -0.41940754               -0.22765244                0.10462074                0.99451180               -0.08151276                0.05829358
               1.98798977                6.96807962               69.07600999                0.01000001               -0.51546205               -0.36539390                0.18198193                1.21268564               -0.27448557                0.21057172
               2.98576708                6.96452523               69.08150619                0.01000000               -0.15961400               -0.75448331                0.10733964                1.70240486                0.01324124                0.02992357
               3.98479749                6.96900273               69.08506387                0.01000000               -0.16615589               -0.64911842                0.13043501                2.23149825               -0.01559324                0.15450559
               4.98244397                6.97907087               69.08962852                0.01000002               -0.24361046               -0.48339456                0.13682420                2.64283254                0.10127327                0.13515823
               5.97992528                6.99076529               69.09399684                0.01000000               -0.25135460               -0.28720517                0.14150709                2.63535339                0.13637105                0.19568562
               6.97741687                7.00087591               69.09831646                0.01000000               -0.20179119               -0.24714910                0.14826292                2.37103294                0.15048934                0.26767596
               7.97588946                7.00627528               69.10233823                0.01000000               -0.10554296               -0.26451114                0.15558260                1.86462736                0.12599568                0.35547349
               8.97530602                7.00424173               69.10585960                0.01000000               -0.06270696               -0.19618562                0.16387287                1.05161453                0.06500640                0.39646927
               9.97463532                6.99287018               69.10870443                0.01000003               -0.06706995                0.06550269                0.17337603                0.47153965                0.02082912                0.35810533
               0.00398014                7.97829324               69.07063076                1.00000000               -0.03216049               -0.03104380                0.10386239                0.00063788               -0.00300236                0.02230994
               1.00365854                7.97068643               69.07444505                0.99999999               -0.03315032               -0.03346077                0.11073693               -0.00053288               -0.00770837               -0.00307891
               2.00331714                7.96309272               69.07816564                0.01000000               -0.01032833               -0.26753843                0.11859409                0.37477800               -0.13814562                0.04746420
               3.00345197                7.95526835               69.07937140                0.01000001               -0.24725467               -0.47044616                0.17781916                1.17523523               -0.23710710                0.27957179
               3.99837204                7.96184892               69.08687148                0.01000002               -0.32386727               -1.07444493                0.15116411                2.19271253                0.17060189               -0.06047298
               4.99697463                7.97378775               69.09161591                0.01000000               -0.23883298               -0.39893791                0.13925036                2.47701348                0.15901994                0.06462138
               5.99359538                7.98822053               69.09683212                0.01000000               -0.29103410               -0.17303984                0.14447776                2.24055993                0.23152760                0.13556912
               6.99115394                7.99874122               69.10192303                0.01000001               -0.14907305               -0.17749373                0.14904594                1.82313325                0.27392178                0.21553289
               7.99061392                8.00439188               69.10702060                0.01000001               -0.02992747               -0.18433045                0.15332808                1.43461444                0.26401764                0.32682976
               8.99055540                8.00397010               69.11113943                0.01000001               -0.07970704                0.00534705                0.16132868                0.96939023                0.16890449                0.54673189
               9.98901978                7.99536464               69.11408263                0.01000002               -0.15356130                0.50851452                0.17334393                0.56931097                0.09861175                0.38751071
               0.01160430                8.97797339               69.07168393                0.99999997               -0.03381148               -0.03276709                0.10941954                0.00059198                0.00149514                0.02152600
               1.01126619                8.97034443               69.07539794                0.99999999               -0.03504502               -0.03486888                0.11610071               -0.00029672                0.00115770                0.00211943
               2.01090340                8.96272885               69.07910394                0.99999998               -0.03753002               -0.03693849                0.12292837               -0.00131049               -0.00533292               -0.00854183
               3.01051559                8.95511631               69.08268457                0.88187115               -0.03855307               -0.02652808                0.12708090               -0.02724363               -0.00976591                0.10518361
               4.01013234                8.94751383               69.08629608                0.01000000               -0.24514823               -0.73540341                0.12906397                1.76641957                0.15561318               -0.09846913
               5.00561262                8.97109211               69.09318465                0.01000000               -0.51746693               -0.07560908                0.14501302                2.09396632                0.31040580                0.00957381
               5.99978300                8.98730449               69.09908570                0.01000007               -0.39522141               -0.04525777                0.14897900                1.36071867                0.31110605                0.06553481
               6.99770819                8.99732604               69.10483387                0.01000000               -0.02150686               -0.14409473                0.15323858                0.98257365                0.36852387                0.11788216
               7.99935287                9.00258867               69.11070113                0.01000005                0.30064310               -0.23431598                0.15575661                0.79641252                0.53767880                0.20436327
               9.00372106                9.00434867               69.11844220                1.00000000                0.19397959               -0.00498258                0.15123926                0.74999318                0.35211659                0.34484050
              10.00323246                9.00304047               69.11907904                1.00000000               -0.04885997                0.35565119                0.17662019                0.64574309               -0.00270963                0.22371672
               0.01924990                9.97763790               69.07263516                1.00000000               -0.03527544               -0.03354923                0.11412509               -0.00032558                0.01592252                0.01633879
               1.01889714                9.96998905               69.07634801                0.99999999               -0.03654235               -0.03553851                0.12069218               -0.00110204                0.01982875                0.00177776
               2.01851905                9.96235395               69.08013901                1.00000000               -0.03875096               -0.03749033                0.12774203               -0.00099826                0.02195543               -0.00405621
               3.01812212                9.95473779               69.08389391                0.99999999               -0.03972055               -0.03785222                0.13208167               -0.00000136                0.01670835               -0.00056992
               4.01772464                9.94714085               69.08758941                0.01822267               -0.95294146               -0.03729774                0.13427309                1.63611857                0.17750014               -0.00540770
               4.99906329                9.97227557               69.09457102                0.01000000               -1.15744034                0.11834580                0.15111835                1.35379331                0.34585260               -0.01868184
               5.99457583                9.98731538               69.10083481                0.01000001               -0.17710297                0.00108883                0.15803328                0.65847098                0.33832531                0.01955563
               6.99552123                9.99585933               69.10674439                0.01000000                0.24718549               -0.14667063                0.16365566                0.40081295                0.39288189                0.04621079
               7.99951954                9.99970556               69.11298947                0.01000002                0.47911146               -0.28831150                0.16587829                0.41722367                0.45913312                0.10565088
               9.00510346               10.00387045               69.11891007                1.00000000                0.25157499               -0.04782173                0.17038839                0.27684597                0.26780904                0.00362156
              10.00455104               10.00247767               69.11954690                0.99999998               -0.05524221               -0.05628045                0.19576935               -0.00742015                0.00323643               -0.00323688
              -0.08682241               -0.01224370               70.05453983                1.00000000               -0.02308450               -0.02498189                0.07862772                0.00098682               -0.00794932                0.00762535
               0.91294674               -0.01663631               70.05804858                1.00000000               -0.02267314               -0.02415420                0.07599179               -0.00037040               -0.00860368               -0.00151803
               1.91272412               -0.02099995               70.06154485                0.01000000                0.15907423               -0.02333017                0.07337679                0.24198329               -0.00878875               -0.00350226
               2.91612823               -0.02048562               70.06504526                0.01000001                0.25785372               -0.07375807                0.07226317                0.18911248               -0.02736374                0.03371795
               3.91788120               -0.01786716               70.06795208                0.01000000                0.10287070               -0.03049718                0.07823274                0.19795759               -0.09912087                0.03861592
               4.91818564               -0.01182313               70.07003001                0.01000001               -0.10957765                0.01689441                0.08865214                0.30154332               -0.18739735                0.03853894
               5.91568965               -0.00148634               70.07122601                0.01000000               -0.56131878                0.11156048                0.09678519                0.66065733               -0.26966048                0.02158403
               6.90695926                0.01505271               70.07151185                0.98001456               -0.45029253               -0.03170910                0.09370813                0.70730273               -0.14060296               -0.00329634
               7.90668379                0.01752457               70.07458533                1.00000000               -0.02721899               -0.03026423                0.09073333                0.00016382               -0.00228059               -0.00124865
               8.90641489                0.02007218               70.07765327                1.00000000               -0.02634934               -0.02900081                0.08718818               -0.00005692               -0.00250658                0.00000941
               9.90615681                0.02269246               70.08073544                1.00000000               -0.02580771               -0.02807542                0.08466510               -0.00452277               -0.00229431               -0.00216560
              -0.08241993                0.98750648               70.05612204                0.99999999               -0.02589066               -0.02631462                0.08761385                0.00139460                0.00143035                0.00809886
               0.91732116                0.98312215               70.05963247                0.01000000               -0.02557294               -0.02546418                0.08498538                0.00002637                0.00425814               -0.00441340
               1.91706861                0.97876675               70.06320137                0.01000000               -0.04341033                0.01682158                0.08234163                0.19018606                0.01465722                0.03897082
               2.91645296                0.97877680               70.06691655                0.01000000               -0.07695427               -0.04004440                0.07909051                0.33392205               -0.01247547                0.05915033
               3.91552953                0.98182787               70.06988167                0.01000000               -0.17211460               -0.01036376                0.08445822                0.45868186               -0.07493471                0.06792845
               4.91301067                0.98834582               70.07217757                0.01000000               -0.33356141                0.03217755                0.09512307                0.66573415               -0.14119880                0.06805238
               5.90885830                0.99962926               70.07362702                0.01000001               -0.42419147                0.01486486                0.10774893                0.95713736               -0.21269381                0.05294014
               6.90452684                1.01473562               70.07429242                0.82098964               -0.23412988               -0.03505817                0.11736722                0.63626915               -0.12016765               -0.00545616
               7.90417570                1.01722193               70.07739267                1.00000000               -0.03482327               -0.03399662                0.11476288                0.00132429                0.00135987               -0.00050213
               8.90383037                1.01978217               70.08048700                1.00000000               -0.03421998               -0.03269133                0.11202550                0.00009164                0.00060245                0.00183786
               9.90349130                1.02241171               70.08356911                1.00000000               -0.03390695               -0.03131707                0.10923262               -0.00455999                0.00013301               -0.00121663
              -0.07802584                1.98723001               70.05771758                0.06544316               -0.02871517               -0.00467677                0.09663037                0.01059369                0.00328950                0.09454064
               0.92168700                1.98285440               70.06115699                0.01000000               -0.05504810               -0.01211142                0.09403205                0.04795573                0.05831990                0.08066108
               1.92087319                1.97933648               70.06570043                0.01000001               -0.09707272               -0.02323749                0.08130848                0.30183069                0.06486340                0.09887405
               2.91974555                1.97871349               70.06928105                0.01000000               -0.16936894               -0.03844431                0.08477669                0.63118093               -0.00254656                0.10209587
               3.91748581                1.98192556               70.07238918                0.01000000               -0.30233099               -0.01056548                0.09051765                0.93032077               -0.04576717                0.11656150
               4.91369893                1.98882042               70.07492238                0.01000001               -0.45216141                0.01422962                0.10059911                1.19063310               -0.09866140                0.12433752
               5.90844259                1.99881095               70.07676845                0.01000000               -0.58034738               -0.05316848                0.11518202                1.54792664               -0.20445800                0.12819194
               6.90209198                2.01435155               70.07704006                0.01000000               -0.33894268               -0.33133415                0.13857722                1.10440751               -0.13610063                0.13086377
               7.90166373                2.01684464               70.08021451                0.46071113               -0.04325217               -0.04249415                0.14227211                0.00379496                0.00796752                0.02116479
               8.90122694                2.01941835               70.08335107                0.99999999               -0.04285956               -0.04111948                0.14000554               -0.00014881                0.00340189                0.00759903
               9.90080654                2.02206612               70.08641549                0.99999999               -0.04203972               -0.03877831                0.13357008               -0.00520590                0.00100255                0.00227227
              -0.07345684                2.98741295               70.06103362                0.01000001               -0.03693509                0.16335627                0.06058442                0.34888456               -0.01579737                0.13245250
               0.92617381                2.98287992               70.06444199                0.01000000                0.03514910               -0.10935512                0.05227960                0.35643364                0.01452625                0.13574797
               1.92724614                2.97830200               70.06833384                0.01000000                0.01568441               -0.16411325                0.08385122                0.62156686                0.04591395                0.10336772
               2.92648749                2.97800791               70.07198647                0.01000000               -0.16085662               -0.12790978                0.09081957                1.04085347                0.02439568                0.12337179
               3.92402901                2.98161656               70.07526402                0.01000004               -0.32747783               -0.08076152                0.09779549                1.40095180               -0.01038429                0.14795506
               4.91993794                2.98863041               70.07811768                0.01000000               -0.48716515               -0.05378370                0.10709528                1.71666598               -0.05370819                0.16830618
               5.91428570                2.99856589               70.08041896                0.01000001               -0.56783177               -0.08887014                0.12118154                1.85661707               -0.08410269                0.18707169
               6.90858130                3.00810894               70.08254428                0.01000000               -0.75504530               -0.38907031                0.13571979                1.76095833               -0.15541677                0.25628910
               7.89918480                3.01637204               70.08343805                0.01000001               -0.49876952               -0.19654882                0.19995383                1.04060501               -0.11944951                0.17782039
               8.89860591                3.01895978               70.08625744                0.27839881               -0.05465720               -0.04064355                0.17489393                0.00845376               -0.01053452                0.09267437
               9.89809165                3.02163614               70.08927158                0.99999999               -0.05142584               -0.04024559                0.16355397               -0.00741675               -0.00230628                0.08333781
              -0.06198209                3.99049714               70.06420865                0.01000000               -0.00912836                0.13369320                0.09668294                0.34460789                0.00694773                0.12571878
               0.93792663                3.98066730               70.06735502                0.01000000                0.00793136               -0.24579260                0.09306713                0.63624571                0.04481752                0.06238647
               1.93817654                3.97605422               70.07101213                0.01000000               -0.03392827               -0.27015325                0.09110811                1.05365086                0.08178476                0.07736243
               2.93724806                3.97615529               70.07476686                0.01000001               -0.16470929               -0.23587873                0.09923907                1.45827785                0.06755030                0.12415048
               3.93488235                3.98031033               70.07829609                0.01000000               -0.30825725               -0.18761348                0.10467915                1.83134499                0.02930043                0.16750964
               4.93108292                3.98774475               70.08152529                0.01000001               -0.43929770               -0.14781436                0.11358071                2.13472246               -0.00294306                0.19416771
               5.92609640                3.99703355               70.08442738                0.01000001               -0.57889596               -0.16271665                0.12498039                2.31568216               -0.03667068                0.22135580
               6.91950500                4.00657015               70.08691878                0.01000002               -0.72357026               -0.17682252                0.14183898                2.20736721               -0.06345221                0.23769265
               7.91162499                4.01291366               70.08925531                0.01000003               -1.16865391               -0.22995103                0.15323443                2.19443303               -0.11348754                0.30189451
               8.89613192                4.01860548               70.09077523                0.01000000               -0.81597495               -0.28796375                0.22791088                1.88847813               -0.07356510                0.26781463
               9.89530549                4.02126121               70.09370748                0.01000000               -0.08264252               -1.14104804                0.21864275                1.85367027               -0.00059123                0.25191533
              -0.04690502                4.99008681               70.06713684                0.01000000                0.02466551               -0.14695801                0.10993022                0.41222830                0.07695055                0.14927212
               0.95334164                4.97796406               70.06985383                0.01000000               -0.01319102               -0.32181975                0.08227070                0.77057361                0.14944660               -0.03600506
               1.95283116                4.97289893               70.07351551                0.01000001               -0.09723516               -0.34243615                0.10447557                1.33596404                0.17717035                0.03236166
               2.95139694                4.97329034               70.07740800                0.01000000               -0.18823567               -0.32892268                0.10188249                1.74568060                0.10833339                0.13729736
               3.94906645                4.97786429               70.08130641                0.01000001               -0.27438827               -0.30805715                0.11106485                2.12135060                0.06589582                0.17665047
               4.94590917                4.98567412               70.08493696                0.01000001               -0.36462489               -0.26379964                0.11815319                2.44451713                0.03599166                0.20183790
               5.94177395                4.99531156               70.08830634                0.01000001               -0.45303166               -0.21683543                0.12861184                2.62081420                0.01617755                0.22832296
               6.93684854                5.00457249               70.09141807                0.01000001               -0.53679152               -0.21536245                0.13987656                2.66425327               -0.00750302                0.26286892
               7.93103812                5.01177302               70.09419833                0.01000000               -0.44103046               -0.24049442                0.15656929                2.54108050               -0.02624826                0.29264494
               8.92802793                5.01320051               70.09691471                0.01000000               -0.05922551               -0.62395939                0.16663777                2.20474667               -0.02841867                0.35130728
               9.92985361                4.99881518               70.09976473                0.01000002                0.18256835               -1.46023713                0.17443884                1.48710495               -0.03001506                0.34604923
              -0.02949203                5.98755798               70.07176213                0.01000002                0.00180059               -0.61515313                0.14526889                0.63052899                0.32554105               -0.33646232
               0.97052598                5.97423091               70.07242041                0.01000001               -0.04692122               -0.39519875                0.19077641                1.01801315                0.38408327               -0.08953606
               1.96956955                5.96920549               70.07545918                0.01000000               -0.16648287               -0.37094847                0.07554358                1.44923544                0.16991350                0.09444345
               2.96719632                5.96957684               70.07993072                0.01000001               -0.23219850               -0.40228530                0.11091777                1.80055160                0.13423741                0.14342610
               3.96492558                5.97414919               70.08411893                0.01000001               -0.23351656               -0.44904447                0.11072328                2.20745940                0.07881398                0.16670632
               4.96252599                5.98246876               70.08811619                0.01000000               -0.26556314               -0.38490758                0.12258642                2.58012436                0.06563923                0.18786668
               5.95961431                5.99269684               70.09201562                0.01000001               -0.30986954               -0.28651005                0.13045160                2.74653891                0.07160624                0.21795177
               6.95632860                6.00226290               70.09570302                0.01000000               -0.28978640               -0.24678661                0.14031912                2.66336561                0.06291141                0.26569827
               7.95381859                6.00810377               70.09913470                0.01000000               -0.15719507               -0.33734856                0.15013760                2.30777899                0.03945119                0.31605279
               8.95318470                6.00612629               70.10227548                0.01000004               -0.00001677               -0.51639617                0.15976760                1.43244622                0.01140926                0.34283387
               9.95381825                5.99205646               70.10527475                0.01000000                0.06335543               -0.38378388                0.16580178                0.69792445               -0.00466440                0.32703843
              -0.00764030                6.97778375               70.07064704                0.96822395               -0.03053189               -0.50386051                0.09888516                0.70744237               -0.00499578               -0.08814303
               0.99205438                6.97006009               70.07464823                0.01330906               -0.29448820               -0.22492531                0.10551387                0.84754829               -0.05545299                0.05890387
               1.98646994                6.96547996               70.07764925                0.01000000               -0.47950555               -0.36057607                0.17460323                1.25253338                0.12102140                0.02414507
               2.98246427                6.96524463               70.08206485                0.01000000               -0.30731086               -0.43077944                0.08034748                1.49148571                0.09378650                0.11422776
               3.98032372                6.96888340               70.08633540                0.01000003               -0.17501328               -0.69319427                0.12449512                2.07458844                0.04097440                0.14194239
               4.97896401                6.97797597               70.09090874                0.01000002               -0.17065645               -0.49049604                0.12347668                2.58584569                0.10991982                0.12805575
               5.97691059                6.98958136               70.09536303                0.01000000               -0.21275434               -0.28693956                0.13294451                2.63761270                0.14016098                0.18340246
               6.97470892                6.99963676               70.09975500                0.01000000               -0.17901441               -0.23532663                0.14014588                2.39272115                0.15038153                0.25064884
               7.97333030                7.00502605               70.10385471                0.01000013               -0.09923799               -0.23590356                0.14817867                1.89947773                0.12496643                0.33451798
               8.97272416                7.00287258               70.10746343                0.01000002               -0.06892706               -0.15359650                0.15735578                1.07810607                0.06454565                0.37645618
               9.97195176                6.99113950               70.11040612                0.01000000               -0.07723975                0.09631896                0.16757449                0.48492905                0.02117933                0.34623112
               0.00010414                7.97748076               70.07167096                1.00000000               -0.03234105               -0.03113450                0.10442966                0.00079863               -0.00276069                0.02275509
               0.99978073                7.96973240               70.07555335                0.99999999               -0.03342324               -0.03352503                0.11117224               -0.00034535               -0.00737358               -0.00236775
               1.99943567                7.96199397               70.07934903                0.01000000               -0.30790640               -0.19246826                0.11870493                0.59685915               -0.05462356                0.02218102
               2.99362260                7.96096125               70.08229222                0.01000001               -0.28748348               -0.56757683                0.24894025                1.13161671               -0.21554423                0.28975260
               3.99368600                7.96028530               70.08803426                0.01000004               -0.00388283               -1.13520448                0.10738520                1.88875646                0.11556413               -0.06244558
               4.99354494                7.97265884               70.09297070                0.01000000               -0.14901117               -0.41701098                0.13142089                2.49683514                0.16946163                0.06141734
               5.99070578                7.98695805               70.09822947                0.01000000               -0.24033087               -0.18406070                0.13646554                2.25019683                0.22886058                0.12618990
               6.98873833                7.99755636               70.10337494                0.01000000               -0.10667328               -0.18108298                0.14186848                1.86154540                0.26724769                0.20130569
               7.98857231                8.00338570               70.10851981                0.01000000               -0.00524789               -0.17333619                0.14690772                1.49981208                0.25579156                0.30795734
               8.98863337                8.00305436               70.11272634                0.01000000               -0.07946585                0.04717110                0.15634537                1.03996851                0.16313518                0.52199857
               9.98698300                7.99398284               70.11579707                0.01000002               -0.16503701                0.56551463                0.16986780                0.61734248                0.09484784                0.37615112
               0.00787240                8.97716106               70.07277810                1.00000000               -0.03381361               -0.03274432                0.10952977                0.00081270                0.00145179                0.02159002
               1.00753427                8.96938959               70.07655964                0.99999999               -0.03470676               -0.03503079                0.11642040               -0.00004877                0.00119227                0.00218865
               2.00717827                8.96163060               70.08033767                0.99999999               -0.03644971               -0.03708902                0.12313314                0.00046353               -0.00684340               -0.00848337
               3.00680527                8.95389309               70.08395356                0.81993478               -0.03885023               -0.37386090                0.13165954                0.27369522               -0.01487017                0.02029919
               4.00640126                8.94617931               70.08756116                0.01000000               -0.22886552               -0.72753808                0.14207428                1.80884458                0.15588252               -0.09535752
               5.00222796                8.96963575               70.09461739                0.01000000               -0.46921317               -0.09991361                0.13884567                2.10127770                0.31315147                0.00926850
               5.99701700                8.98590014               70.10054230                0.01000005               -0.33578930               -0.06312599                0.14338123                1.37455274                0.30439853                0.06045768
               6.99551218                8.99601510               70.10633314                0.01000002                0.04057716               -0.16069987                0.14704004                1.01112799                0.35753762                0.10960988
               7.99782854                9.00155933               70.11223049                0.01000001                0.37071046               -0.24944680                0.15043991                0.85792780                0.51741642                0.19264397
               9.00292639                9.00381601               70.11994094                0.99999999                0.23065553                0.01443460                0.14850544                0.83165225                0.33711290                0.33027897
              10.00244166                9.00244979               70.12084737                1.00000000               -0.04847318                0.39494329                0.17704622                0.70521211               -0.00270736                0.21626372
               0.01566333                9.97682588               70.07377853                1.00000000               -0.03531210               -0.03351810                0.11441254               -0.00031656                0.01564407                0.01627948
               1.01531021                9.96903178               70.07755753                0.99999999               -0.03609469               -0.03578048                0.12127853               -0.00108992                0.01998522                0.00158274
               2.01494144                9.96125219               70.08142501                0.99999998               -0.03812087               -0.03784071                0.12793786               -0.00107050                0.02079911               -0.00381197
               3.01454779                9.95348403               70.08521256                0.99999998               -0.04106012               -0.04090598                0.13706173               -0.00163039                0.01246104               -0.00140354
               4.01412024                9.94573454               70.08890897                0.08185823               -0.93490660               -0.04447654                0.14803329                1.63072378                0.18055378               -0.00765275
               4.99584966                9.97066056               70.09608191                0.01000000               -1.11513745                0.10248129                0.14782486                1.36021925                0.34917166               -0.01927017
               5.99181749                9.98569553               70.10238770                0.01000001               -0.12739811               -0.02046127                0.15343746                0.66413877                0.33384928                0.01769738
               6.99330170                9.99434237               70.10835100                0.01000000                0.30562378               -0.16727324                0.15819641                0.41401397                0.38279865                0.04268866
               7.99792996                9.99839676               70.11462609                0.01000002                0.55371232               -0.31625638                0.16179908                0.46017642                0.44350001                0.10054859
               9.00437595               10.00334306               70.12061183                1.00000000                0.29448509               -0.04729495                0.16996321                0.31920327                0.25758541                0.00362085
              10.00381967               10.00188171               70.12151825                0.99999999               -0.05562817               -0.05680844                0.19850468               -0.00833373                0.00323520               -0.00323228
              -0.09039737               -0.01379488               71.05532882                1.00000000               -0.02312384               -0.02517502                0.07920655                0.00088432               -0.00790244                0.00754698
               0.90937139               -0.01828043               71.05880682                1.00000000               -0.02257615               -0.02407754                0.07568837               -0.00050337               -0.00857061               -0.00149599
               1.90915111               -0.02273645               71.06227271                0.01000000                0.16423825               -0.02296799                0.07222764                0.25425469               -0.00803880               -0.00346812
               2.91265616               -0.02206562               71.06575780                0.01000002                0.26253383               -0.07296572                0.07021174                0.19800301               -0.02402213                0.03198625
               3.91440179               -0.01945494               71.06873665                0.01000000                0.10050723               -0.02964954                0.07668964                0.19647001               -0.09122428                0.03931420
               4.91466630               -0.01363699               71.07094326                0.01000001               -0.10799353                0.01622018                0.09647068                0.29126165               -0.17720846                0.03714678
               5.91224191               -0.00375106               71.07223472                0.01000000               -0.53911200                0.10489950                0.11233389                0.63148832               -0.27309142                0.01843305
               6.90388406                0.01211247               71.07246160                0.98750392               -0.43215649               -0.03234922                0.09690332                0.67317721               -0.14297252               -0.00426101
               7.90359878                0.01457477               71.07550374                1.00000000               -0.02812965               -0.03058107                0.09380440                0.00009151               -0.00382133               -0.00294862
               8.90332147                0.01710242               71.07853346                1.00000000               -0.02714844               -0.02916273                0.09015473                0.00004395               -0.00408407               -0.00197155
               9.90305582                0.01969246               71.08158823                1.00000000               -0.02656537               -0.02838120                0.08735500               -0.00401781               -0.00385174               -0.00579566
              -0.08590298                0.98595337               71.05700186                0.99999999               -0.02598783               -0.02652909                0.08833473                0.00144374                0.00140931                0.00804489
               0.91383715                0.98147880               71.06048169                0.01000000               -0.02553864               -0.02541682                0.08486078                0.00004861                0.00422404               -0.00437649
               1.91358625                0.97703387               71.06401979                0.01000000               -0.04208569                0.02160261                0.08133182                0.20336657                0.01393509                0.03469689
               2.91299543                0.97720472               71.06769125                0.01000000               -0.07170418               -0.03911695                0.07605917                0.34760100               -0.01308137                0.05924670
               3.91215217                0.98024856               71.07070487                0.01000000               -0.16342263               -0.00921986                0.07859704                0.45644721               -0.07094416                0.07047232
               4.90972698                0.98652521               71.07311628                0.01000000               -0.32350509                0.03397146                0.08984967                0.64549791               -0.13032659                0.06835874
               5.90568207                0.99729793               71.07470623                0.01000001               -0.41370317                0.01825593                0.10779636                0.91826753               -0.20151178                0.04585121
               6.90145292                1.01178898               71.07546919                0.79968828               -0.22886702               -0.03533723                0.11758098                0.60508504               -0.11487879               -0.00817413
               7.90110473                1.01426896               71.07853502                0.99999999               -0.03449261               -0.03353910                0.11411452                0.00122648                0.00049109               -0.00024745
               8.90076306                1.01681079               71.08159804                1.00000000               -0.03395650               -0.03129199                0.11097975                0.00027673                0.00039023                0.00076979
               9.90042560                1.01940865               71.08465089                0.99999998               -0.03374681               -0.03000617                0.10816406               -0.00351608                0.00051445               -0.00631904
              -0.08141934                1.98567454               71.05868866                0.09563192               -0.02887877               -0.01590894                0.09750423                0.00537669                0.00327123                0.07675843
               0.91829187                1.98121123               71.06209800                0.01000000               -0.05440710               -0.01861135                0.09417211                0.04885683                0.05397329                0.06052392
               1.91749251                1.97769560               71.06652430                0.01000001               -0.09491933               -0.02244545                0.08380846                0.31797470                0.06325870                0.09351791
               2.91639348                1.97715204               71.07012345                0.01000000               -0.16411392               -0.03799923                0.08387160                0.64804345               -0.00034627                0.10470754
               3.91421024                1.98036066               71.07327174                0.01000000               -0.29332953               -0.00776193                0.08582954                0.93039902               -0.04258085                0.12118113
               4.91052689                1.98704244               71.07589831                0.01000001               -0.44333699                0.02165981                0.09262295                1.16772952               -0.08921923                0.12631603
               5.90534350                1.99661405               71.07789690                0.01000000               -0.57560797               -0.03833949                0.10824474                1.49577689               -0.18406462                0.12211148
               6.89901473                2.01140573               71.07840893                0.01000000               -0.33709972               -0.30845771                0.13587173                1.06555903               -0.11995247                0.11244035
               7.89860150                2.01390399               71.08163965                0.60880036               -0.04137084               -0.03431118                0.13732559                0.00433836                0.01177182                0.04460810
               8.89818732                2.01647658               71.08473959                0.99999998               -0.04058610               -0.03739708                0.13267383                0.00386534                0.00328258                0.01289626
               9.89778978                2.01909234               71.08772572                0.99999999               -0.03975354               -0.03649156                0.12694608               -0.00400679               -0.00019858               -0.00059041
              -0.07686883                2.98563519               71.06174026                0.01000001               -0.03379444                0.14237863                0.07756601                0.37154340               -0.00242365                0.14528343
               0.92279322                2.98110657               71.06507054                0.01000000                0.04368871               -0.13941738                0.07149610                0.38825652                0.03991231                0.13614982
               1.92400494                2.97658496               71.06922059                0.01000000                0.02490084               -0.18066212                0.09423910                0.66039730                0.06488347                0.10725837
               2.92329124                2.97644474               71.07291331                0.01000000               -0.15675976               -0.12812975                0.09484179                1.07270900                0.02626317                0.12981218
               3.92086975                2.98009332               71.07623210                0.01000001               -0.32315319               -0.07300615                0.09588647                1.40590317               -0.00793415                0.15240187
               4.91682818                2.98695841               71.07916071                0.01000000               -0.48177153               -0.04158907                0.10158845                1.69540693               -0.04446431                0.16892481
               5.91123432                2.99653114               71.08160354                0.01000001               -0.56770076               -0.06928499                0.11413854                1.81752161               -0.07225530                0.18002509
               6.90547416                3.00561983               71.08382188                0.01000000               -0.75568373               -0.34913622                0.12971776                1.72387053               -0.11387642                0.23805456
               7.89612064                3.01358274               71.08556463                0.01000003               -0.49110692               -0.17008955                0.15802817                1.01849475               -0.09511145                0.15024321
               8.89565202                3.01606285               71.08803005                0.40639532               -0.05033485               -0.03083208                0.16770682                0.00644770               -0.02719534                0.10644126
               9.89511394                3.01867882               71.09090369                0.99999999               -0.05380780               -0.03475108                0.16448577               -0.00313035               -0.00303892                0.09492999
              -0.06493123                3.98852211               71.06511382                0.01000001                0.00384616                0.09500012                0.09989163                0.38158797                0.02145243                0.14414189
               0.93510723                3.97842289               71.06839300                0.01000000                0.01467608               -0.34706060                0.11878733                0.72681013                0.04800072                0.07809596
               1.93536229                3.97408236               71.07203354                0.01000000               -0.03839685               -0.30025325                0.11591784                1.16987890                0.07396393                0.09382051
               2.93433930                3.97458944               71.07581158                0.01000004               -0.17738337               -0.22357495                0.11017183                1.51098265                0.06100091                0.13017963
               3.93181463                3.97890054               71.07935617                0.01000000               -0.31710419               -0.17337531                0.10733151                1.83750946                0.02888617                0.16692814
               4.92799721                3.98621066               71.08264116                0.01000001               -0.43910576               -0.13227366                0.11005173                2.11417211                0.00366477                0.18963557
               5.92303251                3.99522835               71.08564210                0.01000001               -0.57783335               -0.14071464                0.11914366                2.28393995               -0.02349064                0.21116242
               6.91644055                4.00442300               71.08829810                0.01000002               -0.72520692               -0.14464838                0.13246301                2.18077452               -0.05365804                0.22385961
               7.90852837                4.01050220               71.09067617                0.01000001               -1.16101786               -0.19543176                0.14113674                2.16654361               -0.08410385                0.25525800
               8.89322019                4.01585994               71.09291125                0.01000000               -0.80165669               -0.25772342                0.17063229                1.86015193               -0.04684443                0.23740904
               9.89249524                4.01839732               71.09580891                0.01000000               -0.07249499               -1.11079756                0.17212407                1.83396138                0.02161214                0.23142593
              -0.04903862                4.98753519               71.06841667                0.01000000                0.08078045               -0.50138823                0.10731149                0.78570225                0.03011985                0.09294440
               0.95176918                4.97416536               71.07081310                0.01000000                0.01372934               -0.48842708                0.14673260                1.25878684                0.12383190                0.04366452
               1.95123596                4.97057989               71.07477259                0.01000001               -0.15382344               -0.29633170                0.14199298                1.54542769                0.16270768                0.03268087
               2.94869271                4.97197324               71.07855745                0.01000000               -0.26186216               -0.30098754                0.12786942                1.80293040                0.09331994                0.13118177
               3.94599872                4.97662582               71.08243518                0.01000001               -0.29544555               -0.28820570                0.11602664                2.11017957                0.06229717                0.16567880
               4.94278380                4.98431294               71.08610245                0.01000001               -0.36489753               -0.24847300                0.11614599                2.41952248                0.04194516                0.18984706
               5.93870077                4.99371685               71.08955947                0.01000002               -0.44839974               -0.19806875                0.12286412                2.59600358                0.02624103                0.21434592
               6.93381581                5.00272686               71.09277214                0.01000001               -0.53430955               -0.18808821                0.13247579                2.64495685                0.00414815                0.24475101
               7.92801458                5.00967410               71.09571115                0.01000000               -0.44279316               -0.20777116                0.14403198                2.52784536               -0.01579705                0.27580018
               8.92495994                5.01090838               71.09851125                0.01000000               -0.06480812               -0.58290833                0.15238905                2.18873553               -0.02023327                0.30548049
               9.92671842                4.99646287               71.10142788                0.01000000                0.17584729               -1.42216755                0.15706513                1.46838953               -0.02445987                0.30892132
              -0.02247751                5.97849435               71.07159377                0.03586479               -0.02842210               -0.53063123               -0.00669759                0.88171205                0.54012070               -0.34856367
               0.97723827                5.96865435               71.07523307                0.01000001               -0.45297628               -0.25532887                0.16281272                1.29286249                0.42900367               -0.07924887
               1.96846297                5.96815572               71.07659660                0.01000000               -0.64431459               -0.29536098                0.17186674                1.58364833                0.11674688                0.11783993
               2.96435198                5.96856969               71.08112172                0.01000001               -0.33922246               -0.37624731                0.13151188                1.76223289                0.11975046                0.12467351
               3.96167852                5.97313642               71.08525070                0.01000001               -0.25276741               -0.43497833                0.11957695                2.17229355                0.08019189                0.13950728
               4.95929663                5.98124120               71.08931935                0.01000006               -0.25699294               -0.37677297                0.12012495                2.54807413                0.07909758                0.16645930
               5.95653866                5.99126698               71.09328335                0.01000001               -0.29571017               -0.27486830                0.12490288                2.73007537                0.07976372                0.20231729
               6.95338243                6.00066124               71.09706663                0.01000000               -0.28174516               -0.22549489                0.13307715                2.65984071                0.06976130                0.24731738
               7.95090376                6.00634678               71.10059319                0.01000000               -0.15881469               -0.30467835                0.14235705                2.31031530                0.04526625                0.29289902
               8.95020613                6.00420177               71.10383132                0.01000005               -0.00748476               -0.47941980                0.15208110                1.43463847                0.01504723                0.32116739
               9.95075406                5.98995397               71.10689464                0.01000000                0.05479262               -0.35951924                0.15940138                0.69797482               -0.00219637                0.31135231
              -0.01172438                6.97692257               71.07164133                0.94876911               -0.03105656               -0.09385319                0.10047985                0.14550363               -0.00475493               -0.03231030
               0.98796506                6.96905878               71.07571008                0.01000002               -0.26410192                0.00366602                0.10713989                0.31724163               -0.01921972               -0.03073865
               1.98299358                6.96467267               71.07950205                0.01000001               -0.45041933               -0.36538992                0.14649038                1.12061714               -0.05383477                0.15697433
               2.97895667                6.96444829               71.08311314                0.01000000               -0.31102490               -0.46975045                0.12927521                1.46787289                0.04072651                0.05250857
               3.97677308                6.96792625               71.08755377                0.01000002               -0.16709707               -0.68810875                0.12464552                2.03277579                0.09899983                0.07504585
               4.97561473                6.97677748               71.09209805                0.01000001               -0.14454244               -0.49668803                0.12128585                2.55826214                0.12454560                0.11478297
               5.97388224                6.98821948               71.09665573                0.01000000               -0.18409519               -0.28509570                0.12715920                2.63345885                0.14714884                0.16864258
               6.97193282                6.99821696               71.10111937                0.01000000               -0.16009419               -0.22360222                0.13366511                2.40935942                0.15136869                0.23244071
               7.97068035                7.00358054               71.10530181                0.01000001               -0.09436507               -0.20857617                0.14166260                1.92888123                0.12487970                0.31253498
               8.97004552                7.00131999               71.10900672                0.01000004               -0.07534134               -0.11346047                0.15153074                1.10133230                0.06499151                0.35544409
               9.96917353                6.98927248               71.11205592                0.01000000               -0.08719973                0.12462255                0.16265876                0.49631065                0.02200611                0.33374778
              -0.00383985                7.97661728               71.07271936                1.00000000               -0.03271461               -0.03124718                0.10533704                0.00077022               -0.00308173                0.02280111
               0.99583300                7.96872767               71.07666849                0.99999999               -0.03371741               -0.03373735                0.11202251               -0.00019751               -0.00728690               -0.00196694
               1.99548580                7.96084792               71.08053974                0.01000000               -0.26885702               -0.20947335                0.11911579                0.54130206               -0.01441947               -0.01385955
               2.99045586                7.95917468               71.08435021                0.01000000               -0.27404756               -0.59231653                0.17787935                1.12821743                0.07479503               -0.04213456
               3.99000485                7.95937425               71.08901918                0.01000097               -0.01436086               -1.15971411                0.12118569                1.89729161                0.13815261               -0.04034500
               4.99016864                7.97130744               71.09424433                0.01000000               -0.11182481               -0.43056022                0.12671528                2.47353001                0.19246028                0.05308040
               5.98776835                7.98556507               71.09956143                0.01000000               -0.19800401               -0.19320353                0.13159873                2.25773734                0.22889126                0.11690680
               6.98620856                7.99618920               71.10476040                0.01000002               -0.06949982               -0.18373917                0.13596604                1.89240612                0.26091711                0.18622217
               7.98637836                8.00217525               71.10995876                0.01000000                0.01661352               -0.16226342                0.14126009                1.55782040                0.24777583                0.28795642
               8.98654083                8.00193256               71.11426634                0.01000000               -0.08015361                0.08743866                0.15183963                1.10360379                0.15764675                0.49648679
               9.98477528                7.99244642               71.11747999                0.01000002               -0.17655511                0.61860429                0.16687615                0.66098213                0.09131821                0.36575885
               0.00407026                8.97629763               71.07387452                0.99999999               -0.03397961               -0.03273266                0.10986192                0.00087190                0.00138498                0.02150471
               1.00373046                8.96838403               71.07772635                0.99999999               -0.03488274               -0.03513726                0.11692499                0.00014717                0.00053686                0.00223531
               2.00337261                8.96048321               71.08156661                0.99999994               -0.03678857               -0.03724481                0.12373239                0.00060651               -0.00504086               -0.00929805
               3.00299469                8.95260196               71.08531776                0.88745426               -0.03932220               -0.34914747                0.13226038                0.23401428               -0.00693393               -0.01806293
               4.00258616                8.94473197               71.08913757                0.01000000               -0.20500912               -0.75410348                0.14261811                1.80129139                0.14725138               -0.07135683
               4.99889451                8.96816627               71.09596156                0.01000000               -0.42154682               -0.11731505                0.13690323                2.10113939                0.30455422                0.01131968
               5.99415523                8.98435541               71.10195332                0.01000000               -0.28618759               -0.07932752                0.13906420                1.37956392                0.29981952                0.05569178
               6.99317076                8.99454218               71.10777467                0.01000001                0.09690835               -0.17559051                0.14197752                1.03550547                0.34570911                0.10110256
               7.99609339                9.00033527               71.11370993                0.01000002                0.43378375               -0.26249680                0.14575430                0.91384682                0.49684553                0.18028827
               9.00184643                9.00306876               71.12141231                1.00000000                0.26360336                0.03342626                0.14575446                0.90657413                0.32163504                0.31553309
              10.00136546                9.00164457               71.12261996                1.00000000               -0.04809740                0.43124193                0.17747439                0.75896219               -0.00269033                0.20945043
               0.01200477                9.97596263               71.07492341                1.00000000               -0.03544090               -0.03349961                0.11473376               -0.00031969                0.01568529                0.01623068
               1.01165036                9.96802492               71.07877358                0.99999999               -0.03623860               -0.03591116                0.12177405               -0.00099013                0.01911762                0.00170739
               2.01128000                9.96010303               71.08269777                1.00000000               -0.03814903               -0.03801784                0.12870290               -0.00091977                0.02272122               -0.00422581
               3.01088738                9.95219173               71.08663515                0.99999997               -0.04068192               -0.04102254                0.13796982               -0.00127338                0.02178597                0.00031615
               4.01046636                9.94429218               71.09055008                0.09431041               -0.91596978               -0.04397897                0.14842927                1.62649026                0.17454582               -0.00429693
               4.99256799                9.96896114               71.09752752                0.01000000               -1.07413196                0.07948653                0.14650863                1.35166457                0.33719009               -0.01825850
               5.98898372                9.98397851               71.10390356                0.01000001               -0.08145857               -0.03768965                0.14994092                0.66866223                0.33083097                0.01705264
               6.99093882                9.99267739               71.10990832                0.01000000                0.35724926               -0.18647925                0.15405530                0.42414587                0.37201387                0.03916666
               7.99612871                9.99692532               71.11622546                0.01000002                0.62120992               -0.34099506                0.15835667                0.49971678                0.42832448                0.09558142
               9.00336302               10.00260109               71.12230933                1.00000000                0.33371006               -0.04676719                0.16953916                0.35895508                0.24743235                0.00361736
              10.00280291               10.00107126               71.12351699                0.99999998               -0.05601049               -0.05733127                0.20125255               -0.00923824                0.00322645               -0.00324065
              -0.09393648               -0.01543885               72.05612396                1.00000000               -0.02320884               -0.02536147                0.07982406                0.00079559               -0.00793634                0.00740286
               0.90583143               -0.02001597               72.05956235                0.99678784               -0.02255743               -0.02405908                0.07563684               -0.00060202               -0.00863091               -0.00142017
               1.90561237               -0.02456346               72.06298940                0.01000011                0.16762076               -0.02274405                0.07147955                0.26769671               -0.00751425               -0.00342973
               2.90918385               -0.02371280               72.06644950                0.01000000                0.26294382               -0.06911189                0.06835031                0.20954581               -0.02326671                0.03068941
               3.91087125               -0.02101733               72.06948587                0.01000000                0.09797765               -0.02804504                0.07384730                0.19576481               -0.08474467                0.04268722
               4.91114340               -0.01542623               72.07195942                0.01000001               -0.10808850                0.01841692                0.09293113                0.27376931               -0.17317754                0.05176015
               5.90870948               -0.00606070               72.07347269                0.01000001               -0.51563070                0.09448056                0.15641808                0.59549490               -0.27908504                0.01988333
               6.90083079                0.00895232               72.07344992                0.99810578               -0.40869844               -0.03275152                0.10068872                0.63015526               -0.15437977               -0.00445812
               7.90053551                0.01140304               72.07646142                1.00000000               -0.02910381               -0.03219702                0.09779844               -0.00032224               -0.00457054               -0.00367840
               8.90024871                0.01390357               72.07945637                1.00000000               -0.02826476               -0.03121369                0.09489186               -0.00023217               -0.00482054               -0.00254786
               9.89997022                0.01645123               72.08248254                1.00000000               -0.02784959               -0.03033907                0.09192198               -0.00266688               -0.00441478               -0.00649734
              -0.08935140                0.98430754               72.05788873                0.99999999               -0.02608772               -0.02671847                0.08896503                0.00145973                0.00130662                0.00792131
               0.91038772                0.97974344               72.06132968                0.01000000               -0.02554205               -0.02540017                0.08485485                0.00004794                0.00408635               -0.00426092
               1.91013776                0.97520910               72.06482801                0.01000000               -0.04407386                0.02847487                0.08067860                0.21765932                0.01259594                0.03219762
               2.90950624                0.97559608               72.06843773                0.01000000               -0.07260717               -0.03508122                0.07425831                0.36502264               -0.02093453                0.06320011
               3.90868561                0.97870222               72.07145361                0.01000002               -0.15517307               -0.00803551                0.07383861                0.45749707               -0.08190950                0.08205749
               4.90640278                0.98475794               72.07397456                0.01000000               -0.31052284                0.03642688                0.07575405                0.61639354               -0.13868633                0.08919514
               5.90247516                0.99488410               72.07578295                0.01000001               -0.40011570                0.02082848                0.09620876                0.87040262               -0.18569189                0.04648096
               6.89840047                1.00862480               72.07664404                0.77679745               -0.22092461               -0.03523273                0.11713849                0.56581839               -0.10906623               -0.00905481
               7.89805666                1.01108107               72.07967496                0.99999999               -0.03390840               -0.03479295                0.11420158               -0.00001839               -0.00039455               -0.00136666
               8.89772230                1.01359143               72.08270660                1.00000000               -0.03303861               -0.03296484                0.11092981                0.00122815               -0.00010394               -0.00178542
               9.89739589                1.01614784               72.08573239                1.00000000               -0.03264078               -0.03248555                0.10801938               -0.00135538                0.00057602               -0.00950457
              -0.08477909                1.98402678               72.05966767                0.12810761               -0.02900760               -0.02070385                0.09816936                0.00420048                0.00326188                0.06537614
               0.91493083                1.97947603               72.06304043                0.01000000               -0.05539940               -0.02177668                0.09425746                0.05416276                0.05132869                0.04898871
               1.91411292                1.97600604               72.06737660                0.01000001               -0.09698242               -0.01355859                0.08509886                0.33364166                0.05744638                0.09902340
               2.91299118                1.97558558               72.07095848                0.01000000               -0.16267932               -0.03400301                0.08273791                0.66554629               -0.00843486                0.11703020
               3.91085933                1.97882196               72.07410577                0.01000000               -0.28508967               -0.00610274                0.08176223                0.93270209               -0.05329988                0.13893737
               4.90728939                1.98530231               72.07677483                0.01000001               -0.43043310                0.02540560                0.08495282                1.14041691               -0.09149260                0.14733099
               5.90225067                1.99435587               72.07893334                0.01000000               -0.56696020               -0.02314576                0.09405796                1.43248153               -0.16768419                0.13458632
               6.89595018                2.00824766               72.07975750                0.01000000               -0.33410778               -0.28219674                0.13455162                1.01467676               -0.10299905                0.10067585
               7.89556851                2.01070718               72.08296102                0.69910087               -0.03718359               -0.03703468                0.12628471                0.00071717                0.00997853                0.01955593
               8.89520651                2.01324427               72.08600455                0.99999997               -0.03691053               -0.03372448                0.12360670                0.00474896                0.00088288                0.01383825
               9.89483030                2.01580152               72.08895441                1.00000000               -0.03762091               -0.03481438                0.12454436                0.00010950               -0.00092538                0.00413605
              -0.08016589                2.98389346               72.06258494                0.01000000               -0.03423917                0.13383889                0.08917769                0.37482896                0.00119100                0.15056952
               0.91949172                2.97930791               72.06587191                0.01000000                0.04334644               -0.14946818                0.08598406                0.40402777                0.05342053                0.15230136
               1.92070104                2.97493793               72.07021862                0.01000000                0.02547631               -0.18137066                0.09944890                0.68662179                0.06341244                0.14136162
               2.92000125                2.97491602               72.07388331                0.01000000               -0.15390598               -0.12354163                0.09534555                1.08982498                0.01055004                0.15306797
               3.91762292                2.97858016               72.07718175                0.01000005               -0.31620175               -0.06880712                0.09335824                1.40605936               -0.01803166                0.16919515
               4.91367721                2.98526605               72.08014945                0.01000000               -0.47217446               -0.03532948                0.09626363                1.67109574               -0.04286367                0.18258513
               5.90817943                2.99442119               72.08270173                0.01000001               -0.56672638               -0.05274965                0.10830239                1.77168975               -0.05424333                0.18345499
               6.90234268                3.00298087               72.08513863                0.01000000               -0.75525168               -0.30752935                0.12647641                1.66833867               -0.11014444                0.21963061
               7.89307440                3.01034038               72.08659861                0.01000001               -0.48098680               -0.14174410                0.09794716                0.98486592               -0.08088451                0.12702296
               8.89272295                3.01291694               72.08961158                0.82584660               -0.03954003               -0.01859044                0.13375968               -0.00165284                0.00057057                0.07751436
               9.89228360                3.01545155               72.09256130                0.99999999               -0.04393500               -0.02179901                0.14080758                0.00906597                0.00950808                0.07130766
              -0.06811141                3.98670356               72.06620648                0.01000000                0.00783300                0.07861415                0.11362209                0.43183132                0.02238009                0.16353919
               0.93196692                3.97648667               72.06973077                0.01000002                0.01743256               -0.36553108                0.13557512                0.78228490                0.01570921                0.18535742
               1.93223724                3.97237862               72.07333049                0.01000000               -0.04107367               -0.29742203                0.12804405                1.21340000                0.01844737                0.16171028
               2.93114545                3.97311475               72.07697030                0.01000005               -0.18033760               -0.21560952                0.11322220                1.53333464                0.01770221                0.16495911
               3.92863049                3.97744582               72.08044272                0.01000000               -0.31375827               -0.16484124                0.10634778                1.83127232                0.01011889                0.17760240
               4.92487028                3.98459572               72.08372632                0.01000001               -0.43304191               -0.12365869                0.10675536                2.09008169                0.00326624                0.19153837
               5.91996965                3.99330087               72.08681026                0.01000001               -0.57362573               -0.12319776                0.11436427                2.24755067               -0.01302149                0.20545387
               6.91339777                4.00209708               72.08956804                0.01000001               -0.73199454               -0.11409439                0.12347701                2.15042816               -0.03761851                0.20590648
               7.90532976                4.00787230               72.09207804                0.01000004               -1.16677384               -0.14841858                0.13740902                2.13420299               -0.08072134                0.24899170
               8.89006229                4.01287246               72.09418788                0.01000000               -0.76936719               -0.22634452                0.07601519                1.83384082               -0.05397465                0.17789663
               9.88994242                4.01536553               72.09714996                0.01000000               -0.01198734               -1.07718369                0.07952605                1.81168482                0.02186472                0.17597254
              -0.05109547                4.98546574               72.06928307                0.01000001                0.05578280               -0.46707571                0.08708156                0.76031462                0.00044429                0.11514074
               0.94946235                4.97199729               72.07278848                0.01000000               -0.02817824               -0.43688626                0.19257329                1.28300228               -0.00492413                0.16036807
               1.94834096                4.96898949               72.07635537                0.01000001               -0.19308039               -0.27728949                0.15518237                1.61925717                0.00092817                0.14787905
               2.94560075                4.97060383               72.07996539                0.01000000               -0.27867851               -0.28000612                0.13738727                1.80428207                0.01718570                0.14960433
               3.94276739                4.97528334               72.08362694                0.01000001               -0.29884795               -0.28125364                0.11752890                2.09451715                0.03060303                0.16426439
               4.93962379                4.98279288               72.08725988                0.01000001               -0.35691516               -0.23966873                0.11397391                2.39394514                0.03756581                0.18156698
               5.93562909                4.99195723               72.09076362                0.01000002               -0.44219850               -0.18269743                0.11831262                2.56993797                0.03317481                0.20138555
               6.93077982                5.00069898               72.09406758                0.01000001               -0.53230084               -0.16175343                0.12664143                2.62154953                0.01401612                0.22726604
               7.92498307                5.00737201               72.09707897                0.01000000               -0.44366428               -0.17506046                0.13074273                2.51602659               -0.00447389                0.25132094
               8.92190653                5.00839005               72.09996249                0.01000000               -0.07259589               -0.54091463                0.13989556                2.18288816               -0.01356868                0.28367502
               9.92353115                4.99390787               72.10290603                0.01000002                0.16246216               -1.38550328                0.14137209                1.43704475               -0.02851118                0.28687313
              -0.02596821                5.97736205               72.07162818                0.03671477                0.00714275               -0.47268908                0.00115129                0.79981741                0.00094900                0.05801323
               0.97410322                5.96774894               72.07567666                0.01000001               -0.40079779               -0.19936959                0.03775826                1.19088484               -0.04044840                0.09441268
               1.96601584                5.96683283               72.07889652                0.01000000               -0.65829931               -0.21565869                0.21670771                1.47074536               -0.03184390                0.09894923
               2.96093723                5.96751462               72.08256096                0.01000001               -0.38420274               -0.37687615                0.14450286                1.73071217                0.01042290                0.11430113
               3.95833178                5.97182074               72.08651047                0.01000001               -0.24309726               -0.43337540                0.12446801                2.14195691                0.05216383                0.12196755
               4.95607529                5.97980235               72.09051869                0.01000002               -0.24347375               -0.37231171                0.11899653                2.52776782                0.07457131                0.15099888
               5.95346231                5.98964692               72.09451368                0.01000001               -0.28306548               -0.26405551                0.12120287                2.71314107                0.08327149                0.18587359
               6.95041398                5.99886201               72.09836456                0.01000000               -0.27515442               -0.20535922                0.12703139                2.65172832                0.07560728                0.22733455
               7.94795922                6.00437109               72.10198184                0.01000000               -0.16148968               -0.27304131                0.13534479                2.30748221                0.05187909                0.27012668
               8.94718419                6.00205417               72.10531710                0.01000001               -0.01557755               -0.44218064                0.14421326                1.43238603                0.02015302                0.29765883
               9.94764767                5.98765547               72.10846278                0.01000000                0.04634824               -0.33393813                0.15251187                0.69824620                0.00075260                0.29366142
              -0.01587292                6.97601196               72.07265664                0.93142003               -0.03178215               -0.08292275                0.10167453                0.10541541               -0.00475559                0.01400510
               0.98380926                6.96800990               72.07679103                0.01000002               -0.30684488               -0.00360736                0.10975629                0.31878674               -0.02231995               -0.00044193
               1.97799019                6.96467631               72.08057906                0.01000151               -0.42910913               -0.35903039                0.11798611                1.02530721               -0.06540245                0.07438804
               2.97522708                6.96306631               72.08465035                0.01000000               -0.23356906               -0.48003415                0.14244286                1.38206721                0.02392023                0.02706828
               3.97331881                6.96661583               72.08882831                0.01000002               -0.14370590               -0.69630677                0.12936587                2.02517434                0.08009049                0.05628140
               4.97235296                6.97534665               72.09333445                0.01000001               -0.12432797               -0.49727043                0.12336444                2.54184491                0.12389963                0.09742131
               5.97083225                6.98667612               72.09790622                0.01000000               -0.16313737               -0.28241662                0.12384913                2.62751889                0.14682338                0.15336126
               6.96909022                6.99659180               72.10242830                0.01000000               -0.14458468               -0.21182478                0.12848066                2.41902115                0.15088821                0.21303038
               7.96794055                7.00191118               72.10668797                0.01000000               -0.09101692               -0.18171948                0.13570975                1.95086569                0.12456826                0.28893840
               8.96726988                6.99954644               72.11049404                0.01000001               -0.08235348               -0.07378298                0.14571223                1.11994077                0.06578476                0.33255542
               9.96629348                6.98722911               72.11365929                0.01000001               -0.09763936                0.15392527                0.15756691                0.50498710                0.02296416                0.31907849
              -0.00785577                7.97570359               72.07377770                0.99999998               -0.03296296               -0.03124320                0.10635579                0.00078818               -0.00346125                0.02292202
               0.99181460                7.96767679               72.07779380                0.99999999               -0.03393333               -0.03403428                0.11291660               -0.00038534               -0.00815873               -0.00268804
               1.99146557                7.95965223               72.08173134                0.01000001               -0.25877719               -0.26948522                0.11925049                0.58665011               -0.00295378               -0.01010181
               2.98663906                7.95791394               72.08584981                0.01000003               -0.24553174               -0.59097078                0.14255312                1.10554670                0.04972580               -0.03818904
               3.98655493                7.95789461               72.09045797                0.01000001                0.01064179               -1.16972771                0.13900881                1.86633432                0.12711753               -0.07142873
               4.98685190                7.96985694               72.09550501                0.01000000               -0.08936989               -0.43838436                0.12811000                2.46271588                0.18450721                0.04723769
               5.98476753                7.98399859               72.10086145                0.01000000               -0.16462770               -0.20021364                0.12854525                2.25683066                0.22445606                0.10538683
               6.98355934                7.99462551               72.10609426                0.01000000               -0.03728222               -0.18512817                0.13127770                1.91588236                0.25232564                0.17021666
               7.98402189                8.00073670               72.11134501                0.01000001                0.03528650               -0.15063939                0.13619456                1.60701308                0.23884298                0.26671547
               8.98426507                8.00057851               72.11576314                0.01000001               -0.08199109                0.12686192                0.14742874                1.15882238                0.15183483                0.46995325
               9.98238207                7.99073397               72.11913459                0.01000002               -0.18830038                0.66863423                0.16390250                0.69949868                0.08772416                0.35598259
               0.00019644                8.97538710               72.07497534                1.00000000               -0.03435219               -0.03254397                0.11024236                0.00083505                0.00128591                0.02156826
               0.99985292                8.96732921               72.07889814                0.99999999               -0.03551998               -0.03526548                0.11731323                0.00015563                0.00074412                0.00239085
               1.99948604                8.95928661               72.08281231                0.99999999               -0.03786441               -0.03734398                0.12477045               -0.00067955               -0.00664318               -0.00898475
               2.99909563                8.95124689               72.08659877                0.86706815               -0.03917745               -0.35291788                0.12920348                0.22134083               -0.01232093               -0.03190110
               3.99870249                8.94322128               72.09041352                0.01000000               -0.17961685               -0.75355090                0.13212210                1.77479589                0.14620662               -0.08251166
               4.99550330                8.96657896               72.09735546                0.01000002               -0.37511055               -0.13467292                0.13702010                2.09193274                0.30077564                0.00990447
               5.99120028                8.98267185               72.10332358                0.01000001               -0.24167724               -0.09312459                0.13624567                1.37980233                0.28870145                0.04983028
               6.99066975                8.99288923               72.10917269                0.01000000                0.14637663               -0.18835575                0.13776822                1.05436432                0.33204422                0.09197204
               7.99412782                8.99889839               72.11514557                0.01000000                0.48896512               -0.27296829                0.14159102                0.96339970                0.47487078                0.16724879
               9.00044905                9.00208368               72.12285603                1.00000000                0.29223583                0.05214204                0.14302404                0.97356927                0.30546799                0.30041771
               9.99997253                9.00060180               72.12439685                1.00000000               -0.04765211                0.46444297                0.17790164                0.80615163               -0.00275111                0.20307004
               0.00827671                9.97505271               72.07607320                1.00000000               -0.03585048               -0.03343860                0.11510553               -0.00009596                0.01564365                0.01654831
               1.00791821                9.96697148               72.07999301                0.99999999               -0.03712094               -0.03577255                0.12268667               -0.00083976                0.01981537                0.00163598
               2.00753429                9.95890535               72.08399906                1.00000000               -0.03934984               -0.03812617                0.13028799               -0.00097025                0.02192081               -0.00395303
               3.00713121                9.95085558               72.08797195                0.99999997               -0.04077534               -0.03913120                0.13517591               -0.00053023                0.01632038                0.00022458
               4.00671879                9.94282359               72.09187755                0.06875058               -0.89456153               -0.03976866                0.13789037                1.61702392                0.17494514               -0.00470255
               4.98923998                9.96716348               72.09901208                0.01000001               -1.03327392                0.05845197                0.14597463                1.33929378                0.33782715               -0.01948703
               5.98605331                9.98213610               72.10538652                0.01000001               -0.04099476               -0.05357485                0.14773705                0.67004829                0.32159759                0.01485981
               6.98842008                9.99085840               72.11143211                0.01000000                0.40210666               -0.20308353                0.15066805                0.43209509                0.35959505                0.03571419
               7.99409544                9.99527734               72.11779323                0.01000002                0.68064865               -0.36210564                0.15537566                0.53491009                0.41246241                0.09053640
               9.00203306               10.00162135               72.12400261                1.00000000                0.36867137               -0.04623256                0.16909674                0.39567507                0.23704091                0.00363142
              10.00146887               10.00002283               72.12554330                0.99999998               -0.05641892               -0.05789619                0.20400727               -0.01021847                0.00325200               -0.00317891
              -0.09743286               -0.01717637               73.05692530                1.00000000               -0.02338020               -0.02555381                0.08052130                0.00069854               -0.00786654                0.00723880
               0.90233333               -0.02184351               73.06031956                0.99287474               -0.02267315               -0.02409974                0.07591671               -0.00066787               -0.00866052               -0.00140435
               1.90211367               -0.02648226               73.06370230                0.01000000                0.16805082               -0.02271209                0.07126126                0.28240540               -0.00736185               -0.00344522
               2.90569435               -0.02542830               73.06712480                0.01000000                0.25416453               -0.06119630                0.06804185                0.22295858               -0.02364815                0.02737122
               3.90719696               -0.02253667               73.07021359                0.01000001                0.07607936               -0.01935122                0.07615491                0.21783041               -0.09017740                0.04316166
               4.90721594               -0.01663206               73.07280188                0.01000003               -0.10136231                0.01257659                0.08674744                0.26893486               -0.17163803                0.06541160
               5.90516972               -0.00797392               73.07536308                0.01000003               -0.47040996                0.07408149                0.17470755                0.52625988               -0.46347073                0.16731329
               6.89780774                0.00563507               73.07447537                1.00000000               -0.38343966               -0.03347628                0.10507392                0.55958526               -0.19542882               -0.00366782
               7.89750092                0.00807411               73.07745971                0.99999999               -0.03018995               -0.03320832                0.10189805               -0.00086780               -0.00374424               -0.00224255
               8.89720394                0.01055101               73.08043129                1.00000000               -0.02928691               -0.03241046                0.09888838               -0.00060258               -0.00416351               -0.00139826
               9.89691519                0.01306281               73.08342667                1.00000000               -0.02887535               -0.03161284                0.09518858               -0.00178476               -0.00360744               -0.00421869
              -0.09275874                0.98256809               73.05878116                0.99999999               -0.02616598               -0.02688854                0.08946963                0.00140185                0.00129294                0.00778730
               0.90697960                0.97791549               73.06217879                0.01000000               -0.02555681               -0.02538555                0.08494889               -0.00006501                0.00409373               -0.00415800
               1.90673012                0.97329062               73.06563336                0.01000000               -0.05142302                0.03838576                0.08040535                0.23269770                0.01149266                0.02968126
               2.90595114                0.97395973               73.06917641                0.01000000               -0.08764887               -0.02623169                0.07643270                0.38902356               -0.02903718                0.06419330
               3.90497715                0.97726982               73.07218165                0.01000004               -0.16636137               -0.00260328                0.07711928                0.48324475               -0.10989663                0.09092636
               4.90262391                0.98349370               73.07463136                0.01000000               -0.28391984                0.02231154                0.08172385                0.60752995               -0.20273564                0.14384677
               5.89929875                0.99276689               73.07663040                0.01000001               -0.36221680                0.01804593                0.08736153                0.78220186               -0.29421845                0.17591608
               6.89537958                1.00530031               73.07781196                0.75678829               -0.21322362               -0.03552083                0.11795206                0.50472337               -0.09069748               -0.00706438
               7.89503428                1.00774203               73.08081905                0.99999999               -0.03380072               -0.03513219                0.11437759               -0.00101552               -0.00025949               -0.00341547
               8.89470356                1.01022690               73.08381664                1.00000000               -0.03243717               -0.03513224                0.11055687                0.00061500               -0.00081207               -0.00121157
               9.89438553                1.01274668               73.08681128                0.99999999               -0.03180277               -0.03583325                0.10730700               -0.00020374               -0.00056544               -0.00334643
              -0.08809963                1.98228586               73.06065205                0.16537113               -0.02908624               -0.02301610                0.09855988                0.00328105                0.00316219                0.05844706
               0.91160951                1.97764878               73.06398315                0.01000000               -0.05884912               -0.02266182                0.09414574                0.06239736                0.04871757                0.04341907
               1.91072339                1.97428546               73.06822628                0.01000001               -0.10569432                0.00838406                0.08294941                0.34649760                0.05174806                0.10286245
               2.90949562                1.97404706               73.07177820                0.01000000               -0.16977495               -0.02327257                0.08132641                0.68568907               -0.01728910                0.12542894
               3.90732789                1.97741127               73.07490699                0.01000000               -0.28130792               -0.00647760                0.08314266                0.95164650               -0.07056435                0.15651545
               4.90386946                1.98381417               73.07759737                0.01000001               -0.41603684                0.00824583                0.08891139                1.14013697               -0.11648945                0.20018087
               5.89900715                1.99238700               73.07977806                0.01000000               -0.54711936               -0.02217829                0.09259996                1.34860022               -0.13879899                0.18362957
               6.89292708                2.00492465               73.08109997                0.01000000               -0.32265662               -0.25492048                0.13303461                0.94896426               -0.08066733                0.08852690
               7.89255402                2.00737146               73.08416534                0.65175356               -0.03577468               -0.03679247                0.12120206               -0.00402833                0.00597139               -0.00286012
               8.89221158                2.00984836               73.08721172                0.99999998               -0.03412337               -0.03985447                0.12014540               -0.00140693                0.00345073                0.00432931
               9.89187155                2.01234615               73.09021661                0.99999999               -0.03400304               -0.04186309                0.12289138                0.00073481                0.00306228                0.00297539
              -0.08341896                2.98210777               73.06352381                0.01000001               -0.03530874                0.14044500                0.09698755                0.36382013                0.00169630                0.15393441
               0.91622795                2.97746226               73.06679022                0.01000000                0.03403769               -0.12176556                0.09441217                0.40192136                0.05836035                0.16862051
               1.91726179                2.97345830               73.07120957                0.01000000                0.01555789               -0.15528211                0.09142216                0.69001748                0.05575536                0.17116584
               2.91653911                2.97349428               73.07482022                0.01000000               -0.15094114               -0.11202582                0.08818619                1.08837275               -0.00344850                0.17170823
               3.91424297                2.97714027               73.07809927                0.01000004               -0.30440946               -0.07019349                0.09050208                1.40487128               -0.02798870                0.18607531
               4.91045092                2.98365862               73.08108599                0.01000000               -0.45413503               -0.04415869                0.09537597                1.65043025               -0.03892834                0.20075762
               5.90516027                2.99232333               73.08376959                0.01000001               -0.55382626               -0.05557283                0.10663595                1.72332477               -0.03765337                0.19943822
               6.89937440                3.00020190               73.08635141                0.01000000               -0.75651337               -0.26562366                0.11746908                1.60880813               -0.10491696                0.20240251
               7.89003000                3.00700618               73.08752357                0.01000004               -0.48368269               -0.11848974                0.10596945                0.94840019               -0.08049944                0.12454284
               8.88970074                3.00942981               73.09070524                0.76314488               -0.03126696               -0.03907017                0.11285257               -0.01197808                0.01083041                0.01866173
               9.88940466                3.01190942               73.09371984                0.99999997               -0.02960784               -0.03870546                0.11595193                0.00480123                0.00526330                0.01577684
              -0.07153220                3.98509476               73.06738626                0.01000000               -0.01703930                0.11542699                0.11791808                0.38079175                0.01788989                0.17606971
               0.92829740                3.97521347               73.07110450                0.01000002                0.00119571               -0.30177180                0.12228795                0.72277526               -0.02184953                0.27800140
               1.92849171                3.97117981               73.07459442                0.01000000               -0.03581482               -0.27434251                0.10726268                1.17044505               -0.03569050                0.22357682
               2.92758111                3.97180655               73.07807602                0.01000004               -0.16153681               -0.20598116                0.09941736                1.50266650               -0.02009768                0.19564749
               3.92526098                3.97600740               73.08148313                0.01000000               -0.29430505               -0.16484541                0.09887288                1.80988822               -0.00378275                0.18767445
               4.92169501                3.98293100               73.08477627                0.01000001               -0.41653028               -0.12533571                0.10330024                2.06078288                0.00476908                0.19483585
               5.91693037                3.99127554               73.08792939                0.01000001               -0.56373082               -0.11410949                0.11092044                2.20387397               -0.00225523                0.20017760
               6.91042039                3.99961218               73.09076764                0.01000001               -0.73181311               -0.08631218                0.11762576                2.10662558               -0.01955787                0.19255102
               7.90229411                4.00500167               73.09342435                0.01000001               -1.16758079               -0.11047275                0.12669551                2.07274844               -0.10799496                0.24267445
               8.88706877                4.00906696               73.09443156                0.01000000               -0.76428733               -0.19885783                0.05285070                1.78655682               -0.09208427                0.17056448
               9.88700836                4.01157204               73.09739943                0.01000000               -0.00604141               -1.05109548                0.05388026                1.79333030               -0.00876344                0.16836424
              -0.05604054                4.98441631               73.07015830                0.01000003                0.06389489               -0.44068563                0.11946690                0.74988640               -0.03625641                0.12862062
               0.94459840                4.97142682               73.07466456                0.01000000                0.00590810               -0.43367117                0.14263891                1.22093508               -0.12905141                0.25663648
               1.94407762                4.96797145               73.07787624                0.01000001               -0.14167739               -0.26343985                0.12749051                1.51989596               -0.14990074                0.24809511
               2.94176486                4.96937466               73.08130520                0.01000000               -0.23806654               -0.28178970                0.11528983                1.76186427               -0.05138308                0.16941110
               3.93931629                4.97384336               73.08478576                0.01000001               -0.26832112               -0.28164959                0.10860401                2.06401667                0.00441280                0.16473392
               4.93639843                4.98115191               73.08838193                0.01000001               -0.33798608               -0.23721955                0.10928382                2.36438122                0.03379915                0.17564446
               5.93255656                4.99004114               73.09192572                0.01000001               -0.43088274               -0.17168422                0.11418567                2.53757996                0.03927237                0.18971706
               6.92778078                4.99847565               73.09530497                0.01000000               -0.52631856               -0.13824837                0.12072542                2.58808001                0.02180510                0.21004189
               7.92203019                5.00479672               73.09832600                0.01000000               -0.44596342               -0.14306768                0.12231606                2.48358464                0.00483354                0.22630196
               8.91886151                5.00545266               73.10130916                0.01000000               -0.08845398               -0.47217819                0.12820576                2.15751361               -0.00941803                0.30750214
               9.92026111                4.99088751               73.10425532                0.01000000                0.13996028               -1.32490530                0.12827301                1.41695524               -0.03082031                0.31288335
              -0.03055550                5.97628105               73.07161680                0.01000003               -0.02835363               -0.46815826                0.00139713                0.82351346               -0.49580046                0.40577083
               0.96916097                5.96654005               73.07598823                0.01000001               -0.42513548               -0.22470117                0.11032068                1.23139007               -0.48109328                0.23921940
               1.96094179                5.96591102               73.08093076                0.01000000               -0.61072412               -0.23229228                0.14905484                1.46896523               -0.16415868                0.08008775
               2.95694648                5.96617075               73.08401177                0.01000001               -0.30888658               -0.38369265                0.12770656                1.69421794               -0.07475049                0.09636446
               3.95476406                5.97037441               73.08774006                0.01000001               -0.20808157               -0.43694905                0.11653394                2.11951783                0.02240069                0.11603290
               4.95278485                5.97818660               73.09169928                0.01000001               -0.22029200               -0.37061583                0.11494876                2.50419150                0.06691086                0.14021236
               5.95035822                5.98784186               73.09570740                0.01000000               -0.26792218               -0.25511012                0.11735025                2.69144502                0.08340054                0.17078663
               6.94742641                5.99684721               73.09960725                0.01000000               -0.26847114               -0.18638947                0.12194330                2.63432595                0.07906598                0.20743180
               7.94498880                6.00214032               73.10330009                0.01000000               -0.16490762               -0.24002924                0.12836457                2.29259814                0.05659555                0.25001318
               8.94412826                5.99962340               73.10671558                0.01000003               -0.02555208               -0.39637982                0.13526357                1.42309968                0.02467448                0.27586113
               9.94447776                5.98507393               73.10994488                0.01000000                0.03495001               -0.29526372                0.14265133                0.69711346                0.00240635                0.27904915
              -0.02008827                6.97505314               73.07367482                0.91389562               -0.03154897               -0.07620104                0.10196052                0.11867626               -0.00250120                0.06417171
               0.97959624                6.96693280               73.07790521                0.01000001               -0.30427555                0.00133764                0.11276714                0.34138397               -0.01778283                0.03620448
               1.97382621                6.96332560               73.08186177                0.01000003               -0.42052052               -0.37491916                0.12500836                1.05984677               -0.03707546               -0.04953264
               2.97118583                6.96170081               73.08596200                0.01000000               -0.20677121               -0.48541364                0.12513029                1.37780213                0.00188799                0.01265854
               3.96969079                6.96510438               73.09014109                0.01000001               -0.10855069               -0.70069717                0.12442677                2.00833619                0.06155617                0.04627485
               4.96901481                6.97373959               73.09456534                0.01000000               -0.09829672               -0.49777086                0.12082823                2.52525082                0.11149556                0.08689279
               5.96772486                6.98493894               73.09913271                0.01000000               -0.14229864               -0.27932107                0.12081386                2.61591337                0.14142586                0.13816692
               6.96616884                6.99474787               73.10368899                0.01000000               -0.13094412               -0.19990373                0.12394563                2.42011525                0.14736303                0.19356949
               7.96510597                6.99999614               73.10801600                0.01000000               -0.08894749               -0.15441803                0.13008361                1.96373703                0.12265218                0.26547507
               8.96438989                6.99752506               73.11192096                0.01000000               -0.09018314               -0.03268765                0.13951455                1.13228943                0.06567945                0.31084550
               9.96330231                6.98498224               73.11520726                0.01000001               -0.10875783                0.18772888                0.15155811                0.51117227                0.02374608                0.30663174
              -0.01194128                7.97475703               73.07484647                0.99999999               -0.03425351               -0.03098255                0.10682899               -0.00209005               -0.00483998                0.02112576
               0.98771619                7.96656680               73.07892682                1.00000000               -0.03440007               -0.03500767                0.11405618               -0.00161298               -0.00789635                0.00086407
               1.98737072                7.95841263               73.08292475                0.01000001               -0.24962168               -0.26449068                0.11942164                0.58042867               -0.00051559               -0.01966934
               2.98272375                7.95646248               73.08720127                0.01000001               -0.22393593               -0.59295070                0.13196429                1.09545367                0.04651825               -0.05333181
               3.98289200                7.95636046               73.09179936                0.01000001                0.03657795               -1.17211125                0.13265802                1.84157628                0.10832049               -0.07512301
               4.98345531                7.96823119               73.09680653                0.01000000               -0.06118939               -0.44411514                0.12772512                2.44400617                0.17088857                0.03725366
               5.98166821                7.98225544               73.10213234                0.01000000               -0.13418985               -0.20559975                0.12568782                2.25025584                0.21299378                0.09381622
               6.98077151                7.99284914               73.10738596                0.01000001               -0.00909349               -0.18520436                0.12719253                1.93086674                0.24098678                0.15353216
               7.98148634                7.99905196               73.11268265                0.01000001                0.05082149               -0.13820554                0.13159540                1.64609997                0.22794423                0.24512613
               8.98178794                7.99896964               73.11721492                0.01000001               -0.08497474                0.16562879                0.14306920                1.20455880                0.14489407                0.44360985
               9.97978685                7.98882851               73.12075804                0.01000002               -0.20010952                0.71575138                0.16044019                0.73221068                0.08343656                0.34809332
              -0.00374962                8.97443349               73.07607937                1.00000000               -0.03420093               -0.03295795                0.11041374                0.00088062                0.00008120                0.02101717
               0.99590837                8.96623264               73.08007262                0.99999999               -0.03556361               -0.03494515                0.11795301                0.00034598                0.00039271                0.00260667
               1.99553911                8.95803579               73.08406202                0.99999998               -0.03806499               -0.03810836                0.12534261               -0.00110492               -0.00569409               -0.00923934
               2.99514707                8.94984179               73.08790183                0.89304678               -0.03927491               -0.35063079                0.12985024                0.21189581               -0.01060175               -0.03617215
               3.99475361                8.94166215               73.09178001                0.01000000               -0.15735544               -0.75451991                0.13225186                1.75243168                0.14251890               -0.08135372
               4.99199996                8.96485729               73.09870196                0.01000002               -0.33207934               -0.14865165                0.13584324                2.07625190                0.28774111                0.00337958
               5.98811202                8.98082694               73.10467823                0.01000000               -0.20051535               -0.10528021                0.13321593                1.37569639                0.27536853                0.04346649
               6.98798965                8.99104378               73.11053003                0.01000004                0.18977238               -0.19881487                0.13406497                1.06787916                0.31545975                0.08226477
               7.99190747                8.99723203               73.11654175                0.01000000                0.53574289               -0.28056100                0.13791215                1.00574816                0.45112067                0.15408150
               8.99870451                9.00083764               73.12427279                1.00000000                0.31606610                0.07054534                0.14015052                1.03155282                0.28783104                0.28498185
               9.99822879                8.99929726               73.12617800                1.00000000               -0.04757203                0.49431389                0.17829890                0.84594945               -0.00238084                0.19748460
               0.00447803                9.97409787               73.07722552                0.99999999               -0.03572232               -0.03356271                0.11561351               -0.00023183                0.01669005                0.01663107
               1.00412081                9.96586790               73.08122731                0.99999999               -0.03692792               -0.03647490                0.12326391               -0.00112618                0.02074662                0.00195457
               2.00373947                9.95765047               73.08530353                0.99999998               -0.03927515               -0.03853254                0.13122596               -0.00086493                0.02353806               -0.00472362
               3.00333531                9.94944986               73.08933867                0.99999996               -0.04071667               -0.03919284                0.13606707               -0.00019653                0.01871636               -0.00101960
               4.00292514                9.94127006               73.09330788                0.02114910               -0.87598721               -0.03920901                0.13856437                1.60756765                0.17237983               -0.00746916
               4.98581556                9.96525815               73.10044701                0.01000000               -0.99647449                0.04008671                0.14525560                1.32554843                0.32936160               -0.02131403
               5.98299565                9.98014983               73.10685830                0.01000001               -0.00457738               -0.06771098                0.14481452                0.66909717                0.31132504                0.01197513
               6.98572401                9.98887284               73.11292168                0.01000000                0.44058992               -0.21709370                0.14739844                0.43798116                0.34463411                0.03204868
               7.99180745                9.99344074               73.11933297                0.01000002                0.73148735               -0.37912896                0.15268398                0.56538331                0.39595620                0.08584577
               9.00035376               10.00038055               73.12569127                1.00000000                0.39895662               -0.04570872                0.16869048                0.42862744                0.22628245                0.00354471
               9.99978658                9.99871479               73.12759714                0.99999991               -0.05671798               -0.05824781                0.20684548               -0.01079731                0.00311769               -0.00349721
              -0.10088234               -0.01900580               74.05773439                1.00000000               -0.02364470               -0.02576659                0.08140556                0.00048310               -0.00767534                0.00701706
               0.89888122               -0.02376251               74.06108068                0.99008141               -0.02288861               -0.02407945                0.07637674               -0.00081565               -0.00859376               -0.00150163
               1.89865989               -0.02849448               74.06441463                0.01000000                0.16591893               -0.02267742                0.07134864                0.29570475               -0.00634502               -0.00355947
               2.90219960               -0.02726859               74.06781033                0.01000000                0.23653652               -0.05048564                0.07471689                0.23797509               -0.02413355                0.01622896
               3.90339062               -0.02409020               74.07100897                0.01000000                0.01807802               -0.00824438                0.08081969                0.23879346               -0.08105606                0.03278033
               4.90256116               -0.01777695               74.07369437                0.01000001               -0.28120232                0.06163419                0.11150827                0.47587160               -0.14578930                0.07465375
               5.89776658               -0.00524908               74.07696684                0.01909167               -0.38677894               -0.07634712                0.09228797                0.56349875               -0.60858307                0.27983272
               6.89482558                0.00220580               74.07555140                1.00000000               -0.16309349               -0.03468750                0.11008786                0.25165903               -0.21924669               -0.00269985
               7.89450471                0.00463951               74.07849938                1.00000000               -0.03135495               -0.03323797                0.10538506               -0.00083622               -0.00309281               -0.00171661
               8.89419848                0.00710491               74.08143414                1.00000000               -0.02987007               -0.03181379                0.10033156               -0.00055922               -0.00355852               -0.00032994
               9.89390731                0.00959764               74.08438631                0.99999999               -0.02911738               -0.03066657                0.09505809               -0.00192760               -0.00268099               -0.00087681
              -0.09612080                0.98073653               74.05967813                0.99999999               -0.02618050               -0.02705620                0.08985923                0.00123081                0.00133907                0.00771197
               0.90361740                0.97599670               74.06302866                0.01000000               -0.02546104               -0.02522583                0.08480766               -0.00040234                0.00422571               -0.00408429
               1.90336998                0.97127875               74.06643611                0.01000000               -0.06200934                0.04907760                0.07980456                0.24613915                0.01357094                0.02539461
               2.90237721                0.97222655               74.06996638                0.01000000               -0.11686239               -0.01405286                0.07956162                0.41568483               -0.02977882                0.05200747
               3.90103273                0.97582735               74.07299599                0.01000002               -0.22389491                0.00624256                0.09304247                0.54255515               -0.10637257                0.08313122
               4.89789931                0.98283939               74.07560904                0.01000000               -0.38112716                0.03141251                0.10994080                0.78437320               -0.23616615                0.15611626
               5.89341019                0.99398744               74.07753018                0.01000001               -0.27507223               -0.19308230                0.20443638                0.86125212               -0.35752946                0.33386260
               6.89239787                1.00185892               74.07900308                0.74281221               -0.06817013               -0.03635230                0.12054460                0.27218341               -0.07438089               -0.00584697
               7.89204679                1.00430714               74.08196252                0.99999999               -0.03420213               -0.03470286                0.11487741               -0.00003359               -0.00074650               -0.00395338
               8.89171383                1.00678677               74.08491773                1.00000000               -0.03257438               -0.03313256                0.10956492                0.00048070               -0.00088524                0.00071009
               9.89139530                1.00929097               74.08787853                1.00000000               -0.03185248               -0.03225860                0.10494997               -0.00085638               -0.00061316                0.00271963
              -0.09137805                1.98045307               74.06163886                0.21014767               -0.02910000               -0.02492978                0.09875572                0.00079038                0.00295560                0.05477261
               0.90833095                1.97573297               74.06492334                0.01000000               -0.06345655               -0.02188678                0.09350165                0.06948876                0.04436339                0.04088001
               1.90735282                1.97248708               74.06903559                0.01000001               -0.11831311                0.03571753                0.07759446                0.35667715                0.05021305                0.09249533
               2.90596469                1.97245035               74.07258501                0.01000000               -0.18619702               -0.00870896                0.08032036                0.71064688               -0.00942505                0.11349873
               3.90362888                1.97603465               74.07576862                0.01000000               -0.29380810               -0.00509122                0.09111382                1.00828009               -0.06575825                0.15073435
               4.90008853                1.98285130               74.07855306                0.01000001               -0.38283955               -0.03685450                0.11141240                1.20918152               -0.12257190                0.21324808
               5.89597209                1.99088927               74.08078534                0.01000000               -0.50694868               -0.18644121                0.11297473                1.36891005               -0.11492462                0.21977885
               6.88994956                2.00147875               74.08241819                0.01000000               -0.31979521               -0.22488362                0.13168836                0.85743393               -0.06597439                0.07468626
               7.88957619                2.00394546               74.08538506                0.61471219               -0.03626489               -0.03674559                0.12233946                0.00136456                0.00355976               -0.00997677
               8.88922426                2.00644226               74.08840746                1.00000000               -0.03472045               -0.03582128                0.11800020                0.00182356                0.00472590                0.00250058
               9.88888178                2.00895246               74.09141224                0.99999994               -0.03424803               -0.03533554                0.11517153               -0.00076082                0.00339416                0.00680694
              -0.08666479                2.98023794               74.06452469                0.01000000               -0.03620398                0.15686947                0.10450329                0.34149955                0.00003548                0.15536385
               0.91297317                2.97555896               74.06776015                0.01000000                0.02254699               -0.07803095                0.09512890                0.38729893                0.05212034                0.16960464
               1.91378615                2.97199310               74.07204706                0.01000000                0.00347037               -0.11517948                0.07241014                0.68462502                0.05849393                0.15886613
               2.91304258                2.97205237               74.07564703                0.01000000               -0.14943837               -0.09538150                0.07743331                1.08112599                0.00896845                0.16167894
               3.91079738                2.97572553               74.07899179                0.01000004               -0.29071285               -0.07609176                0.08946672                1.41378177               -0.01605178                0.18093544
               4.90722832                2.98210230               74.08205697                0.01000000               -0.43182199               -0.08274053                0.10210562                1.64819822               -0.02653486                0.19877612
               5.90216094                2.99025862               74.08483445                0.01000001               -0.53689811               -0.08704868                0.11271735                1.66100165               -0.02527883                0.19878287
               6.89649036                2.99736125               74.08748801                0.01000000               -0.75251848               -0.22421064                0.11479663                1.54378456               -0.09371870                0.18494645
               7.88711057                3.00357222               74.08871800                0.01000000               -0.48735343               -0.10110470                0.11433433                0.93194247               -0.07363348                0.11438530
               8.88674329                3.00607034               74.09186863                0.60241301               -0.03754517               -0.03812094                0.12726014                0.00166504                0.01290972                0.00082672
               9.88635967                3.00858426               74.09488034                0.99999994               -0.03836201               -0.03775623                0.12600756               -0.00112777               -0.00062026                0.00298736
              -0.07519010                3.98359046               74.06856484                0.01000000               -0.04881286                0.17848386                0.14168418                0.34977236                0.00556749                0.20768326
               0.92432177                3.97417236               74.07217653                0.01000001               -0.01289916               -0.16563377                0.07658807                0.63916201               -0.02920503                0.27499267
               1.92455191                3.97018349               74.07547574                0.01000000               -0.02334920               -0.21890251                0.06773422                1.06432627               -0.02935651                0.21364385
               2.92385478                3.97054272               74.07895864                0.01000004               -0.13486646               -0.19980339                0.07728107                1.44751571               -0.00517557                0.18938694
               3.92185458                3.97451281               74.08242018                0.01000000               -0.26676913               -0.17022201                0.08986080                1.78176512                0.01055006                0.18242519
               4.91851940                3.98119649               74.08579233                0.01000001               -0.39607029               -0.13597704                0.10178388                2.02834868                0.01743507                0.18816646
               5.91393318                3.98914830               74.08902866                0.01000001               -0.55038789               -0.11425315                0.11008014                2.15643021                0.00850817                0.19040084
               6.90751164                3.99699454               74.09192055                0.01000001               -0.72136187               -0.06505231                0.11470866                2.05501721               -0.01079325                0.18110058
               7.89950594                4.00192336               74.09461195                0.01000001               -1.16330607               -0.07749543                0.11285554                2.03251384               -0.11823704                0.22958833
               8.88424552                4.00567984               74.09524489                0.01000000               -0.78372744               -0.19071370                0.14390003                1.76597699               -0.10785888                0.19070156
               9.88383139                4.00819734               74.09822757                0.01000000               -0.04141301               -1.04820829                0.14030693                1.78488794               -0.01398890                0.19014001
              -0.06083313                4.98380761               74.07167241                0.01000001               -0.00034871               -0.08147583                0.17983905                0.37201806               -0.06764808                0.03913466
               0.93916339                4.97224629               74.07564126                0.01000000               -0.02322812               -0.24398371                0.08035015                0.73265336               -0.14823209                0.28692013
               1.93870231                4.96761505               74.07890518                0.01000001               -0.07499103               -0.28672157                0.06961858                1.29836152               -0.13580102                0.23178354
               2.93766357                4.96805630               74.08227118                0.01000000               -0.14616997               -0.28788035                0.08035924                1.67420894               -0.04213904                0.16755113
               3.93577891                4.97232109               74.08579902                0.01000001               -0.22518781               -0.28633714                0.09479418                2.02820846                0.01448615                0.16082481
               4.93315981                4.97938276               74.08944556                0.01000001               -0.31437060               -0.23866530                0.10461397                2.32896138                0.04195751                0.16668767
               5.92949150                4.98797356               74.09304734                0.01000001               -0.41720878               -0.16463155                0.11148884                2.49833021                0.04632879                0.17640646
               6.92481564                4.99606020               74.09648209                0.01000000               -0.52079751               -0.11839561                0.11624717                2.54698661                0.02663220                0.19452915
               7.91907555                5.00202231               74.09952529                0.01000000               -0.45133907               -0.11210025                0.12119799                2.43363646                0.00562987                0.21283508
               8.91578885                5.00225607               74.10252661                0.01000002               -0.10265621               -0.43601234                0.11864353                2.11925687               -0.01032300                0.32126979
               9.91702243                4.98762009               74.10547149                0.01000001                0.12335722               -1.29564121                0.12059004                1.40669260               -0.02974159                0.33275462
              -0.04462709                5.98196095               74.07165612                0.01000002               -0.02055163               -0.48709454                0.17729995                0.55564324               -0.32634552                0.34381018
               0.95516740                5.96929268               74.07788308                0.01000001               -0.03318942               -0.32254444                0.13691927                0.92956853               -0.41178067                0.23516482
               1.95470913                5.96444906               74.08187761                0.01000000               -0.12672363               -0.29616924                0.06410602                1.29910051               -0.18172360                0.07224379
               2.95263293                5.96478511               74.08511509                0.01000001               -0.18084168               -0.39631597                0.09401418                1.68294854               -0.06594412                0.09626426
               3.95109229                5.96878607               74.08884115                0.01000001               -0.15933831               -0.44195302                0.10342467                2.09028736                0.02397141                0.11146206
               4.94944616                5.97642319               74.09281767                0.01000001               -0.19349753               -0.37027571                0.10938012                2.47505191                0.06834855                0.13118366
               5.94722234                5.98585567               74.09686068                0.01000002               -0.25217707               -0.24795153                0.11398958                2.66245286                0.08458518                0.15618551
               6.94440262                5.99462663               74.10080343                0.01000000               -0.26197698               -0.16878587                0.11840151                2.60821220                0.07967979                0.18947228
               7.94198280                5.99968136               74.10454913                0.01000000               -0.16848688               -0.20920975                0.12282792                2.27095178                0.05715720                0.23327877
               8.94103288                5.99695959               74.10802237                0.01000001               -0.03728025               -0.34960275                0.12856483                1.41032564                0.02572839                0.26411911
               9.94123720                5.98228452               74.11131581                0.01000000                0.02043172               -0.25357526                0.13390404                0.69116194                0.00347439                0.27766192
              -0.02438373                6.97406572               74.07469585                0.90938436               -0.03496220               -0.41196970                0.10265704                0.59865826               -0.00508085                0.10985146
               0.97526665                6.96579540               74.07904637                0.01000002               -0.32121903               -0.18830061                0.11499451                0.80184715               -0.02146017               -0.01072702
               1.96919189                6.96169167               74.08307923                0.01000003               -0.41405629               -0.36952292                0.11864745                1.14031346               -0.04343452               -0.04146398
               2.96698552                6.96012998               74.08715296                0.01000000               -0.16226524               -0.49388209                0.11039124                1.39261278               -0.00016283                0.00904796
               3.96594659                6.96348203               74.09131684                0.01000001               -0.06971352               -0.70164215                0.11329729                1.99355274                0.05716458                0.04539133
               4.96559125                6.97197725               74.09575102                0.01000000               -0.07047346               -0.49788975                0.11567336                2.50115135                0.10635389                0.07847929
               5.96453712                6.98301453               74.10032249                0.01000000               -0.12185339               -0.27631362                0.11752612                2.59664404                0.13544160                0.12402563
               6.96315419                6.99268449               74.10490721                0.01000000               -0.11877483               -0.18857567                0.12032401                2.41248709                0.14168997                0.17474169
               7.96216162                6.99783812               74.10928964                0.01000001               -0.08809880               -0.12839410                0.12550400                1.96742705                0.11822282                0.24423366
               8.96139221                6.99526402               74.11328434                0.01000004               -0.09829020                0.00696471                0.13376983                1.13825769                0.06396432                0.29350863
               9.96019582                6.98254859               74.11669046                0.01000001               -0.11963931                0.22202928                0.14548227                0.51482525                0.02389010                0.30080531
              -0.01611327                7.97372155               74.07591428                0.99999999               -0.03083344               -0.03186668                0.10713055                0.01027651               -0.00717951                0.02090795
               0.98357840                7.96552667               74.08007493                1.00000000               -0.03529621               -0.03572704                0.11487114               -0.00257384               -0.01305508               -0.00944121
               1.98318081                7.95705860               74.08411978                0.01000000               -0.24417894               -0.24843122                0.11891621                0.58659291               -0.00266938               -0.02431277
               2.97869482                7.95490747               74.08848909                0.01000000               -0.20323634               -0.58719645                0.12444773                1.09373538                0.04551818               -0.05704880
               3.97911608                7.95475323               74.09311113                0.01000001                0.06209337               -1.16981758                0.12392327                1.81820379                0.09899459               -0.07976342
               4.97993669                7.96646539               74.09805951                0.01000000               -0.03340480               -0.44855883                0.12409005                2.41724036                0.15770492                0.03231773
               5.97844799                7.98032939               74.10337520                0.01000000               -0.10539604               -0.20996564                0.12243930                2.23660944                0.20118510                0.08167170
               6.97782877                7.99085511               74.10863812                0.01000001                0.01519139               -0.18428396                0.12379762                1.93726644                0.22769672                0.13708420
               7.97875181                7.99711348               74.11397692                0.01000007                0.06293993               -0.12542077                0.12787414                1.67448130                0.21519918                0.22429540
               8.97908756                7.99709889               74.11862452                0.01000001               -0.08936286                0.20214756                0.13931266                1.23944212                0.13613188                0.41846310
               9.97696456                7.98672510               74.12234340                0.01000002               -0.21230087                0.75818991                0.15694479                0.75855551                0.07816276                0.34365785
              -0.00778843                8.97342839               74.07718361                1.00000000               -0.03334420               -0.03142640                0.11055300                0.00125688                0.00036253                0.01987658
               0.99187813                8.96508086               74.08125720                0.99999999               -0.03343116               -0.04127394                0.11818772               -0.00143079               -0.00006441               -0.00056325
               1.99154295                8.95672304               74.08531917                0.99999999               -0.03562633               -0.03653769                0.12424227                0.00090433               -0.00867604               -0.01040777
               2.99116560                8.94838605               74.08919578                0.80748398               -0.03951029               -0.34729759                0.13604325                0.20844991               -0.01652555               -0.03909519
               3.99075274                8.94008568               74.09305856                0.01000000               -0.14028539               -0.75673824                0.15134953                1.72809878                0.13890420               -0.08623113
               4.98835989                8.96300607               74.10007232                0.01000002               -0.29365791               -0.16091443                0.13189549                2.05348210                0.27892587                0.00138660
               5.98487958                8.97881521               74.10598790                0.01000001               -0.16222321               -0.11569635                0.12974322                1.36749436                0.25950219                0.03602585
               6.98511543                8.98899881               74.11185399                0.01000001                0.22639451               -0.20695172                0.13091720                1.07619115                0.29844338                0.07264212
               7.98940747                8.99532970               74.11790381                0.01000000                0.57269988               -0.28508314                0.13511274                1.04006615                0.42561047                0.14131232
               8.99656943                8.99930697               74.12565904                1.00000000                0.33535109                0.08782017                0.13826078                1.07948266                0.26734099                0.27108918
               9.99611450                8.99771239               74.12796283                1.00000000               -0.04549322                0.51947510                0.17843395                0.87828782               -0.00509266                0.19000967
               0.00060694                9.97309303               74.07838547                0.99999999               -0.03518076               -0.03353644                0.11623154                0.00035316                0.01623027                0.01636985
               1.00025513                9.96470119               74.08245829                1.00000000               -0.03566208               -0.03796658                0.12293964               -0.00055896                0.02093686                0.00043415
               1.99989370                9.95632784               74.08662358                1.00000000               -0.03769735               -0.03951982                0.12977393               -0.00190873                0.02229214               -0.00492354
               2.99950118                9.94796152               74.09069329                0.99999995               -0.04178287               -0.04245358                0.14242791               -0.00191098                0.01305405               -0.00192457
               3.99905804                9.93961846               74.09464884                0.14127487               -0.86121964               -0.04672141                0.15790166                1.59480885                0.17171701               -0.00937113
               4.98227679                9.96324710               74.10191719                0.01000000               -0.96264503                0.02410295                0.14213388                1.31153982                0.32543090               -0.02161122
               5.97980514                9.97801547               74.10828281                0.01000001                0.02806539               -0.07997481                0.14093531                0.66600427                0.29869510                0.00911283
               6.98283810                9.98671608               74.11438007                0.01000000                0.47199189               -0.22827284                0.14436684                0.44208423                0.33009212                0.02845744
               7.98924498                9.99141181               74.12084691                0.01000002                0.77282184               -0.39178904                0.15058646                0.59071074                0.37919758                0.08186560
               8.99829454                9.99885529               74.12737642                1.00000000                0.42372483               -0.04516781                0.16856585                0.45765020                0.21662343                0.00533721
               9.99771947                9.99711460               74.12968021                1.00000000               -0.05750626               -0.05977838                0.20867202               -0.01357088                0.00519840               -0.00519829
              -0.10427896               -0.02092351               75.05855341                1.00000000               -0.02398252               -0.02586349                0.08251971               -0.00000639               -0.00713959                0.00648511
               0.89548122               -0.02576950               75.06184709                0.98987623               -0.02319625               -0.02393513                0.07709516               -0.00115493               -0.00802514               -0.00184015
               1.89525712               -0.03059643               75.06512928                0.01115170                0.15680571               -0.02260266                0.07200559                0.29835397                0.00157653               -0.00361444
               2.89861733               -0.02941583               75.06861914                0.01000001                0.22173416               -0.03589697                0.05561658                0.25490098               -0.01389053               -0.00279502
               3.89969180               -0.02585511               75.07182999                0.01000002               -0.01375242                0.00279035                0.09095318                0.27389924               -0.03205427                0.02684007
               4.89834229               -0.01896832               75.07503205                0.01000002               -0.42753863                0.07256577                0.13086549                0.61996981               -0.11990689                0.03024597
               5.89114103               -0.00350395               75.07720884                0.09316526               -0.32260095               -0.08704092                0.04364874                0.64361011               -0.38205012                0.25854837
               6.89189027               -0.00132229               75.07667713                1.00000000                0.02076495               -0.03611301                0.11623033               -0.01219198               -0.17337636               -0.00212508
               7.89155633                0.00111350               75.07956741                0.99999998               -0.03222133               -0.03362250                0.10809101               -0.00018821               -0.00416580               -0.00205268
               8.89124584                0.00357721               75.08243792                1.00000000               -0.02995525               -0.03094306                0.10002719               -0.00023259               -0.00400990               -0.00020784
               9.89095722                0.00606083               75.08532784                1.00000000               -0.02886154               -0.02856907                0.09270989               -0.00219187               -0.00254523                0.00000400
              -0.09943302                0.97881786               75.06057835                0.99999999               -0.02608474               -0.02708697                0.08995027                0.00080278                0.00118154                0.00795083
               0.90030613                0.97399114               75.06387494                0.01000000               -0.02515775               -0.02478045                0.08397279               -0.00107391                0.00415558               -0.00424917
               1.90006382                0.96917755               75.06722945                0.01000000               -0.07552222                0.05604194                0.07805091                0.25214596                0.01681409                0.01904421
               2.89879568                0.97022520               75.07076765                0.01000000               -0.14283896                0.00261076                0.08264065                0.44760033               -0.00580081                0.02887272
               3.89720704                0.97417280               75.07404249                0.01000006               -0.27146395                0.01426311                0.10310910                0.59425027               -0.06779925                0.06089100
               4.89336640                0.98175734               75.07683018                0.01000000               -0.42264615                0.02997581                0.13839536                0.97559302               -0.05902819                0.09118275
               5.88875412                0.99562564               75.08071913                0.01000001               -0.19533908               -0.35088739                0.20609201                0.91308703               -0.19391004                0.15434401
               6.88945962                0.99831658               75.08022285                0.73771954                0.01752881               -0.03721303                0.12345675                0.01346173               -0.17131545               -0.00610160
               7.88910469                1.00077727               75.08311660                0.99999999               -0.03448884               -0.03485258                0.11581290                0.00154099               -0.00189628               -0.00529736
               8.88876985                1.00326778               75.08600794                1.00000000               -0.03265051               -0.03148679                0.10849458                0.00154760               -0.00131815               -0.00002569
               9.88845168                1.00577514               75.08891028                1.00000000               -0.03181619               -0.02901806                0.10149415               -0.00063142               -0.00046746                0.00281250
              -0.09460948                1.97853475               75.06262716                0.26934123               -0.02904735               -0.02643922                0.09892792               -0.00279435                0.00270417                0.05662659
               0.90510005                1.97373489               75.06585318                0.01000000               -0.06622714               -0.01949882                0.09172684                0.07157599                0.03782730                0.03711662
               1.90406598                1.97052441               75.06977817                0.01000001               -0.12629792                0.05089596                0.07072567                0.36912380                0.05419674                0.06384892
               2.90257409                1.97063639               75.07338461                0.01000000               -0.20106532                0.00645132                0.07981288                0.74419047                0.01764129                0.08149386
               3.90004467                1.97443016               75.07672926                0.01000000               -0.30863948               -0.00326921                0.09615369                1.06498823               -0.01909848                0.11442154
               4.89640130                1.98163120               75.07982562                0.01000001               -0.36005701               -0.06812317                0.12621044                1.28796538               -0.07601816                0.14979915
               5.89284353                1.98947830               75.08203755                0.01000000               -0.46967158               -0.37849892                0.15022483                1.33858915               -0.11428304                0.07633227
               6.88700787                1.99793345               75.08373373                0.01000002               -0.31037943               -0.19590571                0.12849398                0.75474977               -0.06234835                0.06240179
               7.88663594                2.00041645               75.08661213                0.55009219               -0.03644737               -0.03551412                0.12210359                0.00430255                0.00153240               -0.02267522
               8.88627892                2.00294748               75.08957173                1.00000000               -0.03530353               -0.03294330                0.11728187                0.00453872                0.00447625                0.00630466
               9.88592987                2.00548047               75.09252004                0.99999999               -0.03490484               -0.03106519                0.11070130               -0.00084255                0.00369713                0.01144535
              -0.08988918                2.97828907               75.06561388                0.01000000               -0.03628316                0.17829752                0.11464944                0.32947238               -0.00454906                0.18643881
               0.90974799                2.97360117               75.06869280                0.01000000                0.02169888               -0.04513325                0.08420000                0.38043731                0.04116093                0.13516845
               1.91054479                2.97019547               75.07265777                0.01000000                0.00128824               -0.09649199                0.05598848                0.69047734                0.08735116                0.09979830
               2.90977375                2.97035423               75.07636889                0.01000000               -0.15163988               -0.08331274                0.07165876                1.09355079                0.05498462                0.12314110
               3.90751200                2.97410741               75.07988860                0.01000000               -0.28480927               -0.07907416                0.09081813                1.43171314                0.02254316                0.14927327
               4.90407756                2.98039488               75.08312810                0.01000000               -0.41441722               -0.11627303                0.11074715                1.64910879               -0.00225495                0.16131927
               5.89922365                2.98805566               75.08602394                0.01000001               -0.52305449               -0.13038154                0.12067755                1.60661828               -0.01598530                0.16862205
               6.89361647                2.99439846               75.08864734                0.01000000               -0.75234685               -0.18466673                0.11515327                1.48123487               -0.10007038                0.16168918
               7.88417672                3.00006699               75.08981026                0.01000006               -0.49099400               -0.08151535                0.10644467                0.90897692               -0.06240589                0.09842159
               8.88379659                3.00260892               75.09325045                0.73797727               -0.04039369               -0.03622316                0.13641089                0.00519538                0.02902511                0.03149681
               9.88336884                3.00515384               75.09623999                0.99999994               -0.04277534               -0.03483941                0.12985675               -0.00383996                0.00628981                0.03041065
              -0.07864422                3.98210070               75.07021994                0.01000002               -0.05533772                0.19093261                0.19826207                0.30105150               -0.08101970                0.23490655
               0.92080240                3.97283222               75.07263626                0.01000003               -0.01166560               -0.10712474                0.00230768                0.55734415               -0.03302866                0.10028466
               1.92112246                3.96859457               75.07594910                0.01000000               -0.01346194               -0.19951068                0.04780895                1.01623931                0.06750811                0.13244590
               2.92053316                3.96897013               75.07962164                0.01000000               -0.12420870               -0.18924981                0.06518189                1.42542926                0.06722093                0.15006554
               3.91863829                3.97284867               75.08328034                0.01000000               -0.25489668               -0.17342623                0.08812883                1.76276207                0.05312949                0.16068023
               4.91543523                3.97930574               75.08681195                0.01000001               -0.38329895               -0.14672774                0.10477433                1.99668513                0.04080591                0.16667690
               5.91097231                3.98687067               75.09013099                0.01000001               -0.54069934               -0.11592064                0.11313267                2.10786648                0.01823812                0.16816025
               6.90462124                3.99424011               75.09306181                0.01000001               -0.71836407               -0.04575509                0.11399634                2.00672288               -0.01223427                0.16572017
               7.89660503                3.99878614               75.09568146                0.01000001               -1.16626290               -0.04753756                0.11559163                1.99522314               -0.08232080                0.22867109
               8.88129598                4.00222301               75.09730956                0.01000000               -0.79209008               -0.17541740                0.17126399                1.74549014               -0.06976347                0.16542302
               9.88076323                4.00478369               75.10020557                0.01001855               -0.05327536               -1.03497380                0.16091478                1.77645064               -0.00427666                0.16852284
              -0.06533119                4.98210772               75.07375508                0.01000000               -0.02678104               -0.09834441                0.31300667                0.39049018                0.01039834                0.21912716
               0.93440100                4.97145867               75.07627157                0.01000000                0.00314311               -0.24969986                0.04417890                0.69994963                0.01584200                0.04216732
               1.93473167                4.96620525               75.07926861                0.01000001               -0.01863801               -0.27063651                0.03714431                1.20317017                0.02212453                0.13502730
               2.93402824                4.96656923               75.08291238                0.01000000               -0.11500166               -0.28779339                0.06322703                1.62822704                0.05024153                0.14973564
               3.93243163                4.97063889               75.08668164                0.01000001               -0.20194840               -0.28814258                0.08980219                1.98968543                0.05856422                0.14873828
               4.92998927                4.97746032               75.09047421                0.01000000               -0.29925141               -0.24004598                0.10424035                2.28977139                0.06217062                0.15189810
               5.92644661                4.98573725               75.09415549                0.01000001               -0.40769009               -0.15901321                0.11207641                2.45574476                0.05448920                0.15941960
               6.92183547                4.99348336               75.09762991                0.01000002               -0.51741652               -0.10142877                0.11613249                2.50446514                0.03062161                0.17935040
               7.91609828                4.99911624               75.10074996                0.01000000               -0.45633063               -0.08722967                0.12229931                2.39625871                0.00377940                0.20651242
               8.91270885                4.99910057               75.10368203                0.01000002               -0.11608818               -0.40374833                0.12402207                2.09591460               -0.01168770                0.28043209
               9.91377651                4.98445436               75.10666712                0.01000001                0.10676597               -1.26877403                0.12695911                1.39523703               -0.02542349                0.30434426
              -0.04953632                5.98013381               75.07516280                0.01000002                0.02401814               -0.45578566                0.32271945                0.59245387                0.06172749               -0.10435997
               0.95070386                5.96783822               75.07872662                0.01000001               -0.01941865               -0.34661339                0.11890901                0.97153454                0.02491765                0.02573257
               1.95007531                5.96318184               75.08221288                0.01000001               -0.10198978               -0.29755472                0.04346235                1.27476580               -0.01850252                0.09205899
               2.94866406                5.96321427               75.08589206                0.01000001               -0.12671974               -0.40307360                0.07689702                1.64103479                0.01776681                0.10293212
               3.94754091                5.96708582               75.08980855                0.01000001               -0.12658867               -0.44483326                0.09661876                2.05474682                0.05621108                0.10959913
               4.94613229                5.97450482               75.09388688                0.01000001               -0.17383730               -0.36964924                0.10711426                2.43757796                0.08065803                0.12015907
               5.94406417                5.98369041               75.09798720                0.01000006               -0.24003693               -0.24161625                0.11306579                2.62688028                0.08786530                0.14028674
               6.94133155                5.99221154               75.10197528                0.01000000               -0.25755844               -0.15376754                0.11733360                2.57755834                0.07882696                0.17182656
               7.93891300                5.99704155               75.10575664                0.01000000               -0.17277014               -0.18316078                0.12102912                2.24657713                0.05542096                0.21590937
               8.93787615                5.99414805               75.10928688                0.01000003               -0.04763095               -0.31537414                0.12534009                1.39630809                0.02477073                0.25842711
               9.93796038                5.97940820               75.11262296                0.01000000                0.00842276               -0.22418066                0.12944365                0.68558370                0.00415531                0.28235560
              -0.02889094                6.97299201               75.07572796                0.92524844               -0.03254048               -0.37231953                0.10321026                0.60994769               -0.00823716               -0.01747385
               0.97078366                6.96452641               75.08020510                0.01000000               -0.31290590               -0.18355368                0.11513862                0.79039396               -0.02939904               -0.00623914
               1.96485094                6.96025416               75.08423472                0.01000000               -0.39193512               -0.37477033                0.11396266                1.14046085               -0.01682160                0.00370661
               2.96294495                6.95850776               75.08816982                0.01000000               -0.13074613               -0.49677921                0.10084772                1.37333817                0.01815926                0.02763573
               3.96223602                6.96174222               75.09240704                0.01000001               -0.04043568               -0.70311711                0.10765403                1.96600712                0.06982412                0.04505353
               4.96213624                6.97006734               75.09687881                0.01000000               -0.04792633               -0.49742903                0.11237400                2.46878741                0.10836614                0.07153668
               5.96127749                6.98090493               75.10148323                0.01000000               -0.10503725               -0.27334735                0.11562799                2.56949083                0.13159067                0.10939591
               6.96003549                6.99040801               75.10609547                0.01000000               -0.10920924               -0.17837458                0.11840644                2.39701402                0.13489929                0.15598078
               7.95909331                6.99545303               75.11052608                0.01000009               -0.08835686               -0.10589305                0.12284956                1.96380004                0.11168495                0.22464961
               8.95826836                6.99279309               75.11459636                0.01000001               -0.10627176                0.04080758                0.13016200                1.13928375                0.06058504                0.27893891
               9.95696787                6.97997075               75.11811690                0.01000003               -0.13004842                0.25105427                0.14115636                0.51536495                0.02338894                0.29981236
              -0.02040616                7.97268742               75.07698908                0.99999999               -0.03442512               -0.03160861                0.10768179               -0.00195722               -0.00985267                0.02051267
               0.97924959                7.96416715               75.08122425                1.00000000               -0.03453376               -0.03441922                0.11389640               -0.00065569               -0.01836757               -0.02157037
               1.97890317                7.95568644               75.08530307                0.01000000               -0.23034135               -0.24651653                0.11567032                0.58437974               -0.00719983               -0.02655153
               2.97464276                7.95327868               75.08969022                0.01000002               -0.18008436               -0.58260371                0.11874522                1.07346294                0.04375482               -0.04403645
               3.97530148                7.95302348               75.09427782                0.01000001                0.08512867               -1.16712008                0.11798345                1.78483412                0.09829091               -0.06014165
               4.97634534                7.96455624               75.09928833                0.01000000               -0.00940858               -0.45200004                0.12086570                2.38564389                0.15340607                0.02542202
               5.97511331                7.97822346               75.10458112                0.01000000               -0.08108011               -0.21325388                0.11987350                2.21653569                0.18983767                0.06999500
               6.97472373                7.98864405               75.10986191                0.01000000                0.03453075               -0.18266745                0.12163261                1.93536686                0.21416811                0.12080372
               7.97580392                7.99492369               75.11524013                0.01000002                0.07101823               -0.11323714                0.12564786                1.69207373                0.20132975                0.20451900
               8.97614410                7.99496420               75.12000117                0.01000086               -0.09457878                0.23572152                0.13667474                1.26147807                0.12651627                0.39589440
               9.97391235                7.98442929               75.12389693                0.01000002               -0.22317523                0.78949487                0.15429710                0.77408325                0.07274630                0.34262778
              -0.01188954                8.97235984               75.07829043                1.00000000               -0.03389320               -0.03329394                0.11112688                0.00097656                0.00064593                0.01867660
               0.98777153                8.96383802               75.08243637                0.99999999               -0.03417264               -0.03463762                0.11674889                0.00079167               -0.00169620               -0.00416997
               1.98742701                8.95532383               75.08654686                0.99999876               -0.03471788               -0.03716390                0.12190160                0.00324045               -0.00641234               -0.01279964
               2.98707717                8.94685569               75.09062270                0.90333091               -0.03859295               -0.34311722                0.13534164                0.20021813               -0.00226825               -0.03322680
               3.98665515                8.93839982               75.09480700                0.01000000               -0.12140173               -0.75607016                0.15328458                1.70028760                0.12388982               -0.06579210
               4.98464913                8.96102734               75.10133987                0.01000002               -0.25673743               -0.17100217                0.12716945                2.02924478                0.25095507               -0.00310132
               5.98152040                8.97663985               75.10727310                0.01000000               -0.13032634               -0.12405987                0.12715608                1.35603442                0.24817764                0.02920801
               6.98204261                8.98675466               75.11314838                0.01000000                0.25471152               -0.21271112                0.12872112                1.07932305                0.28134321                0.06313949
               7.98661463                8.99318828               75.11924400                0.01000001                0.59748534               -0.28659104                0.13358368                1.06719911                0.40056521                0.12921677
               8.99399231                8.99750752               75.12703800                1.00000000                0.34523639                0.10441640                0.13869151                1.11405965                0.24726489                0.25806486
               9.99351936                8.99576065               75.12974668                1.00000000               -0.04729580                0.53733884                0.17810057                0.89384479               -0.00780439                0.18366175
              -0.00334299                9.97202154               75.07955015                1.00000000               -0.03555731               -0.03382943                0.11730945               -0.00005973                0.01557019                0.01603040
               0.99630143                9.96347440               75.08368610                1.00000000               -0.03533489               -0.03636226                0.12280640               -0.00092857                0.01854379               -0.00076949
               1.99595031                9.95494316               75.08789901                1.00000000               -0.03651504               -0.03806695                0.12725163               -0.00057276                0.02464952               -0.00584635
               2.99557113                9.94641634               75.09218722                0.99999999               -0.04073625               -0.04393503                0.14154665               -0.00265779                0.02791644                0.00183548
               3.99513558                9.93790208               75.09646592                0.17597548               -0.84404633               -0.04977458                0.15830801                1.58403648                0.15895461               -0.00211160
               4.97869021                9.96113619               75.10328969                0.01000001               -0.93144569                0.01088579                0.13713567                1.29611657                0.30203537               -0.02094548
               5.97650667                9.97574227               75.10967701                0.01000000                0.05357784               -0.08975840                0.13793577                0.66130863                0.29090246                0.00670495
               6.97976176                9.98438982               75.11580901                0.01000000                0.49441904               -0.23648389                0.14213137                0.44439552                0.31640781                0.02505308
               7.98639505                9.98919187               75.12234470                0.01000002                0.80455818               -0.39964167                0.14950208                0.61117740                0.36371206                0.07828437
               8.99585293                9.99705253               75.12906258                1.00000000                0.44439643               -0.04549889                0.16889067                0.48527124                0.20750664                0.00712985
               9.99528298                9.99517607               75.13177058                1.00000000               -0.05699471               -0.05845813                0.20830635               -0.01128380                0.00727914               -0.00689940
              -0.10761250               -0.02292598               76.05938478                1.00000000               -0.02426514               -0.02522292                0.08411030               -0.00068841               -0.00537743                0.00483063
               0.89214485               -0.02785500               76.06262258                0.99460806               -0.02340616               -0.02393670                0.07837319               -0.00160092               -0.00569421               -0.00250282
               1.89191938               -0.03276711               76.06585474                0.01000000                0.15381136               -0.02221439                0.07378638                0.30109323               -0.01388561               -0.00290269
               2.89522107               -0.03162150               76.06892266                0.01000000                0.22086273               -0.03399608                0.06926179                0.26214208               -0.01377700               -0.02245498
               3.89633663               -0.02797842               76.07282804                0.01000004               -0.02184532                0.01243160                0.08797325                0.27042002               -0.01063890                0.01881820
               4.89478417               -0.02076828               76.07631168                0.01000002               -0.39280687                0.06377653                0.14364116                0.56978067               -0.09190942                0.04076852
               5.88848049               -0.00709870               76.07783981                0.23552149               -0.28923466               -0.06556898                0.06085783                0.55788973               -0.17264411                0.00621341
               6.88899948               -0.00492814               76.07787600                1.00000000                0.00900518               -0.03915746                0.12509011               -0.01259903               -0.14484348               -0.00341539
               7.88866060               -0.00249991               76.08066120                0.99999999               -0.03208089               -0.03436185                0.10985196                0.00076049               -0.00760352               -0.00306150
               8.88835786               -0.00003928               76.08343468                0.99999999               -0.02920099               -0.03082678                0.09920243                0.00022902               -0.00539263               -0.00060938
               9.88807658                0.00243283               76.08624051                1.00000000               -0.02812806               -0.02778096                0.09028697               -0.00232036               -0.00311814               -0.00099779
              -0.10269036                0.97682180               76.06147713                1.00000000               -0.02602372               -0.02619745                0.08919455                0.00020846               -0.00019495                0.00857724
               0.89704941                0.97190563               76.06470812                0.01000000               -0.02480429               -0.02437752                0.08212864               -0.00097019                0.00265835               -0.00499046
               1.89681356                0.96701074               76.06799713                0.01000000               -0.08006286                0.05514230                0.07391566                0.25594277                0.02260195                0.01335538
               2.89544815                0.96803854               76.07161920                0.01000000               -0.15996689                0.00502444                0.08615434                0.46402487               -0.00813951               -0.00628994
               3.89361422                0.97214590               76.07505818                0.01000001               -0.27030169                0.02276964                0.07650956                0.61501121                0.00232285                0.03905510
               4.89004212                0.97986948               76.07837695                0.01000000               -0.37374506                0.01588228                0.14515563                0.92877105                0.01496024                0.03130281
               5.88613932                0.99224561               76.08165202                0.01000001               -0.17340130               -0.28950960                0.09096757                0.80543102               -0.10110975               -0.05777075
               6.88657409                0.99468029               76.08147222                0.72950367                0.00422262               -0.03847829                0.12779897                0.00196985               -0.15344059               -0.01150653
               7.88622377                0.99715647               76.08427877                0.99999999               -0.03401550               -0.03508998                0.11607158                0.00402058               -0.00312697               -0.00704816
               8.88589378                0.99965245               76.08708763                1.00000000               -0.03212514               -0.03174385                0.10781935                0.00232789               -0.00135710               -0.00011816
               9.88558127                1.00215502               76.08990841                0.99999999               -0.03125114               -0.02905821                0.09908519               -0.00061781               -0.00012201                0.00178651
              -0.09777600                1.97655008               76.06361742                0.35262995               -0.02875064               -0.02239315                0.09823107               -0.00042634                0.00224519                0.06741908
               0.90193650                1.97165745               76.06675788                0.01000000               -0.06593383               -0.02131927                0.08846586                0.07443740                0.03070801                0.02389980
               1.90090532                1.96833573               76.07045010                0.01000001               -0.12850375                0.04036923                0.06445049                0.39325345                0.06371918                0.02750080
               2.89936642                1.96847899               76.07418127                0.01000000               -0.20497087                0.01198129                0.07714694                0.78022651                0.04850662                0.04095105
               3.89680591                1.97247697               76.07769169                0.01000000               -0.30532720                0.00070077                0.09217894                1.09725969                0.00655386                0.08731195
               4.89325988                1.97954936               76.08107727                0.01000001               -0.35137986               -0.07635627                0.11162712                1.28199524               -0.01291749                0.07944234
               5.88977831                1.98711111               76.08378984                0.01000001               -0.45659328               -0.33539941                0.15461267                1.24678042               -0.10709586                0.00418362
               6.88412801                1.99430229               76.08498807                0.01000001               -0.30047347               -0.17066643                0.11523758                0.69078593               -0.08112578                0.04944970
               7.88376884                1.99679829               76.08782713                0.45400809               -0.03610699               -0.03425756                0.12051182                0.00295640                0.00708991               -0.03657828
               8.88340587                1.99932584               76.09075310                0.99999998               -0.03548733               -0.03450007                0.11856084                0.00268267                0.00793668                0.00888815
               9.88305909                2.00185166               76.09362626                0.99999999               -0.03467762               -0.03240377                0.10936465               -0.00116287                0.00574579                0.01021070
              -0.09291362                2.97637393               76.06681768                0.02843471               -0.03338814                0.17986565                0.11894803                0.31717382               -0.00740310                0.25889495
               0.90675250                2.97147924               76.06944415                0.01000000                0.03853551               -0.15290804                0.06681762                0.37198671                0.05071055                0.04904194
               1.90785709                2.96781813               76.07316683                0.01000000                0.00794722               -0.10570856                0.05988288                0.74051453                0.13415793                0.03999660
               2.90691144                2.96827816               76.07708021                0.01000000               -0.16840259               -0.07392248                0.07574555                1.14216626                0.10586727                0.08739558
               3.90448904                2.97215991               76.08080815                0.01000027               -0.29317772               -0.07717991                0.09569102                1.44925780                0.06581163                0.12161414
               4.90104789                2.97834236               76.08427191                0.01000000               -0.40835201               -0.11827233                0.11748660                1.63013526                0.02621319                0.12004331
               5.89632200                2.98553762               76.08724800                0.01000001               -0.51726302               -0.13655828                0.12553618                1.55971833               -0.01162482                0.10692301
               6.89070263                2.99126696               76.08979108                0.01000000               -0.75313229               -0.14879617                0.11441141                1.42610862               -0.11306825                0.13995039
               7.88125935                2.99647132               76.09084689                0.01000000               -0.49042817               -0.06206028                0.08729197                0.87692155               -0.05350992                0.09407843
               8.88089406                2.99896245               76.09459685                0.78005579               -0.03764870               -0.03845644                0.13533004               -0.00220536                0.04849973                0.02799163
               9.88050638                3.00150694               76.09747747                0.99999999               -0.03876863               -0.03554970                0.12104246               -0.00081445                0.00784727                0.02196531
              -0.08164314                3.98014739               76.07253008                0.02262607               -0.04248230                0.34366840                0.11770784                0.20796442               -0.23442024                0.34412263
               0.91793203                3.96859928               76.07222268                0.01000001                0.02799210               -0.22399833                0.03326456                0.66441883                0.05548702               -0.08888174
               1.91891670                3.96622156               76.07643192                0.01000000               -0.00320353               -0.18831530                0.06608702                1.15240746                0.22927457                0.05463588
               2.91786796                3.96700054               76.08026228                0.01000002               -0.15949150               -0.17487797                0.07879612                1.45278695                0.13961636                0.11526409
               3.91572687                3.97093338               76.08418276                0.01000000               -0.26915452               -0.16961327                0.09790511                1.75413563                0.09829884                0.13656776
               4.91248487                3.97718392               76.08788782                0.01000001               -0.38393953               -0.14982817                0.11278621                1.96640255                0.06471001                0.13775395
               5.90804808                3.98437994               76.09129132                0.01000000               -0.53841936               -0.11159385                0.11955541                2.06230222                0.02512171                0.14036597
               6.90171648                3.99132637               76.09420048                0.01000001               -0.72181497               -0.02666093                0.11690025                1.96540584               -0.00828349                0.15026181
               7.89361178                3.99555708               76.09692378                0.01000000               -1.16951707               -0.01969684                0.12298006                1.95350068               -0.06854357                0.22701865
               8.87832614                3.99855671               76.09867017                0.01000000               -0.78289750               -0.15375298                0.13884897                1.71637308               -0.05783225                0.15208710
               9.87795383                4.00114067               76.10144586                0.01000000               -0.03723156               -1.01086751                0.12387402                1.76026517                0.00088030                0.15822373
              -0.06565813                4.98324730               76.07793255                0.01000006               -0.03751756               -0.11232580                0.04937039               -0.06865408                0.04859062               -0.15209130
               0.93396670                4.96699928               76.07652483                0.01000000               -0.09189439               -0.13627437                0.22432094                0.57440808                0.31805495               -0.13450425
               1.93250399                4.96405182               76.07964806                0.01000001               -0.13556654               -0.24487192                0.06229851                1.30191331                0.21620908                0.08607082
               2.93125537                4.96478060               76.08353572                0.01000000               -0.15578092               -0.27071103                0.08378223                1.61202252                0.13810670                0.13173745
               3.92938837                4.96876765               76.08759506                0.01000001               -0.21629987               -0.28403584                0.09814039                1.95300073                0.10411156                0.13284816
               4.92692937                4.97534579               76.09153037                0.01000000               -0.29813911               -0.23810725                0.10990536                2.24669501                0.08195361                0.13123742
               5.92342559                4.98330574               76.09528886                0.01000001               -0.40478850               -0.15231401                0.11628786                2.41155553                0.06248364                0.13694796
               6.91883360                4.99073374               76.09880474                0.01000000               -0.51632830               -0.08643847                0.11986991                2.46324312                0.03436431                0.16156254
               7.91309902                4.99607738               76.10197128                0.01000000               -0.45978295               -0.06668283                0.12410588                2.36607513                0.01074876                0.18925002
               8.90963794                4.99588739               76.10500705                0.01000002               -0.12776224               -0.36714552                0.12893976                2.07740200               -0.00336914                0.26207671
               9.91054377                4.98128959               76.10801067                0.01000001                0.09058336               -1.23294104                0.12933924                1.37493526               -0.01856677                0.29968287
              -0.05052018                5.97790087               76.07811051                0.01000000               -0.08641491               -0.56786692                0.09223122                0.40506078                0.25697032               -0.47440450
               0.94861567                5.96587380               76.08026126                0.01000001               -0.11530910               -0.19131443                0.18931727                0.78142287                0.26179698               -0.09409427
               1.94717364                5.96132412               76.08274686                0.01000001               -0.16115417               -0.26881112                0.08157705                1.20496347                0.08419020                0.12482463
               2.94539259                5.96158631               76.08665303                0.01000001               -0.14759744               -0.39480360                0.09055094                1.59247809                0.09158615                0.11180032
               3.94422169                5.96525266               76.09077352                0.01000000               -0.12559573               -0.44269106                0.10170354                2.00405862                0.08996886                0.10344797
               4.94288067                5.97242177               76.09495995                0.01000001               -0.16652238               -0.36696316                0.10999878                2.39170063                0.09367007                0.10586694
               5.94089124                5.98133366               76.09912200                0.01000004               -0.23354829               -0.23486140                0.11507116                2.58512579                0.09102469                0.12099287
               6.93820971                5.98959760               76.10315010                0.01000000               -0.25558081               -0.14081300                0.11860787                2.54327447                0.07770007                0.15104261
               7.93577963                5.99422343               76.10696971                0.01000000               -0.17738660               -0.16148797                0.12188385                2.22058055                0.05298030                0.19653256
               8.93466198                5.99121380               76.11052917                0.01000001               -0.05657453               -0.28794444                0.12512423                1.38167832                0.02323963                0.24272330
               9.93464814                5.97648185               76.11390468                0.01000000               -0.00138401               -0.20093630                0.12852538                0.68074092                0.00443169                0.27824477
              -0.03350276                6.97188996               76.07676005                0.96093514               -0.03253368               -0.31657692                0.10178944                0.41527924               -0.00834157               -0.11296390
               0.96617190                6.96317299               76.08134915                0.01000000               -0.28032514               -0.15049032                0.11028255                0.65335103               -0.03655236               -0.03620341
               1.96089074                6.95867560               76.08535848                0.01000001               -0.34977540               -0.35543482                0.11047647                1.05543675                0.00032494                0.03311007
               2.95917640                6.95688453               76.08916991                0.01000000               -0.11283273               -0.50062234                0.10429984                1.32204024                0.03724999                0.04681969
               3.95863408                6.95991383               76.09346992                0.01000001               -0.02470083               -0.70511154                0.10880955                1.91920512                0.08367166                0.04690223
               4.95868238                6.96800653               76.09799850                0.01000001               -0.03409062               -0.49545018                0.11309348                2.42577618                0.11151872                0.06240144
               5.95795227                6.97860852               76.10263505                0.01000000               -0.09365278               -0.26971177                0.11568708                2.53454337                0.12751860                0.09317762
               6.95680932                6.98791748               76.10727534                0.01000002               -0.10289218               -0.16896612                0.11823410                2.37412594                0.12741378                0.13591411
               7.95589443                6.99284762               76.11174663                0.01000001               -0.08981173               -0.08687477                0.12205516                1.95352720                0.10422551                0.20417278
               8.95501309                6.99012850               76.11588758                0.01000000               -0.11359590                0.06806631                0.12865490                1.13611759                0.05636473                0.26519426
               9.95362251                6.97727086               76.11951358                0.01000003               -0.13905794                0.27330186                0.13887546                0.51322695                0.02240975                0.30006753
              -0.02478065                7.97156933               76.07806792                0.99999999               -0.03222993               -0.03245557                0.10597947                0.00123387               -0.01069224                0.01941471
               0.97489705                7.96286399               76.08235286                1.00000000               -0.03242604               -0.03186945                0.11019185                0.00309818               -0.01841367               -0.02253314
               1.97457083                7.95421543               76.08643318                0.01000000               -0.21509429               -0.24022428                0.11013826                0.55237580               -0.00834493               -0.02975629
               2.97059517                7.95157387               76.09086400                0.01000006               -0.15435202               -0.58300058                0.11649264                1.03093500                0.04774872               -0.03432993
               3.97148379                7.95115043               76.09547080                0.01000000                0.10531691               -1.16660429                0.11974476                1.74090899                0.09778980               -0.05465763
               4.97270151                7.96251277               76.10047682                0.01000000                0.00936852               -0.45319197                0.11799317                2.35097591                0.14696121                0.02050904
               5.97167116                7.97593943               76.10577267                0.01000000               -0.06241934               -0.21525138                0.11895913                2.18939360                0.17938119                0.05772832
               6.97145312                7.98621828               76.11107077                0.01000001                0.04839917               -0.18014943                0.12072972                1.92542855                0.20036659                0.10437301
               7.97263915                7.99248593               76.11648987                0.01000005                0.07539841               -0.10190754                0.12485275                1.69957877                0.18723733                0.18539813
               8.97296109                7.99257513               76.12135801                0.01000001               -0.10055965                0.26391743                0.13547140                1.27304586                0.11716491                0.37576835
               9.97062795                7.98194788               76.12542934                0.01000002               -0.23331350                0.81205563                0.15264044                0.78320286                0.06799777                0.34331680
              -0.01606739                8.97124085               76.07940615                0.99999999               -0.03448316               -0.03375751                0.11214511                0.00082938               -0.00051620                0.01818427
               0.98358777                8.96253560               76.08359217                0.99999999               -0.03521142               -0.03388264                0.11523368                0.00051802               -0.00186311               -0.00500062
               1.98322838                8.95387111               76.08775720                0.99999998               -0.03638385               -0.03544045                0.11959811                0.00018253               -0.00463621               -0.01168838
               2.98286010                8.94522452               76.09190261                0.99999995               -0.03575067               -0.33523490                0.12023507                0.18040307               -0.00184886               -0.03075578
               3.98251336                8.93658174               76.09612425                0.01000000               -0.09735991               -0.74460141                0.11686432                1.66845247                0.11970882               -0.06103524
               4.98091290                8.95894269               76.10261571                0.01000002               -0.22393657               -0.17921039                0.12616427                2.00633240                0.23994255               -0.00451274
               5.97803463                8.97430349               76.10853102                0.01000009               -0.10707550               -0.12988412                0.12518962                1.34022477                0.23511891                0.02228721
               6.97877139                8.98431449               76.11442841                0.01000000                0.27472596               -0.21612091                0.12765755                1.07757146                0.26511444                0.05384809
               7.98352915                8.99080947               76.12057549                0.01000001                0.61203333               -0.28549097                0.13319579                1.08594326                0.37760490                0.11761343
               8.99101206                8.99540685               76.12843287                1.00000000                0.35059549                0.11867970                0.14010461                1.13801012                0.23082267                0.24503705
               9.99054106                8.99351198               76.13152484                1.00000000               -0.04709940                0.54904612                0.17750495                0.90156789               -0.00743385                0.18123523
              -0.00735356                9.97089418               76.08073166                1.00000000               -0.03692935               -0.03466665                0.11990246                0.00059926                0.01532031                0.01606484
               0.99227715                9.96218634               76.08491442                1.00000000               -0.03804398               -0.03492613                0.12331978               -0.00044055                0.01769516               -0.00009572
               1.99188556                9.95350662               76.08916862                0.99999998               -0.03922729               -0.03644955                0.12690501               -0.00013964                0.02385734               -0.00579751
               2.99149261                9.94486917               76.09352423                0.99999999               -0.03754478               -0.03553481                0.12541203                0.00083983                0.02484929                0.00316780
               3.99113467                9.93625840               76.09781500                0.04595878               -0.81930997               -0.03233404                0.12005075                1.56510004                0.15314882               -0.00063281
               4.97510641                9.95892856               76.10465990                0.01000000               -0.90154047               -0.00141309                0.13440656                1.27351794                0.29669394               -0.01984240
               5.97310386                9.97334174               76.11104153                0.01000000                0.06960796               -0.09617449                0.13572809                0.65528778                0.28180658                0.00419960
               6.97649857                9.98189586               76.11722270                0.01000000                0.50808949               -0.24186288                0.14088913                0.44443608                0.30417967                0.02178919
               7.98326565                9.98677611               76.12383695                0.01000002                0.82601111               -0.40333600                0.14927406                0.62629300                0.35021670                0.07459139
               8.99301879                9.99494872               76.13075424                1.00000000                0.45917058               -0.04581268                0.16949717                0.50830784                0.19832797                0.00704359
               9.99244906                9.99292881               76.13384634                1.00000000               -0.05697262               -0.05831706                0.20693043               -0.01119191                0.00714491               -0.00721778
              -0.11086211               -0.02501160               77.06023561                1.00000000               -0.02405155               -0.02316396                0.08649750               -0.00158130               -0.00152001                0.00044472
               0.88889738               -0.02999063               77.06341456                1.00000000               -0.02292839               -0.02533331                0.08043526               -0.00219164                0.00023703               -0.00300669
               1.88867933               -0.03493927               77.06660500                0.01407239                0.12355588               -0.02114413                0.07733282                0.22917723                0.01286783                0.00018734
               2.89136850               -0.03525799               77.07000438                0.01000001                0.17053406                0.00987911                0.20127666                0.27034757               -0.08861017               -0.19831486
               3.89209001               -0.02993902               77.07358945                0.01000006                0.00619116                0.00292660                0.06627153                0.48930008                0.05411948               -0.00983735
               4.89149232               -0.02228347               77.07790487                0.01000003               -0.29830908               -0.00987188                0.01058906                0.50469121               -0.24751333                0.22688248
               5.88612383               -0.01100409               77.07842599                0.41825995               -0.26601533               -0.04757051                0.06394912                0.43630532               -0.16733459                0.00226961
               6.88617201               -0.00858302               77.07917893                1.00000000               -0.01391213               -0.04425939                0.13213403                0.00026494               -0.10583349               -0.01214076
               7.88584558               -0.00618288               77.08176445                0.99999999               -0.03066663               -0.03467408                0.10901344                0.00022408               -0.01133972               -0.00383781
               8.88555868               -0.00374086               77.08442197                1.00000000               -0.02811858               -0.03121309                0.09865716               -0.00016367               -0.00550437                0.00013901
               9.88528321               -0.00129493               77.08713357                1.00000000               -0.02754685               -0.02799534                0.08960761               -0.00296040               -0.00298872               -0.00159832
              -0.10589889                0.97475676               77.06236224                1.00000000               -0.02618137               -0.02229056                0.08785941                0.00075862               -0.00353042                0.00791037
               0.89383930                0.96975604               77.06551751                0.01000000               -0.02481648               -0.02662633                0.07963513                0.00383401               -0.00244169               -0.00540794
               1.89360478                0.96484929               77.06870776                0.01000000               -0.11337232                0.04219989                0.06718965                0.21612046                0.02865966                0.01416625
               2.89157185                0.96484080               77.07249073                0.01000000               -0.15545149                0.06261949                0.02831604                0.50875446                0.05938975               -0.18884343
               3.89049575                0.97009024               77.07557269                0.01000000               -0.22500416                0.01827206                0.06487278                0.69833740               -0.27427293                0.10526221
               4.88707177                0.97761781               77.07973329                0.01000000               -0.34295484               -0.01957247                0.17737793                0.84912225               -0.13641037                0.23119170
               5.88363665                0.98852020               77.08253848                0.01000001               -0.16538544               -0.25149562                0.08699479                0.70117848               -0.10291482               -0.05384297
               6.88376406                0.99097438               77.08277883                0.66554752               -0.01049539               -0.04066992                0.13656109                0.00631108               -0.13154633               -0.03097133
               7.88342675                0.99347038               77.08543803                1.00000000               -0.03254947               -0.03501759                0.11555670                0.00698760               -0.00459734               -0.00788215
               8.88311307                0.99594700               77.08816433                0.99999999               -0.03095355               -0.03215586                0.10747461                0.00172911                0.00055181                0.00155411
               9.88280767                0.99842512               77.09089198                0.99999999               -0.03053936               -0.02947221                0.09824865               -0.00142693                0.00126197                0.00058725
              -0.10084549                1.97454259               77.06459178                0.45751448               -0.02729825               -0.01012245                0.09275939                0.02386013               -0.00158311                0.08073804
               0.89888153                1.96947684               77.06762250                0.01000000               -0.06187683               -0.03194152                0.08540030                0.09679437                0.02182982                0.00106072
               1.89791697                1.96590473               77.07106718                0.01000001               -0.12894473                0.00821437                0.05548329                0.42523371                0.08358150                0.00332304
               2.89630263                1.96599440               77.07492755                0.01000000               -0.23186124                0.05901654                0.06830837                0.85998062                0.02679678                0.03738779
               3.89327975                1.97042642               77.07857284                0.01000000               -0.31289141               -0.00208061                0.09730662                1.12357254                0.01813530                0.13362456
               4.89004480                1.97732508               77.08205816                0.01000001               -0.32444652               -0.08163047                0.10697145                1.23148959                0.01767046                0.07048696
               5.88679082                1.98396600               77.08512980                0.01000001               -0.43483723               -0.29137783                0.12726159                1.15569211               -0.09233407               -0.02199327
               6.88134806                1.99060358               77.08603849                0.01000001               -0.28890518               -0.14946614                0.08765615                0.65714669               -0.07873816                0.04040953
               7.88101271                1.99311677               77.08902237                0.28027956               -0.03547683               -0.03092333                0.12102425               -0.00567803                0.02521543               -0.06515027
               8.88063852                1.99561602               77.09194294                0.99999997               -0.03571316               -0.03476641                0.11902151                0.00108985                0.01431482                0.01441857
               9.88029845                1.99811562               77.09470733                0.99999998               -0.03400723               -0.03257830                0.10696350               -0.00219630                0.00758796                0.00931778
              -0.09529020                2.97455431               77.06799284                0.12256579               -0.02967582                0.16628487                0.09269971                0.36267294               -0.00189597                0.25168759
               0.90441304                2.96911721               77.07002915                0.01000000                0.04410502               -0.27514683                0.07027826                0.47940181                0.09942879               -0.00740445
               1.90559190                2.96501358               77.07385543                0.01000000               -0.00816339               -0.13493356                0.07619276                0.83276515                0.15356264                0.05931190
               2.90424977                2.96602113               77.07788380                0.01000000               -0.19776884               -0.05872497                0.08728938                1.21535360                0.12469821                0.09540556
               3.90163652                2.97004863               77.08180242                0.01000001               -0.30438962               -0.08166489                0.10968648                1.48315246                0.08494193                0.11377910
               4.89816198                2.97598520               77.08547783                0.01000000               -0.40822656               -0.12613555                0.12703879                1.61100387                0.04634042                0.10192844
               5.89347199                2.98269265               77.08853466                0.01000000               -0.52028801               -0.11644321                0.13055491                1.51855638               -0.00746620                0.07127136
               6.88775622                2.98798506               77.09093557                0.01000000               -0.75856229               -0.11859472                0.12282410                1.38171536               -0.13682990                0.13202871
               7.87830075                2.99285191               77.09155610                0.01000118               -0.48101072               -0.04573202                0.05660022                0.85091841               -0.04695040                0.09643217
               8.87813601                2.99525168               77.09595705                0.84871923               -0.02681053               -0.03807304                0.13467901               -0.00498137                0.08889012                0.03201584
               9.87776454                2.99777355               77.09866084                0.99999998               -0.03714707               -0.03503317                0.11538781               -0.00126292                0.00528387                0.01955380
              -0.08271782                3.97786829               77.07257410                0.09474751                0.07281209               -0.05344207               -0.02187785                0.29787435               -0.05429488                0.10652294
               0.91801030                3.96397391               77.07330156                0.01000002                0.01930892               -0.41935984                0.13202526                0.99856535                0.15612178                0.19070524
               1.91766835                3.96320606               77.07727084                0.01000000               -0.12178218               -0.17009217                0.10439529                1.36495248                0.20998406                0.07481272
               2.91557465                3.96481990               77.08119756                0.01000001               -0.23448110               -0.16039489                0.10659546                1.50903299                0.14809286                0.11863454
               3.91297873                3.96879312               77.08523845                0.01000000               -0.29768926               -0.16717719                0.11245376                1.74325839                0.11284927                0.12029663
               4.90962087                3.97480237               77.08906767                0.01000000               -0.39083246               -0.14861325                0.12195889                1.93082840                0.07665027                0.10784968
               5.90516208                3.98163713               77.09252210                0.01000000               -0.53988818               -0.10235569                0.12720590                2.01896155                0.03107024                0.10841968
               6.89882310                3.98823169               77.09539982                0.01000001               -0.71988074               -0.01100345                0.12427114                1.93245545               -0.00230590                0.13182469
               7.89076447                3.99220213               77.09814106                0.01000007               -1.16029232                0.00017000                0.12660829                1.92165357               -0.04243535                0.23803710
               8.87561726                3.99485456               77.10008654                0.01000000               -0.77675101               -0.13842893                0.13683801                1.68394527               -0.03383068                0.14062221
               9.87522945                3.99741496               77.10268305                0.01000000               -0.03878099               -0.98921723                0.11958716                1.73770991               -0.00154080                0.15088990
              -0.06154396                4.97348547               77.07474249                0.24445807                0.05905333               -0.30250360               -0.14322063                0.42542488                0.50644506               -0.26640224
               0.93904657                4.96073001               77.08075798                0.01000000               -0.32055416               -0.14209406                0.17055713                1.07097097                0.23966969                0.09661752
               1.93204496                4.96161174               77.08051458                0.01000001               -0.51016017               -0.16190689                0.14427854                1.48911022                0.03428393                0.09603388
               2.92884337                4.96281323               77.08458803                0.01000000               -0.27628667               -0.25019059                0.11352919                1.59939115                0.14692501                0.12542190
               3.92651922                4.96670509               77.08864445                0.01000000               -0.24544166               -0.27566000                0.11305914                1.91271670                0.11244549                0.11476472
               4.92393454                4.97301293               77.09267232                0.01000000               -0.30486610               -0.23241706                0.11769889                2.19883990                0.09152676                0.10551860
               5.92042190                4.98064553               77.09648125                0.01000000               -0.40471014               -0.14365269                0.12151607                2.36422453                0.06784833                0.10871066
               6.91584034                4.98776499               77.10002731                0.01000001               -0.51554788               -0.07349480                0.12436725                2.42122549                0.03982604                0.13686424
               7.91011095                4.99285531               77.10323208                0.01000000               -0.46191297               -0.05026380                0.12735242                2.32735828                0.01539850                0.16786483
               8.90660208                4.99248310               77.10626082                0.01000002               -0.13565096               -0.33662854                0.12482897                2.04613075                0.00125574                0.23822282
               9.90739793                4.97798920               77.10925391                0.01000000                0.07958500               -1.19723852                0.12252716                1.35403843               -0.01119773                0.29280803
              -0.04869841                5.97181821               77.07700742                0.39831036                0.00018597               -0.13550742               -0.02238614                0.09678152                0.37633840               -0.18904339
               0.95130345                5.96113203               77.08251297                0.01000001               -0.29671272                0.04903633                0.10636833                0.52786575                0.21907770               -0.22390236
               1.94536734                5.95996792               77.08384442                0.01000001               -0.44171632               -0.21908497                0.13250648                1.18378894                0.00566875                0.12564254
               2.94246912                5.95981609               77.08770307                0.01000000               -0.21669848               -0.37900222                0.11223817                1.50235685                0.09234245                0.10059565
               3.94103337                5.96327992               77.09184262                0.01000000               -0.14059515               -0.43610469                0.11186495                1.94497878                0.09633076                0.09101084
               4.93965722                5.97015402               77.09608685                0.01000000               -0.16694263               -0.36072175                0.11494681                2.33755512                0.09774442                0.08650399
               5.93769451                5.97876408               77.10028862                0.01000001               -0.23096921               -0.22638647                0.11787574                2.53684413                0.09109223                0.09717455
               6.93503784                5.98676179               77.10434744                0.01000000               -0.25504928               -0.12796833                0.12042604                2.50323153                0.07554296                0.12575539
               7.93259353                5.99119685               77.10819432                0.01000002               -0.18159291               -0.14194941                0.12244484                2.19074183                0.05087343                0.17301808
               8.93140598                5.98812199               77.11178936                0.01000001               -0.06477628               -0.26074831                0.12521369                1.36499809                0.02231299                0.22741679
               9.93129800                5.97347019               77.11519347                0.01000000               -0.01079757               -0.17708821                0.12767609                0.67312678                0.00434407                0.27596471
              -0.03823595                6.97077532               77.07776375                0.99930777               -0.03098633               -0.06942960                0.09970137                0.06896832               -0.01170081               -0.00222983
               0.96145418                6.96171074               77.08241075                0.01000001               -0.23636846                0.01707161                0.09723210                0.28336588               -0.03764560               -0.10773934
               1.95703668                6.95723004               77.08644425                0.01000001               -0.29378367               -0.36376641                0.10172929                0.91901205               -0.00207825                0.02188679
               2.95557851                6.95523319               77.09025582                0.01000000               -0.09779062               -0.49783520                0.11022915                1.24219787                0.03905115                0.04253119
               3.95508086                6.95798299               77.09458323                0.01000001               -0.01885126               -0.70019590                0.11305735                1.85881973                0.08542900                0.04204497
               4.95520148                6.96579850               77.09914068                0.01000001               -0.02649218               -0.49024098                0.11500175                2.37301383                0.10891686                0.04913971
               5.95455102                6.97611780               77.10379697                0.01000000               -0.08646449               -0.26410087                0.11660092                2.49098001                0.12113532                0.07448893
               6.95347219                6.98520563               77.10846015                0.01000002               -0.09927179               -0.15916768                0.11859213                2.34372743                0.11899335                0.11405548
               7.95256558                6.99001632               77.11296718                0.01000001               -0.09217486               -0.06970299                0.12205909                1.93652001                0.09621732                0.18255577
               8.95162870                6.98726813               77.11716946                0.01000000               -0.12007659                0.09061427                0.12812164                1.12865355                0.05177411                0.24995403
               9.95016405                6.97444744               77.12089441                0.01000003               -0.14646438                0.29070881                0.13772060                0.50951333                0.02119902                0.29888823
              -0.02918988                7.97042962               77.07910867                0.99999999               -0.02940710               -0.03577694                0.10317828                0.00258558               -0.00707212                0.02012151
               0.97051605                7.96147346               77.08342808                0.99999999               -0.02924992               -0.02671438                0.10355830                0.00960018               -0.01652829               -0.02686430
               1.97022513                7.95269259               77.08750584                0.01000000               -0.19779649               -0.24377039                0.10470159                0.51865470               -0.00398611               -0.03169503
               2.96656012                7.94985938               77.09202008                0.01000003               -0.12903367               -0.58264227                0.11304168                0.98390214                0.05399148               -0.03646599
               3.96764445                7.94927600               77.09667272                0.01000007                0.12112822               -1.15740378                0.11747373                1.68725889                0.09439565               -0.06248880
               4.96898269                7.96034920               77.10164819                0.01000000                0.02312668               -0.45222496                0.11713409                2.30228923                0.13779942                0.01349442
               5.96810699                7.97348206               77.10696031                0.01000002               -0.04844108               -0.21505322                0.11847188                2.15441430                0.16851089                0.04455202
               6.96801387                7.98357844               77.11227650                0.01000001                0.05772183               -0.17629675                0.12054551                1.90744828                0.18645270                0.08754378
               7.96926142                7.98980279               77.11773719                0.01000009                0.07670323               -0.09114222                0.12480378                1.69762599                0.17357385                0.16664410
               8.96954793                7.98993427               77.12271060                0.01000001               -0.10658857                0.28719520                0.13518437                1.27561466                0.10832933                0.35710216
               9.96712965                7.97928437               77.12694974                0.01000002               -0.24182797                0.82604590                0.15160023                0.78614363                0.06393462                0.34467737
              -0.02027192                8.97005978               77.08053333                0.99999999               -0.03448678               -0.03689024                0.11334615                0.00105574                0.00022724                0.01749040
               0.97938321                8.96117645               77.08474104                0.99999999               -0.03521183               -0.03227278                0.11424472               -0.00014135                0.00019697               -0.00463727
               1.97902385                8.95235463               77.08893882                0.99920074               -0.03550364               -0.03441104                0.11587238               -0.00017947               -0.00502073               -0.00886913
               2.97867314                8.94358034               77.09302740                0.95936750               -0.03438126               -0.33114626                0.11519989                0.16709517               -0.00664606               -0.03232411
               3.97833622                8.93483492               77.09714429                0.01000000               -0.08159653               -0.73840418                0.11128446                1.62960429                0.12436068               -0.06545459
               4.97704121                8.95675400               77.10386316                0.01000002               -0.19630728               -0.18491220                0.12177725                1.96983445                0.23959022               -0.00731086
               5.97441008                8.97181674               77.10977689                0.01000001               -0.08703906               -0.13384068                0.12394674                1.31993557                0.22230638                0.01539327
               6.97530043                8.98167969               77.11570153                0.01000003                0.28760965               -0.21707026                0.12715210                1.07064046                0.24968701                0.04453763
               7.98016227                8.98819348               77.12190792                0.01000001                0.61794914               -0.28210071                0.13341899                1.09693859                0.35677287                0.10644528
               8.98765941                8.99301204               77.12984009                1.00000000                0.35122336                0.13081979                0.14137177                1.15185238                0.21641372                0.23323194
               9.98718674                8.99096836               77.13329677                1.00000000               -0.04726774                0.55521800                0.17687931                0.90123378               -0.00749417                0.17924218
              -0.01140210                9.96969182               77.08194820                1.00000000               -0.03795233               -0.03679654                0.12323544                0.00060071                0.01432254                0.01495549
               0.98821838                9.96082800               77.08615250                0.99999999               -0.03901304               -0.03484463                0.12440974               -0.00085575                0.01773640                0.00024675
               1.98781764                9.95200437               77.09043711                0.99999994               -0.03983218               -0.03502560                0.12511524               -0.00019765                0.02068990               -0.00452230
               2.98742174                9.94323646               77.09469547                0.99999999               -0.03773798               -0.03438850                0.12011414                0.00003677                0.01537686               -0.00002325
               3.98706288                9.93450792               77.09886693                0.01389072               -0.80120903               -0.03269989                0.11490710                1.54339127                0.15676275               -0.00592675
               4.97139756                9.95665096               77.10597782                0.01000000               -0.87414391               -0.01030377                0.12842479                1.25050079                0.30173309               -0.01999922
               5.96958000                9.97080525               77.11239157                0.01000001                0.08261902               -0.10114923                0.13388322                0.64629641                0.27396373                0.00141495
               6.97304994                9.97923703               77.11862680                0.01000000                0.51439221               -0.24426601                0.14004663                0.44272704                0.29311513                0.01849801
               7.97986785                9.98416078               77.12533018                0.01000000                0.83800805               -0.40327020                0.14941513                0.63623989                0.33873238                0.07088883
               8.98981010                9.99255067               77.13245253                1.00000000                0.46869159               -0.04613680                0.17013986                0.52646597                0.19033720                0.00705839
               9.98924168                9.99038873               77.13590919                1.00000000               -0.05684166               -0.05796317                0.20564085               -0.01069960                0.00717059               -0.00715618
              -0.11400079               -0.02717033               78.06111473                1.00000000               -0.02190100               -0.02058392                0.08996132               -0.00214485                0.00410337               -0.00519849
               0.88578020               -0.03212105               78.06423129                1.00000000               -0.02061481               -0.02894195                0.08185783               -0.00244302                0.01002773               -0.00401301
               1.88558691               -0.03696888               78.06740139                0.22876783                0.03421119               -0.01992194                0.07959240                0.06068853                0.14094911                0.00500140
               2.88646442               -0.04056051               78.07294820                0.07661374                0.19658062               -0.01009924                0.12304773                0.57202214                0.00425245               -0.31219847
               3.88951853               -0.03214164               78.07415347                0.08662666               -0.07335315                0.14093871                0.05619763                0.17042040               -0.12226434               -0.01112084
               4.88499736               -0.01988747               78.07652346                0.21528729               -0.28293921                0.02274971               -0.04307416                0.37824320               -0.13023939                0.38828388
               5.88385974               -0.01527828               78.07911880                0.66933386               -0.07265063               -0.02567801                0.06785050                0.09341037               -0.01328666               -0.00570906
               6.88354435               -0.01237074               78.08051868                1.00000000               -0.03344895               -0.04279502                0.12713082                0.01764951               -0.06054947               -0.02105696
               7.88319076               -0.00992382               78.08284147                0.99999999               -0.03328505               -0.03352628                0.10698400               -0.00196685               -0.01202291               -0.00368836
               8.88287865               -0.00752121               78.08540782                0.99999998               -0.02985827               -0.03162300                0.09926103               -0.00238546               -0.00297232                0.00078157
               9.88259360               -0.00511596               78.08803266                1.00000000               -0.02850493               -0.02910369                0.09164516               -0.00371596               -0.00198215               -0.00247848
              -0.10907152                0.97262383               78.06323432                1.00000000               -0.02734343               -0.01477184                0.08755465                0.00315504               -0.00776167                0.00301374
               0.89065505                0.96758953               78.06630082                0.01000000               -0.02574754               -0.03559666                0.07809115                0.01627814               -0.01162702               -0.00281436
               1.89041353                0.96283190               78.06934093                0.01000000               -0.04420135                0.01117067                0.06170891                0.07169750               -0.03197305                0.02164177
               2.88977102                0.95933849               78.07218552                0.01000000               -0.47636623                0.21970940                0.01748108                0.61840606               -0.02401347               -0.09936600
               3.88088621                0.96926775               78.07635563                0.01000000               -0.47114530                0.05306832                0.05358099                1.07605079               -0.03876773                0.07254012
               4.88034811                0.98034003               78.08192450                0.01000000                0.00746389               -0.24489867                0.07933852                0.86280746               -0.09438186                0.20892869
               5.88103548                0.98446494               78.08339192                0.01000001                0.03477493               -0.20233281                0.06470336                0.34764167               -0.14250196               -0.05145794
               6.88104361                0.98720130               78.08420344                0.48004903               -0.01445796               -0.03377558                0.13931027                0.01961576               -0.10499842               -0.07116246
               7.88074633                0.98974091               78.08658991                1.00000000               -0.02963763               -0.03494817                0.11552897                0.00695931               -0.00896403               -0.00621514
               8.88045086                0.99216256               78.08923712                0.99999999               -0.02975672               -0.03286490                0.10743076               -0.00096797                0.00383614                0.00411301
               9.88015119                0.99459300               78.09187338                1.00000000               -0.02996698               -0.03074390                0.09954437               -0.00253205                0.00330404               -0.00120903
              -0.10386909                1.97253424               78.06547261                0.54867561               -0.02332135                0.04007671                0.08259096                0.06564533               -0.00488276                0.06743756
               0.89589770                1.96716702               78.06846589                0.01000000               -0.04295057               -0.09687192                0.08412088                0.14718638                0.00489825               -0.00139744
               1.89527190                1.96325453               78.07155977                0.01000001               -0.17505045               -0.00155994                0.02991124                0.46634103                0.02288871                0.05290834
               2.89239669                1.96383368               78.07554744                0.01000000               -0.26169479                0.22888813                0.05300238                0.86762959                0.06599997                0.12957908
               3.89003801                1.96891973               78.07963783                0.01000000               -0.26701843               -0.07489309                0.13421566                1.45442608                0.01983730                0.12288844
               4.88705632                1.97521456               78.08321670                0.01000001               -0.30433524               -0.34843097                0.14709129                1.33248366                0.00783499               -0.00858104
               5.88395130                1.98067506               78.08633507                0.01000001               -0.41978173               -0.24470921                0.11171204                1.07093166               -0.11796813               -0.02130613
               6.87866069                1.98695374               78.08674119                0.01000000               -0.27913048               -0.13275519                0.05616603                0.63015623               -0.07467999                0.04423072
               7.87836869                1.98937721               78.09024762                0.05249099               -0.03267440               -0.02298255                0.12571171               -0.02898554                0.06137864               -0.10762695
               8.87800720                1.99182149               78.09313353                1.00000000               -0.03433074               -0.03516934                0.11730675                0.00041056                0.01964718                0.01935200
               9.87768208                1.99426916               78.09576553                1.00000000               -0.03251226               -0.03353531                0.10593043               -0.00256957                0.00823362                0.00565814
              -0.09702418                2.97342537               78.06867167                0.37937777               -0.00973415                0.14969790                0.03785487                0.20692912               -0.00402830                0.16760788
               0.90287848                2.96565209               78.07084972                0.01000000                0.00489362               -0.27412299                0.09361666                0.49176770                0.09805239                0.01232661
               1.90307370                2.96280070               78.07469069                0.01000000               -0.07100349               -0.10979334                0.09145655                0.91063162                0.11241131                0.14756855
               2.90145841                2.96391626               78.07882600                0.01000000               -0.22399263               -0.05823384                0.10283184                1.27173593                0.07627071                0.13300864
               3.89859384                2.96776989               78.08300188                0.01000000               -0.31079781               -0.12112260                0.11756661                1.47654471                0.06418384                0.10424357
               4.89524246                2.97337141               78.08681269                0.01000000               -0.39394546               -0.15340693                0.12863960                1.57393837                0.03663184                0.07104276
               5.89071493                2.97957075               78.08985910                0.01000000               -0.51489346               -0.10366598                0.12750636                1.47804136                0.00010658                0.04785195
               6.88494459                2.98454620               78.09224756                0.01000000               -0.77080353               -0.10413098                0.15269527                1.35506112               -0.13156386                0.13704029
               7.87529886                2.98928126               78.09197890                0.01000001               -0.46887310               -0.03676833                0.07826463                0.83103164               -0.00279832                0.08389653
               8.87556712                2.99145918               78.09729043                0.89262948               -0.00471986               -0.03780568                0.12963119               -0.01293126                0.14088863                0.03047639
               9.87520447                2.99392230               78.09978523                0.99999997               -0.03626584               -0.03518805                0.11154104               -0.00129284                0.00246419                0.01285184
              -0.08418396                3.97552819               78.07209252                0.36673588                0.05416803                0.00302815               -0.03164951                0.08883461                0.03118101                0.05161198
               0.91635772                3.96168456               78.07486318                0.01000000               -0.02978363               -0.29659381                0.12157326                0.78199938                0.06575779                0.21448277
               1.91522037                3.96105866               78.07851983                0.01000000               -0.17477529               -0.17008862                0.11885061                1.36351829                0.08580928                0.19793121
               2.91286222                3.96266900               78.08239419                0.01000000               -0.25533124               -0.15663641                0.11950479                1.50221016                0.10190483                0.14027432
               3.91011375                3.96649728               78.08643183                0.01000000               -0.30639970               -0.16555618                0.12240405                1.72182828                0.09837010                0.10056687
               4.90673422                3.97214642               78.09032699                0.01000000               -0.38882039               -0.14672144                0.12461595                1.88925559                0.07796515                0.07213039
               5.90233734                3.97860174               78.09383544                0.01000000               -0.53414116               -0.09286583                0.13014515                1.97186653                0.04145014                0.07149440
               6.89605140                3.98487112               78.09668590                0.01000000               -0.71304944               -0.00114019                0.13015555                1.89874055                0.01928577                0.09444026
               7.88807635                3.98864185               78.09945595                0.01000002               -1.14719297                0.00500802                0.14048960                1.90344335               -0.01670382                0.24273057
               8.87310754                3.99106538               78.10140693                0.01000000               -0.76731853               -0.12550770                0.13001830                1.64988292               -0.02404108                0.13042227
               9.87272998                3.99356540               78.10383761                0.01740311               -0.03775624               -0.96434809                0.11465117                1.70646160                0.00449590                0.14519679
              -0.06756021                4.97348593               78.07506813                0.49913311                0.05482148               -0.22147226                0.04595357                0.13240173               -0.03427186                0.16961460
               0.93298800                4.95972022               78.07993598                0.01000000               -0.15400817               -0.09707882               -0.04511058                0.78577509               -0.16019998                0.21093037
               1.92935962                4.95939893               78.08253364                0.01000001               -0.34620004               -0.15756787                0.13829869                1.39699226               -0.04896686                0.14354400
               2.92606400                4.96078353               78.08580631                0.01000000               -0.29033184               -0.23692813                0.12433647                1.57194287                0.05975824                0.11889492
               3.92355299                4.96445877               78.08985625                0.01000000               -0.25704485               -0.26815901                0.12031494                1.86521165                0.09733893                0.09545358
               4.92092310                4.97043698               78.09388434                0.01000000               -0.30627119               -0.22314642                0.12076607                2.14550065                0.08875406                0.07650938
               5.91742756                4.97771344               78.09771918                0.01000007               -0.40219048               -0.13201562                0.12236885                2.31007889                0.07139172                0.07444849
               6.91287929                4.98452340               78.10129209                0.01000001               -0.51270442               -0.05956274                0.12615040                2.37157253                0.04552087                0.10331672
               7.90717347                4.98938142               78.10451833                0.01000000               -0.46190315               -0.03465809                0.12564330                2.28522242                0.01705690                0.13924483
               8.90364123                4.98894902               78.10750363                0.01000002               -0.14199071               -0.31059363                0.12272880                2.01277283                0.00350720                0.22157560
               9.90433366                4.97463533               78.11046122                0.01000002                0.06924293               -1.16023826                0.11898051                1.32847255               -0.00698084                0.29343390
              -0.05400450                5.97109875               78.07766279                0.70975441                0.01647266               -0.18709075                0.06441916                0.09089468               -0.00575693                0.05737218
               0.94616023                5.95974298               78.08238862                0.01000001               -0.19492997                0.01914332               -0.00833140                0.52795210               -0.09235996                0.01984940
               1.94209690                5.95790731               78.08539699                0.01000001               -0.34594978               -0.19735058                0.11386794                1.09159682               -0.04923007                0.04433301
               2.93924124                5.95793044               78.08889779                0.01000000               -0.21661896               -0.36826890                0.11656644                1.44906182                0.03812755                0.08044858
               3.93776453                5.96113410               78.09301082                0.01000000               -0.14258354               -0.42670687                0.11609847                1.88289385                0.08255208                0.07053842
               4.93638956                5.96768349               78.09725889                0.01000000               -0.16560122               -0.35044989                0.11676932                2.27755991                0.09219912                0.06360522
               5.93445250                5.97596143               78.10147951                0.01000000               -0.22873495               -0.21434153                0.11829844                2.48121599                0.08752863                0.07074312
               6.93181487                5.98367987               78.10555862                0.01000000               -0.25486638               -0.11269352                0.11983867                2.45634714                0.07162417                0.09812930
               7.92935517                5.98794869               78.10941861                0.01000002               -0.18528890               -0.12127752                0.12169607                2.15548156                0.04760149                0.14812726
               8.92810909                5.98485351               78.11303345                0.01000001               -0.07141844               -0.23713364                0.12407454                1.34460314                0.02044942                0.21195713
               9.92792680                5.97036063               78.11645820                0.01000000               -0.01822826               -0.15714895                0.12626459                0.66385878                0.00420146                0.27449706
              -0.04303079                6.96974412               78.07875408                0.99999999               -0.02307263               -0.09482850                0.09728753                0.05807613               -0.00998228                0.00197510
               0.95673849                6.96010308               78.08329379                0.01000001               -0.19825533                0.01267145                0.07657066                0.28584437               -0.02649404               -0.06114912
               1.95300411                6.95545191               78.08739307                0.01000001               -0.24600211               -0.34101747                0.08778923                0.85586389               -0.00230382               -0.02278170
               2.95181844                6.95341815               78.09137449                0.01000000               -0.07731503               -0.49287329                0.10770156                1.18697997                0.03420898                0.02130219
               3.95145781                6.95592463               78.09573107                0.01000000               -0.00857377               -0.68972539                0.11347175                1.79944477                0.07832225                0.02726836
               4.95164697                6.96342798               78.10029853                0.01000001               -0.02011499               -0.48116579                0.11526510                2.31411605                0.10136689                0.03268628
               5.95105551                6.97342661               78.10496707                0.01000000               -0.08139938               -0.25554403                0.11647313                2.44010573                0.11252883                0.05452658
               6.95001898                6.98226953               78.10964719                0.01000002               -0.09730200               -0.14760459                0.11823725                2.30598468                0.10981037                0.09201647
               7.94910947                6.98695587               78.11418781                0.01000001               -0.09488188               -0.05353040                0.12164180                1.91290879                0.08830183                0.16145860
               8.94812134                6.98420635               78.11845001                0.01000001               -0.12564420                0.10965143                0.12760600                1.11712566                0.04744203                0.23545600
               9.94659658                6.97149236               78.12226800                0.01000000               -0.15247617                0.30392164                0.13673806                0.50367812                0.01996668                0.29802399
              -0.03356091                7.96920218               78.08013149                1.00000000               -0.02697702               -0.04964943                0.10448971                0.00704877               -0.00397678                0.01098987
               0.96616932                7.95999641               78.08442402                1.00000000               -0.02699873               -0.01923231                0.09813357                0.01662563               -0.01147437               -0.02501906
               1.96589912                7.95108696               78.08852722                0.01000000               -0.18305998               -0.23447255                0.09953330                0.49570313                0.00555018               -0.03064578
               2.96250812                7.94807297               78.09312483                0.01000001               -0.10777641               -0.57577518                0.10839104                0.94779503                0.05946198               -0.04213513
               3.96374359                7.94733959               78.09782027                0.01000005                0.13308927               -1.14230972                0.11389178                1.63471100                0.09161707               -0.06899089
               4.96516991                7.95806018               78.10281950                0.01000000                0.03347429               -0.44805670                0.11658770                2.24680452                0.13012323                0.00211426
               5.96441307                7.97085055               78.10814211                0.01000002               -0.03823064               -0.21232588                0.11784479                2.11272418                0.15731719                0.03065108
               6.96440529                7.98072778               78.11348168                0.01000001                0.06317270               -0.17072901                0.12037084                1.88213229                0.17303665                0.07117960
               7.96567653                7.98687808               78.11898595                0.01000001                0.07549127               -0.08052437                0.12492310                1.68676672                0.16054440                0.14879885
               8.96591512                7.98704654               78.12406170                0.01000001               -0.11240863                0.30616066                0.13509214                1.26955612                0.10001319                0.33972959
               9.96342835                7.97643907               78.12846135                0.01000002               -0.24867640                0.83225098                0.15078132                0.78331485                0.06024171                0.34620544
              -0.02447828                8.96875113               78.08167307                0.99999998               -0.03355010               -0.04193141                0.11356787                0.00099174                0.00042613                0.01229014
               0.97518622                8.95971844               78.08587707                0.99999999               -0.03400562               -0.03140226                0.11260072               -0.00075063                0.00101915               -0.00396220
               1.97484161                8.95076246               78.09007465                0.99999998               -0.03322556               -0.03336780                0.11225917                0.00207445               -0.00164053               -0.00639495
               2.97452171                8.94190265               78.09420661                0.96545347               -0.03383961               -0.32702008                0.11796570                0.15890849               -0.00245908               -0.03130791
               3.97416482                8.93307843               78.09834994                0.01000000               -0.07248056               -0.73225069                0.12196075                1.59040933                0.12570428               -0.06420257
               4.97307210                8.95446685               78.10505126                0.01000002               -0.17612143               -0.18804628                0.11866567                1.92740890                0.23377513               -0.01311225
               5.97064239                8.96918009               78.11100996                0.01000001               -0.07190001               -0.13549333                0.12279171                1.29545887                0.21285304                0.00799861
               6.97163410                8.97885495               78.11697145                0.01000002                0.29418257               -0.21562495                0.12696440                1.05911305                0.23573212                0.03560671
               7.97652604                8.98534539               78.12324387                0.01000001                0.61586882               -0.27643534                0.13385120                1.10063282                0.33797576                0.09600954
               8.98395148                8.99032956               78.13126031                1.00000000                0.34758883                0.14092459                0.14265527                1.15616966                0.20334245                0.22246534
               9.98347782                8.98813737               78.13506243                1.00000000               -0.04736585                0.55608933                0.17625272                0.89332091               -0.00747649                0.17774011
              -0.01547570                9.96836355               78.08319637                1.00000000               -0.03813322               -0.03875769                0.12527718                0.00073973                0.01136394                0.01022108
               0.98414297                9.95936837               78.08740261                0.99999999               -0.03839546               -0.03500717                0.12491954               -0.00152249                0.01458273               -0.00019544
               1.98375640                9.95041960               78.09167092                0.99999999               -0.03863262               -0.03428630                0.12257802               -0.00031141                0.01773400               -0.00328361
               2.98337032                9.94153257               78.09592651                0.99999998               -0.03844120               -0.03700794                0.12311298               -0.00139025                0.01407889               -0.00007021
               3.98298757                9.93269458               78.10011314                0.01958933               -0.78769460               -0.03838573                0.12556473                1.52060948                0.15662275               -0.00411353
               4.96761643                9.95429925               78.10722840                0.01000000               -0.85267083               -0.01675990                0.12494120                1.22673819                0.30172476               -0.02104502
               5.96593415                9.96814068               78.11371919                0.01000001                0.09029151               -0.10394066                0.13187237                0.63497785                0.27023540               -0.00139237
               6.96942226                9.97641528               78.12002363                0.01000000                0.51402069               -0.24396686                0.13938544                0.43925026                0.28414157                0.01529945
               7.97621457                9.98134937               78.12682525                0.01000000                0.84121322               -0.39960152                0.14962106                0.64134028                0.32930993                0.06750333
               8.98624652                9.98986503               78.13415703                0.99999999                0.47322897               -0.04645335                0.17076423                0.54007888                0.18353984                0.00705591
               9.98567915                9.98756085               78.13795915                1.00000000               -0.05673751               -0.05765206                0.20436237               -0.01028441                0.00716202               -0.00716472
              -0.11701315               -0.02935475               79.06203484                1.00000000               -0.01755789               -0.01860934                0.09379125               -0.00291700                0.00772585               -0.00824933
               0.88281127               -0.03420995               79.06505172                1.00000000               -0.01027247               -0.03248954                0.08107398                0.00071060                0.01784083               -0.00266354
               1.88278140               -0.03871830               79.06819685                0.46561872                0.09451018               -0.01579465                0.06936684                0.14158966                0.09622710                0.00362972
               2.88470147               -0.03997660               79.07246533                0.37273653                0.16440278                0.02308417               -0.05023143                0.14516648                0.08705731                0.00426436
               3.88606945               -0.03456577               79.07471340                0.33877328               -0.03896356                0.06224580                0.02835642                0.12403157               -0.10391603               -0.05203139
               4.88392220               -0.02531988               79.07704339                0.49324203               -0.21032921                0.04230220                0.05686839                0.16762722                0.06997235               -0.03826594
               5.88186287               -0.01966451               79.07978300                0.92769229               -0.13419247               -0.00607177                0.06501223                0.11179153                0.01114905               -0.00842464
               6.88123835               -0.01637367               79.08172155                1.00000000               -0.05734420               -0.02977048                0.11097866                0.01832347               -0.03031535               -0.01307337
               7.88071599               -0.01375353               79.08390413                1.00000000               -0.04651548               -0.03065448                0.10731091               -0.00072804               -0.01412122               -0.00224088
               8.88030804               -0.01138382               79.08640719                0.99999999               -0.03610431               -0.03126155                0.10083510               -0.00379382               -0.00312453                0.00059000
               9.87999390               -0.00902595               79.08896648                1.00000000               -0.03141425               -0.03059895                0.09612478               -0.00348073               -0.00304155               -0.00415076
              -0.11218712                0.97045916               79.06411333                1.00000000               -0.03127291               -0.00956302                0.08922179                0.00477233               -0.00871569               -0.00448855
               0.88750015                0.96546515               79.06707934                0.01000000               -0.03661299               -0.04450265                0.07818492                0.03728299               -0.01794290                0.00549759
               1.88708062                0.96112375               79.06994194                0.01000000               -0.17116390                0.01657181                0.06349743                0.16504427               -0.04073570                0.00749099
               2.88407687                0.96025424               79.07284036                0.01000000               -0.35496057                0.09610518                0.08422367                0.48880186               -0.10249864                0.15859630
               3.87998141                0.96605669               79.07664431                0.01000000               -0.29645138                0.04018534                0.05599738                0.73933401                0.26197242                0.03707704
               4.87814785                0.97510314               79.08132006                0.01000000               -0.07368645               -0.12074262               -0.03209324                0.69000696                0.12198107               -0.06066569
               5.87850768                0.98027477               79.08383255                0.01000001                0.01591258               -0.16313990                0.03544903                0.36347894               -0.03799646               -0.02555029
               6.87846610                0.98332863               79.08556503                0.21184322               -0.01469479               -0.00911310                0.11527463                0.01843575               -0.05781068               -0.11532352
               7.87821378                0.98593992               79.08774861                0.99999999               -0.02798908               -0.03356141                0.11426791                0.00534498               -0.01278712               -0.00197510
               8.87790632                0.98830356               79.09031294                0.99999999               -0.03062801               -0.03332153                0.10747298               -0.00331791                0.00514266                0.00477817
               9.87760122                0.99066806               79.09288287                0.99999999               -0.03050913               -0.03285532                0.10276131               -0.00329018                0.00440095               -0.00396865
              -0.10692970                1.97045399               79.06624360                0.58038021               -0.01779691                0.04136988                0.07714557                0.06761335               -0.00224704                0.02066750
               0.89289233                1.96490000               79.06930491                0.01000000               -0.08885528               -0.12493555                0.08101643                0.20070339               -0.03369137                0.02741631
               1.89129320                1.96161314               79.07166540                0.01000001               -0.16738787               -0.00594321                0.06060746                0.49143688               -0.14655385                0.13200554
               2.88954458                1.96194550               79.07598760                0.01000000               -0.26429825                0.07901550                0.11551930                0.90059593               -0.36108782                0.16295546
               3.88600723                1.96623794               79.08125715                0.01000000               -0.30201584               -0.03585965                0.04534698                1.26359318               -0.22010207                0.09260886
               4.88350426                1.97226527               79.08499998                0.01000001               -0.25501337               -0.24036926                0.11926337                1.23621546               -0.06881097                0.00302850
               5.88090696                1.97707269               79.08736405                0.01000001               -0.37811726               -0.20627243                0.09425583                1.03551878               -0.16994617               -0.00328389
               6.87594191                1.98344407               79.08716181                0.01000001               -0.25295059               -0.12737362                0.05402497                0.65208012               -0.05729532                0.05912426
               7.87584795                1.98557524               79.09153660                0.01000001               -0.02141818               -0.03092070                0.12569137               -0.02530987                0.11001383               -0.11306053
               8.87551355                1.98794975               79.09428908                0.99999997               -0.03244232               -0.03578808                0.11464007               -0.00085854                0.01953411                0.02263494
               9.87519911                1.99031694               79.09682594                1.00000000               -0.03144440               -0.03547712                0.10794918               -0.00213106                0.00912525                0.00245574
              -0.09972686                2.97128655               79.06874993                0.38152555                0.00819370                0.10250373                0.01734451                0.13269743               -0.00071693                0.05399954
               0.90035507                2.96296644               79.07190149                0.01000000               -0.02046427               -0.28613440                0.09447747                0.48620737                0.03745668                0.10759155
               1.89986385                2.96100489               79.07568456                0.01000000               -0.14455410               -0.11457002                0.11819408                0.97142224                0.03383497                0.25439357
               2.89746399                2.96183455               79.07994044                0.01000000               -0.24651725               -0.06502149                0.10615560                1.22453874                0.06162722                0.18566936
               3.89493351                2.96533949               79.08415375                0.01000000               -0.27132947               -0.11439196                0.11094979                1.47336529                0.03972947                0.02977927
               4.89203740                2.97029576               79.08805062                0.01000000               -0.34471261               -0.15459749                0.10437314                1.55410680                0.01599430               -0.00567634
               5.88803925                2.97614932               79.09108479                0.01000000               -0.45161266               -0.09328773                0.10940970                1.46053055                0.03454577                0.03126006
               6.88300515                2.98078116               79.09398947                0.01000000               -0.74186712               -0.11840541                0.14256037                1.34092900               -0.05333946                0.16176253
               7.87320191                2.98532151               79.09312139                0.01000000               -0.49288523               -0.05289677                0.21303545                0.83340275                0.31450912               -0.07318170
               8.87314744                2.98758780               79.09854967                1.00000000               -0.01888474               -0.03499716                0.11833736               -0.00608824                0.15285772                0.03131541
               9.87282422                2.98995851               79.10089166                0.99999997               -0.03232276               -0.03370150                0.10678544                0.00001679               -0.00040715                0.00913345
              -0.08763552                3.97250406               79.07194111                0.32893973                0.05336707                0.00104729               -0.01247736                0.05541336               -0.01218299                0.07552890
               0.91289815                3.95917731               79.07573302                0.01000009               -0.02554711               -0.27716313                0.07678149                0.74198352               -0.00705335                0.19321824
               1.91185353                3.95932174               79.07964786                0.01000000               -0.15987005               -0.16997160                0.10743251                1.33996017                0.03992455                0.20441090
               2.90970074                3.96064507               79.08358766                0.01000001               -0.24201017               -0.15735117                0.11911769                1.49401487                0.07107649                0.14607350
               3.90701333                3.96395010               79.08768653                0.01000000               -0.29620883               -0.16521619                0.11704378                1.69913552                0.08654986                0.08103726
               4.90377657                3.96917332               79.09155999                0.01000000               -0.36905761               -0.13422671                0.11355368                1.85330578                0.07561083                0.04057259
               5.89963218                3.97520693               79.09512500                0.01000000               -0.50941315               -0.08294469                0.11746919                1.91526921                0.05513935                0.04272009
               6.89358831                3.98107596               79.09800293                0.01000000               -0.69614071                0.00887256                0.12778740                1.81284160                0.06709175                0.01722605
               7.88570936                3.98451730               79.10095086                0.01000001               -1.14167630                0.01780177                0.13018461                1.86062363               -0.02949960                0.20854688
               8.87075478                3.98724980               79.10268690                0.01000002               -0.76256751               -0.11498552                0.11469251                1.63537469               -0.02476619                0.12120327
               9.87045801                3.98964291               79.10497608                0.01000000               -0.02967663               -0.93606141                0.10346771                1.66525639                0.00411996                0.13938278
              -0.07196508                4.97130750               79.07566156                0.38997002                0.03421554               -0.16121778                0.04599675                0.08008303               -0.00539107                0.11924235
               0.92837707                4.95742318               79.07985577                0.01000000               -0.14198141               -0.05030520               -0.00621077                0.75609291               -0.05279188                0.11643227
               1.92519529                4.95760546               79.08328056                0.01000001               -0.28305728               -0.16632919                0.07306854                1.36421887               -0.04175863                0.13650398
               2.92271593                4.95868753               79.08707476                0.01000000               -0.24036599               -0.23940989                0.11360037                1.51734046                0.04134716                0.10674900
               3.92038797                4.96203517               79.09105075                0.01000000               -0.24346235               -0.25671164                0.11497405                1.81168399                0.07611524                0.07331339
               4.91784668                4.96761122               79.09508764                0.01000000               -0.29729877               -0.20806906                0.11461168                2.08556011                0.08280626                0.05228421
               5.91444199                4.97449043               79.09892863                0.01000003               -0.39475347               -0.11379404                0.11571243                2.24302806                0.07485481                0.04321228
               6.90995161                4.98095861               79.10255032                0.01000007               -0.51007254               -0.03533432                0.11915548                2.30650155                0.04475285                0.07260833
               7.90424054                4.98567754               79.10574495                0.01000000               -0.46111394               -0.00136961                0.12002898                2.23454244                0.02092779                0.10700423
               8.90072933                4.98528809               79.10871540                0.01000001               -0.14487059               -0.29175282                0.12214298                1.97901696                0.00404462                0.20313857
               9.90134313                4.97123729               79.11163352                0.01000000                0.06137995               -1.12447787                0.11935143                1.29864531               -0.00426461                0.29219247
              -0.05826522                5.96927971               79.07829581                0.75841609               -0.00127294               -0.14806880                0.06776058                0.11165301                0.01347222               -0.00108469
               0.94172205                5.95817120               79.08234634                0.01000001               -0.19306072                0.05145884                0.01327082                0.53118441               -0.01653592                0.04817414
               1.93787356                5.95599515               79.08612178                0.01000001               -0.30521037               -0.19806409                0.06715361                1.07001388               -0.02233842                0.04991229
               2.93561784                5.95585687               79.09003440                0.01000000               -0.17751252               -0.36276662                0.10408078                1.40147349                0.03282718                0.05437993
               3.93432331                5.95881586               79.09416459                0.01000000               -0.12926631               -0.41581303                0.11157618                1.82451817                0.06891231                0.05076709
               4.93303251                5.96501194               79.09842224                0.01000008               -0.15889784               -0.33598075                0.11326285                2.21306653                0.08396363                0.04292858
               5.93114536                5.97293105               79.10265459                0.01000004               -0.22506476               -0.19723457                0.11447761                2.41841452                0.08109432                0.04897894
               6.92853122                5.98036928               79.10674421                0.01000000               -0.25373130               -0.09178550                0.11615329                2.40274553                0.06770143                0.07440772
               7.92607073                5.98448991               79.11062824                0.01000002               -0.18779212               -0.09996942                0.11909667                2.11668629                0.04490218                0.12858255
               8.92477538                5.98141475               79.11427085                0.01000001               -0.07691015               -0.21695463                0.12241378                1.32157311                0.02010023                0.19950631
               9.92453253                5.96715335               79.11771876                0.01000000               -0.02428502               -0.14162553                0.12517323                0.65307466                0.00387017                0.27404940
              -0.04751501                6.96834612               79.07970950                0.99999999               -0.01996698               -0.07746398                0.09328803                0.03116007               -0.00558026               -0.02032683
               0.95228532                6.95845236               79.08394217                0.01000000               -0.17875462                0.01092966                0.06462833                0.27334190               -0.00450273               -0.01736955
               1.94890990                6.95364417               79.08820004                0.01000002               -0.21803169               -0.32985272                0.07956362                0.83707975                0.02052413               -0.01521407
               2.94792468                6.95143219               79.09240985                0.01000000               -0.05933131               -0.48361543                0.09989232                1.14565998                0.04272741                0.00474110
               3.94772327                6.95371891               79.09685266                0.01000000                0.00340684               -0.67692728                0.10979628                1.74591120                0.07447165                0.01259040
               4.94799282                6.96089161               79.10144598                0.01000007               -0.01351617               -0.46865863                0.11318896                2.25288134                0.09321600                0.01754992
               5.94745295                6.97054574               79.10612644                0.01000000               -0.07725791               -0.24394286                0.11470490                2.38385440                0.10324970                0.03735282
               6.94644766                6.97912290               79.11082489                0.01000002               -0.09620737               -0.13457597                0.11681921                2.26159807                0.10057157                0.07360727
               7.94552880                6.98367816               79.11540002                0.01000000               -0.09751550               -0.03836014                0.12065444                1.88238284                0.08097805                0.14316377
               8.94449735                6.98094900               79.11972158                0.01000001               -0.13006923                0.12519089                0.12693099                1.10120208                0.04354538                0.22238854
               9.94292741                6.96840478               79.12362917                0.01000000               -0.15699392                0.31303443                0.13573108                0.49571148                0.01928897                0.29749003
              -0.03785449                7.96773043               79.08119847                1.00000000               -0.02546792               -0.05527114                0.10514257                0.00811792               -0.00473667               -0.00843448
               0.96189083                7.95838980               79.08539075                1.00000000               -0.02550975               -0.01668688                0.09558535                0.01921872               -0.00828109               -0.01604788
               1.96163532                7.94939810               79.08949651                0.01000000               -0.17172651               -0.22805758                0.09590223                0.47731858                0.01756043               -0.02383218
               2.95845630                7.94618457               79.09418790                0.01000000               -0.09265987               -0.56398440                0.10545062                0.91516035                0.06848683               -0.04303845
               3.95978212                7.94527732               79.09895055                0.01000001                0.14035053               -1.12304551                0.11283812                1.58682941                0.09116744               -0.07327719
               4.96126332                7.95563877               79.10397995                0.01000000                0.04045167               -0.44043764                0.11538670                2.19193758                0.12312632               -0.00818518
               5.96059116                7.96805220               79.10931720                0.01000002               -0.03162778               -0.20730531                0.11724059                2.06664924                0.14666740                0.01832760
               6.96063076                7.97767776               79.11468392                0.01000000                0.06505653               -0.16365143                0.12013536                1.85020058                0.16046625                0.05694826
               7.96189229                7.98372271               79.12023565                0.01000001                0.07210192               -0.07018942                0.12506995                1.66724711                0.14844824                0.13308726
               8.96207280                7.98391857               79.12541244                0.01000007               -0.11785434                0.32085063                0.13507827                1.25508403                0.09235961                0.32433190
               9.95953520                7.97341404               79.12996537                0.01000002               -0.25375992                0.83102885                0.15006459                0.77482495                0.05697734                0.34839844
              -0.02867139                8.96724070               79.08280469                0.99999999               -0.03265868               -0.04403925                0.11184213                0.00115110                0.00016168               -0.00000551
               0.97100202                8.95811862               79.08699306                0.99999999               -0.03335568               -0.03083914                0.11052903               -0.00065151                0.00106544               -0.00481522
               1.97066150                8.94908302               79.09118401                0.99999999               -0.03266772               -0.03259742                0.11036027                0.00234955                0.00219208               -0.00293731
               2.97034867                8.94015251               79.09538671                0.99999999               -0.03279198               -0.31946588                0.11604575                0.14898835                0.00279640               -0.02883425
               3.97000566                8.93125800               79.09958350                0.01000002               -0.06459876               -0.71890384                0.11924557                1.55208379                0.12617373               -0.06076106
               4.96905669                8.95208286               79.10623647                0.01000002               -0.16293595               -0.18814962                0.11918088                1.88521572                0.22727550               -0.01777095
               5.96674694                8.96639963               79.11223273                0.01000001               -0.06377665               -0.13466335                0.12243569                1.26826683                0.20462007                0.00127189
               6.96778116                8.97584987               79.11824081                0.01000001                0.29429969               -0.21195480                0.12719350                1.04353441                0.22343256                0.02780720
               7.97263293                8.98227437               79.12458494                0.01000002                0.60632697               -0.26873152                0.13451293                1.09722514                0.32110276                0.08675052
               8.97990770                8.98736601               79.13269320                1.00000000                0.34000141                0.14898823                0.14391606                1.15125893                0.19161367                0.21267684
               9.97943296                8.98502535               79.13682183                0.99999999               -0.04747403                0.55189721                0.17562828                0.87820858               -0.00747338                0.17661917
              -0.01958730                9.96684964               79.08445375                1.00000000               -0.03772188               -0.03910572                0.12429729                0.00074603                0.00594064                0.00284497
               0.98003548                9.95777301               79.08865089                1.00000000               -0.03821397               -0.03456047                0.12374250               -0.00182892                0.00871570               -0.00129626
               1.97964842                9.94874615               79.09288867                1.00000000               -0.03871936               -0.03368745                0.12138230               -0.00019579                0.01248276               -0.00154661
               2.97926110                9.93979525               79.09715772                0.99999998               -0.03774870               -0.03572582                0.12075379               -0.00110279                0.01167658                0.00079384
               3.97889345                9.93089924               79.10137823                0.05642637               -0.77175477               -0.03587580                0.12196459                1.49280528                0.15419818               -0.00098591
               4.96382600                9.95187577               79.10847664                0.01000000               -0.83519842               -0.02070830                0.12532650                1.19991493                0.30124030               -0.02103648
               5.96218948                9.96535893               79.11502902                0.01000003                0.09003548               -0.10407002                0.13095852                0.62239849                0.26781064               -0.00389312
               6.96562671                9.97343866               79.12141451                0.01000000                0.50655839               -0.24112073                0.13908996                0.43401230                0.27731942                0.01261021
               7.97232065                9.97834808               79.12832260                0.01000001                0.83601408               -0.39262890                0.14997420                0.64175493                0.32201322                0.06457926
               8.98234699                9.98689833               79.13586781                0.99999999                0.47300187               -0.04676800                0.17138977                0.54912440                0.17788515                0.00705646
               9.98178068                9.98445199               79.13999644                0.99999991               -0.05663066               -0.05733674                0.20310201               -0.00986202                0.00716100               -0.00716032
              -0.11988002               -0.03149229               80.06299056                1.00000000               -0.01449710               -0.01824066                0.09574640               -0.00350913                0.00810565               -0.00650313
               0.87997501               -0.03622956               80.06585277                1.00000000               -0.00110692               -0.03241526                0.07839066                0.00454855                0.01278784                0.00301749
               1.88009784               -0.04038647               80.06878873                0.52995734                0.08570054               -0.01003642                0.05327201                0.12421050                0.03268981                0.00362457
               2.88168902               -0.04122527               80.07194357                0.43246228                0.13821551                0.02134275               -0.03700814                0.10008661               -0.00741492                0.00768178
               3.88286215               -0.03704407               80.07472060                0.34259615               -0.01809044                0.05096092               -0.00584226                0.07933756               -0.03121337               -0.01655833
               4.88132721               -0.02920613               80.07766083                0.46588789               -0.17287928                0.03762479                0.05587333                0.10213903                0.02106648               -0.00607398
               5.87940456               -0.02354586               80.08041904                1.00000000               -0.12551479               -0.00812482                0.06884176                0.10694917               -0.01414538                0.00550065
               6.87881691               -0.02031918               80.08273826                1.00000000               -0.05909347               -0.02262434                0.09866116                0.00985584               -0.03148073               -0.00601478
               7.87822269               -0.01765760               80.08498768                1.00000000               -0.05315516               -0.02734602                0.10649071                0.00191178               -0.02486041               -0.00027761
               8.87775381               -0.01532090               80.08742453                0.99999999               -0.04042489               -0.03028562                0.10148123               -0.00214428               -0.01212364               -0.00021048
               9.87741420               -0.01303176               80.08995515                1.00000000               -0.03396131               -0.03140702                0.10043934               -0.00257069               -0.00858250               -0.00859208
              -0.11517785                0.96832530               80.06501876                1.00000000               -0.03545754               -0.00983630                0.09139535                0.00426708               -0.00475644               -0.00844954
               0.88446758                0.96344629               80.06786452                0.01000000               -0.04921780               -0.04386223                0.07795936                0.05074673               -0.01122274                0.01479017
               1.88383780                0.95951317               80.07061087                0.01000000               -0.17244484                0.02692453                0.06765471                0.05510861                0.00120418                0.02325717
               2.88101868                0.95898816               80.07386999                0.08270725               -0.30959237                0.06089876                0.09320112               -0.10767315                0.06782470                0.10818173
               3.87764595                0.96346554               80.07747558                0.01000001               -0.27095937                0.01532643                0.07856914                0.29716978                0.14426808               -0.00874196
               4.87559949                0.97117012               80.08128264                0.01000000               -0.08076846               -0.11246539                0.00362823                0.55766759                0.07225360                0.02800127
               5.87603058                0.97637289               80.08410090                0.01000001                0.01859213               -0.15484967                0.03522532                0.36352228                0.01126277                0.02202356
               6.87597134                0.97945458               80.08650893                0.02198108               -0.01439541                0.00154839                0.08532232                0.01106841               -0.01463451               -0.12555383
               7.87574267                0.98206894               80.08887527                0.99999999               -0.02759436               -0.02995927                0.10795949                0.00703318               -0.00677481                0.00203869
               8.87541945                0.98437624               80.09138658                0.99999999               -0.03216626               -0.03208155                0.10671866               -0.00300246                0.00221990                0.00454748
               9.87509935                0.98665417               80.09392861                1.00000000               -0.03201020               -0.03293743                0.10589553               -0.00337432                0.00298089               -0.00784993
              -0.11003665                1.96831098               80.06701552                0.57348258               -0.01612748                0.02412756                0.08126968                0.05003241                0.00105827               -0.01357333
               0.88980207                1.96289319               80.07008621                0.01000000               -0.21526040               -0.10352343                0.07397335                0.20332264               -0.01862619                0.05298481
               1.88565814                1.96015202               80.07277192                0.01000001               -0.71094471                0.01964730                0.21125402                0.44865787               -0.04348087                0.15989722
               2.87558318                1.95999270               80.07785782                0.01000000               -0.45172815                0.05207127                0.07566973                0.81567592               -0.46498614                0.08483352
               3.87662358                1.96326246               80.08054476                0.01000000                0.19950155               -0.07647197               -0.04609257                1.10920790               -0.24175141                0.11014963
               4.87957321                1.96854457               80.08560197                0.01000001                0.08834883               -0.22361226                0.00687818                1.15632483                0.05133688                0.02374981
               5.87839055                1.97335715               80.08822019                0.01000002               -0.31154921               -0.19689456                0.06853958                1.03018187               -0.11406246                0.03710552
               6.87334223                1.97971179               80.08782169                0.01000002               -0.24744298               -0.12571225                0.15423015                0.71279634                0.07179362               -0.01473081
               7.87344169                1.98174322               80.09276144                0.01000000               -0.01168441               -0.18327862                0.11656170                0.28059258                0.14026663               -0.01485523
               8.87310854                1.98403746               80.09542633                0.99779184               -0.03254190               -0.03442892                0.11147124                0.00004141                0.01878242                0.01961759
               9.87279086                1.98630949               80.09792452                1.00000000               -0.03176817               -0.03496675                0.10882162               -0.00214807                0.01007062               -0.00568249
              -0.10334162                2.96880785               80.06901856                0.30481046                0.00346133                0.09080817                0.04640685                0.15805694                0.00013703               -0.00355047
               0.89669299                2.96137582               80.07273927                0.01000000               -0.04734657               -0.26492779                0.06951456                0.49030481                0.02068076                0.17461297
               1.89571145                2.95990611               80.07705457                0.01000000               -0.12356144               -0.13005692                0.13343569                1.05799229                0.02872229                0.24422884
               2.89422176                2.96002958               80.08094911                0.01000000               -0.22166003               -0.07682778                0.12184821                1.63459428                0.09218624                0.12952654
               3.89127825                2.96193610               80.08522088                0.01000004               -0.27952276               -0.10207167                0.08462941                1.69585651                0.07126743                0.08742491
               4.88863131                2.96669788               80.08890015                0.01000000               -0.29056239               -0.13118556                0.06740317                1.58668254                0.03998322                0.00504616
               5.88546700                2.97243500               80.09204729                0.01000000               -0.33950584               -0.08724215                0.08399873                1.44245445                0.07136083                0.02358193
               6.88184119                2.97694033               80.09509877                0.01000000               -0.42190747               -0.15284931                0.08895224                1.20967631                0.03561933                0.16571556
               7.87702885                2.97840337               80.09623960                0.01000001               -0.54935900               -0.07769933                0.25188533                0.80540078                0.27646254               -0.05243688
               8.87085401                2.98368766               80.09965718                0.89237354               -0.32582536               -0.03568742                0.11826466                0.15149589                0.05767527                0.02213333
               9.87051234                2.98595483               80.10192094                0.99999999               -0.03416689               -0.03491428                0.11196475               -0.00112435               -0.00196812               -0.00556902
              -0.09201144                3.97012715               80.07184298                0.23482792                0.05213514                0.03541140                0.00068495                0.11100746               -0.00465709                0.12540817
               0.90850991                3.95759464               80.07639881                0.01000000                0.00878325               -0.29701350                0.05519362                0.75219582               -0.02286680                0.21488165
               1.90816422                3.95755088               80.08066848                0.01000000               -0.11324161               -0.21255147                0.10199535                1.32277646                0.04087601                0.15613683
               2.90624508                3.95845615               80.08477654                0.01000000               -0.21459052               -0.17789077                0.10973596                1.42845655                0.06183162                0.12627560
               3.90387241                3.96122103               80.08877271                0.01000000               -0.27185561               -0.12445662                0.09910053                1.66244340                0.07782990                0.07011573
               4.90080796                3.96592086               80.09259807                0.01000000               -0.34376116               -0.10387304                0.09342704                1.82306573                0.07768987                0.04192536
               5.89699719                3.97161230               80.09618482                0.01000000               -0.46202922               -0.06934507                0.09503944                1.83644646                0.06585801                0.04133375
               6.89156738                3.97665480               80.09924165                0.01000003               -0.70974040                0.01469722                0.11465184                1.68468865                0.06782984                0.01704524
               7.88280238                3.98018923               80.10205964                0.01000001               -1.14901913                0.17203757                0.10779309                1.55335055               -0.03055770                0.12631125
               8.86858700                3.98332372               80.10370078                0.01000002               -0.72841754               -0.11299093                0.12487582                1.62007553               -0.01886296                0.12175123
               9.86823403                3.98561120               80.10590696                0.01567109               -0.03529673               -0.91091658                0.11675144                1.62373834                0.00448645                0.13924598
              -0.07605646                4.96951608               80.07598807                0.26131999                0.03696281               -0.15490125                0.03045866                0.10071311               -0.02582952                0.18966964
               0.92431317                4.95543555               80.07981176                0.01000000               -0.13190373               -0.04872825                0.01124845                0.78163180               -0.00538218                0.11341402
               1.92130547                4.95565508               80.08399501                0.01000001               -0.25962094               -0.17824068                0.07317748                1.34170329                0.02649798                0.10139351
               2.91912075                4.95647177               80.08807832                0.01000000               -0.21215300               -0.23866037                0.09678452                1.47008871                0.04817580                0.08019954
               3.91706241                4.95944697               80.09215573                0.01000000               -0.22097014               -0.24367504                0.10368284                1.75155859                0.06900097                0.05989382
               4.91470135                4.96462042               80.09617658                0.01000000               -0.28002125               -0.18685648                0.10261423                2.01860013                0.07582819                0.04488033
               5.91146198                4.97104810               80.10003343                0.01000002               -0.38716570               -0.09345504                0.10486907                2.16845423                0.07227193                0.03732453
               6.90695803                4.97723428               80.10367520                0.01000002               -0.50175179                0.01193226                0.10728599                2.22119420                0.04647001                0.06128925
               7.90142695                4.98184412               80.10691891                0.01000000               -0.45622406                0.03380151                0.11485963                2.20588813                0.02806747                0.10323942
               8.89783355                4.98142784               80.10994649                0.01000008               -0.15074041               -0.27431287                0.11863883                1.93629754                0.01145742                0.20335469
               9.89841214                4.96773650               80.11284825                0.01000000                0.05785853               -1.08826175                0.11859156                1.27458383               -0.00013123                0.29972825
              -0.06183611                5.96702912               80.07901800                0.76952294               -0.01603447               -0.15405805                0.07458480                0.18153175                0.01908222                0.00215736
               0.93800354                5.95662007               80.08265404                0.01000001               -0.21009079                0.06378648                0.04982905                0.54008365                0.03113888                0.07915437
               1.93396207                5.95398607               80.08674006                0.01000002               -0.30742879               -0.19410903                0.06649243                1.03521519                0.03406368                0.04386474
               2.93185497                5.95368294               80.09097941                0.01000000               -0.16035681               -0.35561435                0.09224109                1.36305362                0.05077573                0.04162072
               3.93075493                5.95634753               80.09524235                0.01000000               -0.11380631               -0.40282483                0.10368658                1.76747441                0.06685218                0.03706552
               4.92957884                5.96218373               80.09952415                0.01000002               -0.15012599               -0.31995702                0.10691598                2.14659202                0.07646390                0.03280355
               5.92775241                5.96974320               80.10376906                0.01000000               -0.21918002               -0.17685243                0.10853469                2.34946621                0.07478543                0.03911167
               6.92519524                5.97689345               80.10788169                0.01000000               -0.25129182               -0.07161537                0.11176646                2.34604287                0.06410987                0.06402397
               7.92272658                5.98086526               80.11180054                0.01000001               -0.18873332               -0.08161905                0.11612659                2.06747049                0.04414218                0.11692955
               8.92142057                5.97783746               80.11548172                0.01000000               -0.08090923               -0.19576542                0.12137326                1.29551248                0.02091648                0.18881284
               9.92110839                5.96384597               80.11896167                0.01000000               -0.03121796               -0.12704754                0.12485181                0.63860242                0.00534070                0.27300581
              -0.05160773                6.96643492               80.08061984                1.00000000               -0.02343781               -0.05454115                0.08945221                0.01743053               -0.00223262               -0.04113556
               0.94815789                6.95671128               80.08458635                0.01000002               -0.17226832                0.00022432                0.07049969                0.25200504                0.01647560                0.00520596
               1.94494690                6.95177290               80.08898434                0.01000001               -0.20687625               -0.31798640                0.08114114                0.80696559                0.04965590               -0.00533303
               2.94402037                6.94935948               80.09337234                0.01000000               -0.05178971               -0.47238001                0.09584620                1.10932071                0.05820384                0.00174741
               3.94391111                6.95139047               80.09792700                0.01000000                0.01085732               -0.66021608                0.10595751                1.69408740                0.07581548                0.00519162
               4.94423751                6.95822128               80.10256231                0.01000002               -0.00847623               -0.45388711                0.11022001                2.19037598                0.08670558                0.00877140
               5.94374158                6.96751105               80.10726117                0.01000000               -0.07403418               -0.23161940                0.11247841                2.32353650                0.09452254                0.02718189
               6.94275683                6.97580197               80.11198357                0.01000008               -0.09546205               -0.12213121                0.11527277                2.21008124                0.09237685                0.06155782
               7.94183234                6.98021174               80.11660090                0.01000000               -0.09968657               -0.02551824                0.11993620                1.84504788                0.07493968                0.12983709
               8.94076310                6.97751253               80.12098863                0.01000001               -0.13325866                0.13620469                0.12673354                1.07979119                0.04072260                0.21254717
               9.93916717                6.96519555               80.12498262                0.01000000               -0.15959277                0.31842069                0.13532536                0.48598396                0.01897333                0.29852895
              -0.04204022                7.96593830               80.08223434                0.99999998               -0.02541236               -0.04695911                0.10021787                0.00642351               -0.00428317               -0.02621846
               0.95770566                7.95662456               80.08633573                0.99999999               -0.02533009               -0.01746391                0.09415538                0.01791832               -0.00416456               -0.00798333
               1.95745318                7.94762634               80.09044526                0.01000000               -0.16409240               -0.22306750                0.09550794                0.45778386                0.02973905               -0.01635347
               2.95442381                7.94423534               80.09523384                0.01000001               -0.08391474               -0.55016716                0.10468251                0.88373188                0.07919661               -0.03914552
               3.95577489                7.94314321               80.10007704                0.01000008                0.14209863               -1.09774667                0.11209798                1.53990340                0.09175860               -0.07486257
               4.95726578                7.95310598               80.10512724                0.01000000                0.04337829               -0.43032685                0.11476932                2.13492408                0.11625772               -0.01354572
               5.95664245                7.96511081               80.11048692                0.01000001               -0.02848058               -0.20086687                0.11708849                2.01668500                0.13679157                0.01008802
               6.95669617                7.97445082               80.11588439                0.01000000                0.06372596               -0.15607325                0.12037289                1.81188930                0.14877145                0.04644497
               7.95791697                7.98035490               80.12148735                0.01000001                0.06682095               -0.06091489                0.12560091                1.63870482                0.13731171                0.12024125
               8.95803259                7.98056155               80.12676327                0.01000002               -0.12274635                0.33075978                0.13542618                1.23216245                0.08536993                0.31095837
               9.95546204                7.97021438               80.13146264                0.01000002               -0.25705470                0.82215721                0.14973614                0.76047880                0.05428297                0.35123213
              -0.03285178                8.96549574               80.08390991                0.99999999               -0.03200020               -0.04079812                0.10798772                0.00107866               -0.00024389               -0.01254338
               0.96682821                8.95636200               80.08808765                0.99999999               -0.03282073               -0.02988887                0.10807329               -0.00037397                0.00138017               -0.00555800
               1.96649180                8.94731155               80.09228185                0.99999999               -0.03250354               -0.03235008                0.10933956                0.00200856                0.00542486                0.00134680
               2.96617814                8.93835614               80.09652752                1.00000000               -0.03266331               -0.31144615                0.11474146                0.14072354                0.00589369               -0.02602351
               3.96583853                8.92943554               80.10073485                0.01000002               -0.06048776               -0.70288968                0.11727781                1.51181677                0.12819049               -0.05807872
               4.96496839                8.94961474               80.10743487                0.01000002               -0.15540441               -0.18539033                0.12011570                1.83914154                0.22322069               -0.01947327
               5.96273045                8.96349371               80.11345867                0.01000000               -0.06089278               -0.13202892                0.12338338                1.23879083                0.19620904               -0.00320289
               6.96375053                8.97268050               80.11951532                0.01000001                0.28826322               -0.20653620                0.12819137                1.02393121                0.21217861                0.02186896
               7.96849571                8.97899344               80.12593413                0.01000002                0.58981667               -0.25946278                0.13561833                1.08658916                0.30583659                0.07899231
               8.97554686                8.98412773               80.13413863                1.00000000                0.32876903                0.15476918                0.14516109                1.13715244                0.18104120                0.20382450
               9.97507109                8.98163869               80.13857499                0.99999996               -0.04757738                0.54270268                0.17500562                0.85624999               -0.00746781                0.17583990
              -0.02375117                9.96512234               80.08568232                1.00000000               -0.03664695               -0.03734026                0.11974699                0.00050651                0.00017237               -0.00522756
               0.97588236                9.95602678               80.08987746                1.00000000               -0.03748090               -0.03352163                0.12051622               -0.00173470                0.00294374               -0.00252186
               1.97549921                9.94697934               80.09409857                0.99999999               -0.03840339               -0.03322127                0.11975385               -0.00027686                0.00635347                0.00066725
               2.97511430                9.93800642               80.09834159                0.99999997               -0.03732983               -0.03497185                0.11863890               -0.00108117                0.00642505                0.00006037
               3.97475262                9.92908541               80.10255243                0.05260326               -0.75619267               -0.03501282                0.11927924                1.46099635                0.15332415               -0.00057991
               4.95999044                9.94939818               80.10973493                0.01000000               -0.82000574               -0.02165617                0.12598270                1.17144666                0.30266085               -0.01983380
               5.95835250                9.96247023               80.11633836                0.01000001                0.08423108               -0.10234769                0.13153976                0.60830178                0.26498166               -0.00543473
               6.96167506                9.97032010               80.12280543                0.01000000                0.49245126               -0.23604052                0.13963571                0.42722357                0.27176407                0.01074708
               7.96820153                9.97516564               80.12982473                0.01000003                0.82276639               -0.38278019                0.15074811                0.63742365                0.31654899                0.06223344
               8.97813039                9.98365694               80.13758483                0.99999999                0.46817945               -0.04707931                0.17201328                0.55349223                0.17324313                0.00705675
               9.97756512                9.98106843               80.14202119                0.99999991               -0.05652741               -0.05702583                0.20185782               -0.00944760                0.00715859               -0.00715857
              -0.12257546               -0.03354121               81.06394977                1.00000000               -0.01556881               -0.01935846                0.09307480               -0.00301971                0.00521972               -0.00225307
               0.87726885               -0.03817310               81.06661953                0.97064518               -0.00400725               -0.02993882                0.07647397                0.00402880                0.00190316                0.00894916
               1.87734439               -0.04229009               81.06926229                0.45294005                0.06762302               -0.01041957                0.05356478                0.10034825               -0.01780555                0.00452592
               2.87862131               -0.04367581               81.07172517                0.32939718                0.11917655                0.01794316                0.00226729                0.08889434               -0.04355651                0.02066187
               3.87972793               -0.04040691               81.07459656                0.23265028                0.00118873                0.04645856               -0.00946739                0.12216155                0.01914782               -0.01690324
               4.87864509               -0.03268497               81.07816086                0.30878402               -0.16126948                0.04070070                0.04746879                0.10668628                0.06464130               -0.02264033
               5.87650254               -0.02691821               81.08115984                1.00000000               -0.13024960               -0.01676946                0.07885493                0.13289428               -0.02294913                0.01704542
               6.87604009               -0.02403531               81.08369477                1.00000000               -0.04850121               -0.02305742                0.09370637                0.00509254               -0.04367613               -0.00482403
               7.87553251               -0.02153425               81.08603395                0.99999998               -0.04709959               -0.02588162                0.10097842                0.00297140               -0.04049717                0.00213145
               8.87509810               -0.01931214               81.08843682                0.99999999               -0.03857582               -0.02951537                0.09944406               -0.00059626               -0.02552178               -0.00028369
               9.87476099               -0.01714471               81.09097526                1.00000000               -0.03371073               -0.03135987                0.10133299               -0.00167887               -0.01736812               -0.01422316
              -0.11797377                0.96626520               81.06594124                1.00000000               -0.03426511               -0.01380335                0.09110231                0.00250792                0.00028032               -0.00659481
               0.88168358                0.96152751               81.06863852                0.01000000               -0.04634998               -0.03709788                0.07670147                0.04175352                0.00126194                0.01787862
               1.88109923                0.95760571               81.07129503                0.01000000               -0.15574590                0.03287399                0.06767372                0.01418443                0.04793832                0.12924907
               2.87856866                0.95650362               81.07470438                0.01000000               -0.28225540                0.01194335                0.07318171               -0.18486683                0.13808570                0.00292026
               3.87545412                0.96005768               81.07821569                0.01000001               -0.28005301                0.05512682                0.06984792                0.24592727                0.12901558               -0.09488293
               4.87296760                0.96772203               81.08139262                0.01000000               -0.09737393               -0.10961368                0.02495489                0.55334517                0.04559831                0.00615803
               5.87350664                0.97291409               81.08453705                0.01000001                0.02157181               -0.16066933                0.05623225                0.39577718                0.04180895                0.05026202
               6.87339904                0.97573412               81.08727148                0.01000004               -0.01530019               -0.07025378                0.07799286                0.10446389                0.00950751               -0.03630600
               7.87320064                0.97820694               81.08990780                1.00000000               -0.02508336               -0.02759780                0.10037194                0.00873638                0.00084599                0.00708519
               8.87289737                0.98039271               81.09244731                0.99999999               -0.03119315               -0.03081815                0.10430933               -0.00186100               -0.00126013                0.00341937
               9.87257678                0.98254169               81.09500078                1.00000000               -0.03205924               -0.03221656                0.10652534               -0.00294456                0.00016967               -0.01498895
              -0.11304992                1.96618272               81.06786900                0.56221905               -0.01866684                0.00614439                0.08821566                0.03063367                0.00173863               -0.02275137
               0.88676341                1.96108494               81.07078438                0.01000000               -0.21490549               -0.06907037                0.06923032                0.16168844                0.10818128                0.05286085
               1.88265197                1.95836739               81.07589048                0.01000001               -0.71457032                0.01935968                0.19932296                0.33036722                0.17893733                0.13619921
               2.87247201                1.95656306               81.07750099                0.01000000               -0.46119560                0.05013696                0.08711951                0.74504940                0.52221332                0.12367336
               3.87342806                1.96069563               81.08033530                0.01000000                0.21917839               -0.05988152                0.06290447                1.07566908                0.45954620                0.06665765
               4.87685557                1.96512275               81.08513755                0.01000001                0.14889666               -0.21607256               -0.00381203                1.11079116                0.23127533                0.07283396
               5.87640599                1.96986840               81.08873484                0.01000002               -0.20095226               -0.21288831                0.04740664                0.95990388                0.04707011                0.07247506
               6.87283653                1.97455962               81.09024641                0.01000001               -0.26786718               -0.15293056                0.24128729                0.70857915                0.16720410               -0.04472393
               7.87104865                1.97791380               81.09386783                0.01000000               -0.10552017               -0.16161808                0.10747086                0.32419977                0.07409114                0.03017122
               8.87072613                1.98007150               81.09651850                0.99999999               -0.03222560               -0.03183475                0.10857053                0.00097042                0.01780899                0.02351155
               9.87040414                1.98221096               81.09900237                0.99999999               -0.03219889               -0.03385001                0.10874288               -0.00202647                0.00956319               -0.00946531
              -0.10716554                2.96638809               81.06967807                0.24436272               -0.01017802                0.09300016                0.08113064                0.18628025               -0.00141470               -0.03072622
               0.89273268                2.96014610               81.07329178                0.01000000               -0.03030014               -0.23412455                0.05324477                0.42283546                0.05896043                0.16896997
               1.89222846                2.95799290               81.07835327                0.01000000               -0.07956379               -0.14316755                0.11475158                0.95008052                0.14884370                0.05602990
               2.89114141                2.95750636               81.08237740                0.01000000               -0.19103247               -0.02608402                0.10685910                1.56141431                0.07681063                0.13811725
               3.88840781                2.95886005               81.08584634                0.01000002               -0.25653768               -0.11390322                0.06669242                1.66072831                0.10491203                0.19903848
               4.88601065                2.96340058               81.08939869                0.01000000               -0.25699767               -0.11936746                0.05672912                1.54294808                0.11533918                0.11054482
               5.88326786                2.96865633               81.09276476                0.01000000               -0.32427133               -0.09104661                0.07634939                1.35873452                0.09558353                0.05576430
               6.87952522                2.97267551               81.09576852                0.01000000               -0.45475510               -0.08595896                0.07988209                1.12758995                0.02121161                0.10937051
               7.87417275                2.97497458               81.09815910                0.01000001               -0.54528052               -0.07747854                0.16855794                0.83354688               -0.00037068                0.10524862
               8.86861961                2.97975601               81.10091496                0.99999999               -0.29577130               -0.03379916                0.11922268                0.13470973                0.02533794                0.03419199
               9.86825733                2.98186469               81.10313096                0.99999999               -0.03622872               -0.03552185                0.11542789               -0.00256989               -0.00080267               -0.00032253
              -0.09684034                3.96804272               81.07195481                0.17265581                0.04556472                0.07688917                0.03522225                0.18779663                0.01586599                0.11209207
               0.90361531                3.95640245               81.07683689                0.01000001                0.05668317               -0.33549339                0.03970117                0.74955608                0.00257792                0.22202684
               1.90429332                3.95550403               81.08168776                0.01000000               -0.03910795               -0.22155788                0.08946337                1.24345811                0.06133019                0.10163890
               2.90283315                3.95604138               81.08578238                0.01000002               -0.17724597               -0.17088543                0.09492344                1.36454241                0.06476824                0.08311805
               3.90074840                3.95841756               81.08966854                0.01000000               -0.24574460               -0.10483190                0.08511484                1.59779726                0.07273574                0.08657512
               4.89791826                3.96273540               81.09342853                0.01000000               -0.32213241               -0.09089150                0.08168969                1.75523946                0.08221643                0.08044217
               5.89430576                3.96804747               81.09702579                0.01000000               -0.44240878               -0.05018270                0.08394708                1.76129969                0.07209227                0.07065459
               6.88907008                3.97284044               81.10029596                0.01000002               -0.68333381                0.04344237                0.10137185                1.63935344                0.04796093                0.07751826
               7.88063908                3.97636423               81.10310672                0.01000004               -1.12699391                0.15134271                0.11458779                1.54564633                0.01085437                0.11762355
               8.86653020                3.97939552               81.10518442                0.01000001               -0.72518488               -0.10908876                0.13078746                1.57729128                0.00370136                0.11082074
               9.86613538                3.98150052               81.10731111                0.05409686               -0.03948201               -0.88437738                0.12517368                1.57448384                0.00749419                0.12837675
              -0.08012906                4.96792587               81.07627073                0.19121212                0.03915503               -0.16758204                0.03978007                0.13527006               -0.02928993                0.22409227
               0.92026249                4.95343623               81.08008074                0.01000000               -0.12061233               -0.07113758                0.03962790                0.83216643                0.01506895                0.12112130
               1.91745869                4.95356175               81.08474410                0.01000001               -0.23718836               -0.18104599                0.07588946                1.32942800                0.06412908                0.07319974
               2.91551872                4.95408865               81.08901045                0.01000000               -0.18944828               -0.23230552                0.08896049                1.42497929                0.05879632                0.06175396
               3.91366973                4.95676341               81.09312440                0.01000000               -0.20165935               -0.23158302                0.09295686                1.69306576                0.06662674                0.05940127
               4.91148554                4.96158275               81.09713992                0.01000000               -0.26404574               -0.17265644                0.09376226                1.95030414                0.07084224                0.05555557
               5.90838881                4.96765267               81.10102601                0.01000003               -0.37449995               -0.07809592                0.09770710                2.09696867                0.06752129                0.05524573
               6.90399554                4.97354436               81.10469604                0.01000002               -0.49291056                0.02504723                0.10353216                2.15303051                0.05209797                0.07043063
               7.89853060                4.97800143               81.10804214                0.01000000               -0.44831974                0.03911423                0.11261607                2.13721698                0.03230374                0.10949368
               8.89502914                4.97757424               81.11108818                0.01000002               -0.14968056               -0.26233271                0.11876402                1.88390498                0.01888984                0.18834223
               9.89553699                4.96417715               81.11400535                0.01000000                0.05078483               -1.05107133                0.11996811                1.23749436                0.00509238                0.28811058
              -0.06515566                5.96469108               81.07978750                0.81410341               -0.02215754               -0.18093994                0.07444489                0.26068016                0.01802155                0.02906247
               0.93462276                5.95497970               81.08334292                0.01000001               -0.23074359                0.07192757                0.07576079                0.55899387                0.04218782                0.08937090
               1.93022947                5.95188311               81.08745163                0.01000000               -0.32458463               -0.18647156                0.07688834                1.00369517                0.05544533                0.03968864
               2.92813107                5.95139527               81.09187923                0.01000000               -0.15569232               -0.34379716                0.09023320                1.32650849                0.06752890                0.03383129
               3.92711562                5.95378590               81.09623832                0.01000000               -0.10479972               -0.38876787                0.09795307                1.71334430                0.06824944                0.03417028
               4.92603507                5.95928227               81.10056056                0.01000003               -0.14160473               -0.30594025                0.10204048                2.08034349                0.07153704                0.03445897
               5.92428352                5.96648555               81.10482528                0.01000000               -0.21265702               -0.16405795                0.10503535                2.27962183                0.07025438                0.04099442
               6.92178193                5.97334138               81.10897954                0.01000000               -0.24649947               -0.05965004                0.10962768                2.28104462                0.06197295                0.06453788
               7.91935354                5.97714651               81.11295077                0.01000001               -0.18746747               -0.07066675                0.11578764                2.01497053                0.04608305                0.11215786
               8.91803259                5.97414886               81.11669832                0.01000000               -0.08370391               -0.18279211                0.12213987                1.26167657                0.02309825                0.18487562
               9.91767946                5.96047910               81.12021580                0.01000000               -0.03531284               -0.11513810                0.12634035                0.62211906                0.00798681                0.27628656
              -0.05549269                6.96430707               81.08149854                1.00000000               -0.02569766               -0.03875469                0.08592881                0.00740758               -0.00122007               -0.04644964
               0.94425033                6.95487479               81.08535216                0.01000002               -0.16951412               -0.01254314                0.08121022                0.22495495                0.02830309                0.00788292
               1.94111703                6.94983231               81.08982286                0.01000000               -0.20521157               -0.30548003                0.08771340                0.77202210                0.06718848               -0.00025532
               2.94014610                6.94721271               81.09432677                0.01000000               -0.05337114               -0.45743966                0.09685114                1.07165649                0.06997630                0.00301696
               3.94004961                6.94898805               81.09897181                0.01000002                0.01233281               -0.64068450                0.10450245                1.64297598                0.07774399                0.00542412
               4.94039276                6.95546395               81.10365038                0.01000043               -0.00637329               -0.43934923                0.10866659                2.12634853                0.08161597                0.00758955
               5.93992214                6.96437151               81.10837600                0.01000000               -0.07186447               -0.22145478                0.11159517                2.25868616                0.08701892                0.02421801
               6.93895547                6.97235135               81.11313035                0.01000189               -0.09498035               -0.11332412                0.11519010                2.15202037                0.08551100                0.05532076
               7.93802253                6.97658809               81.11779874                0.01000002               -0.10126912               -0.01761021                0.12055184                1.79865725                0.06998423                0.12064041
               8.93693009                6.97391840               81.12225625                0.01000001               -0.13518148                0.14194352                0.12779324                1.05293061                0.03871126                0.20423994
               9.93531890                6.96187438               81.12633568                0.01000000               -0.16111840                0.31836044                0.13635143                0.47273177                0.01899577                0.29963116
              -0.04614293                7.96391599               81.08320282                0.99999999               -0.02604453               -0.03826093                0.09428330                0.00433232               -0.00212309               -0.03542318
               0.95359662                7.95472883               81.08727386                1.00000000               -0.02625403               -0.02045288                0.09417044                0.01324417                0.00043629               -0.00432143
               1.95333198                7.94577351               81.09140667                0.01000002               -0.15940794               -0.21878314                0.09760090                0.43653654                0.03924035               -0.01116074
               2.95040846                7.94224647               81.09628155                0.01000001               -0.08040419               -0.53442067                0.10608581                0.85330721                0.08721478               -0.03307304
               3.95172390                7.94097221               81.10119251                0.01000000                0.13850612               -1.06835118                0.11249877                1.49306633                0.09194665               -0.07076247
               4.95317858                7.95049529               81.10627534                0.01000000                0.04229692               -0.41891242                0.11575497                2.07443841                0.11011415               -0.01432586
               5.95256984                7.96205646               81.11165897                0.01000001               -0.02864106               -0.19436915                0.11815886                1.96240708                0.12749669                0.00639526
               6.95260576                7.97107490               81.11709138                0.01000002                0.05948992               -0.14925774                0.12169181                1.76658296                0.13797318                0.03959734
               7.95375964                7.97679431               81.12274767                0.01000001                0.05995728               -0.05356330                0.12701107                1.60083305                0.12711038                0.11002603
               8.95380491                7.97698773               81.12812096                0.01000002               -0.12687590                0.33512704                0.13656638                1.20047844                0.07901852                0.29918459
               9.95122212                7.96684631               81.13296009                0.01000002               -0.25827883                0.80546059                0.15021501                0.74045562                0.05206250                0.35414820
              -0.03703174                8.96354185               81.08496444                0.99999999               -0.03105719               -0.03578479                0.10236372                0.00082699               -0.00016057               -0.02049187
               0.96265769                8.95446573               81.08915453                0.99999998               -0.03190706               -0.02929391                0.10519065               -0.00018590                0.00224855               -0.00550938
               1.96233012                8.94545665               81.09337080                0.99999997               -0.03220721               -0.03237262                0.10884401                0.00189736                0.00909236                0.00504255
               2.96201355                8.93652429               81.09768154                0.99999999               -0.03340030               -0.30390717                0.11649969                0.13458236                0.01006439               -0.02241727
               3.96166212                8.92762103               81.10192906                0.01000000               -0.06081302               -0.68598695                0.12193067                1.47020446                0.12881378               -0.05302521
               4.96079729                8.94708570               81.10863878                0.01000001               -0.15357230               -0.18081516                0.12196069                1.78889030                0.21746995               -0.01902824
               5.95859067                8.96048413               81.11470039                0.01000000               -0.06240042               -0.12828020                0.12558096                1.20646364                0.18815420               -0.00519666
               6.95954928                8.96936620               81.12080464                0.01000001                0.27678461               -0.20007573                0.13028861                1.00012769                0.20143491                0.01789048
               7.96412636                8.97551683               81.12729731                0.01000002                0.56691895               -0.24913866                0.13743349                1.06836655                0.29161673                0.07262796
               8.97088766                8.98062094               81.13559642                0.99999999                0.31422543                0.15796640                0.14638949                1.11386269                0.17131653                0.19555430
               9.97041087                8.97798360               81.14032194                0.99999999               -0.04767866                0.52850563                0.17438439                0.82771626               -0.00746300                0.17504668
              -0.02797414                9.96320029               81.08684869                0.99999999               -0.03477542               -0.03415634                0.11246109                0.00002616               -0.00437808               -0.01118809
               0.97167810                9.95414296               81.09106121                1.00000000               -0.03572472               -0.03227715                0.11552311               -0.00167006               -0.00178165               -0.00303234
               1.97131136                9.94512606               81.09528375                1.00000000               -0.03711868               -0.03305903                0.11726364               -0.00060702                0.00164416                0.00256958
               2.97093573                9.93616833               81.09953050                0.99999997               -0.03723890               -0.03559660                0.11942680               -0.00146081                0.00306188               -0.00049766
               3.97056659                9.92725248               81.10376381                0.05662328               -0.74212221               -0.03685534                0.12321158                1.42598001                0.15168205                0.00029128
               4.95609329                9.94687899               81.11099630                0.01000000               -0.80739884               -0.02067121                0.12769153                1.14151891                0.30211867               -0.01783789
               5.95441861                9.95949085               81.11765981                0.01000000                0.07411661               -0.09932801                0.13345820                0.59251411                0.26227288               -0.00581630
               6.95757562                9.96707339               81.12420722                0.01000000                0.47268103               -0.22928135                0.14143352                0.41866827                0.26685550                0.00974639
               7.96387223                9.97181153               81.13133756                0.01000004                0.80198877               -0.37052950                0.15225399                0.62827066                0.31227302                0.06039609
               8.97361539                9.98014706               81.13930808                1.00000000                0.45894499               -0.04738768                0.17263532                0.55301809                0.16930681                0.00705728
               9.97305113                9.97741642               81.14403359                0.99999995               -0.05642644               -0.05671768                0.20063025               -0.00903823                0.00715670               -0.00715654
              -0.12511515               -0.03552029               82.06485205                1.00000000               -0.01843045               -0.02055315                0.08527536               -0.00199419                0.00324329                0.00169740
               0.87470055               -0.04008857               82.06738225                0.93495858               -0.01243822               -0.02724250                0.07628869                0.00179011               -0.00138465                0.00891077
               1.87463609               -0.04436144               82.06986003                0.38508790                0.03915363               -0.01686038                0.06784947                0.07536837               -0.03302272                0.00378878
               2.87548362               -0.04677045               82.07198891                0.22782992                0.10866662                0.00411894                0.06254273                0.12466454               -0.07751036                0.02683225
               3.87680942               -0.04462039               82.07453125                0.15099311                0.02865676                0.04495312                0.02547867                0.20525888                0.03922834                0.00028798
               4.87605675               -0.03612247               82.07861021                0.19038394               -0.16988772                0.04390598                0.05191947                0.14638471                0.12768315               -0.04581639
               5.87341166               -0.02995938               82.08199614                0.99917805               -0.14937360               -0.02374853                0.08466573                0.18529381               -0.00767848                0.02085038
               6.87306928               -0.02756908               82.08461239                1.00000000               -0.03704801               -0.02541066                0.09012038                0.00198149               -0.04880563               -0.00438257
               7.87267070               -0.02536267               82.08700725                1.00000000               -0.03836141               -0.02605670                0.09452170                0.00238042               -0.05054106                0.00506193
               8.87230205               -0.02334757               82.08941341                1.00000000               -0.03403828               -0.02894874                0.09499903               -0.00030856               -0.03593148               -0.00019286
               9.87198994               -0.02136726               82.09198181                0.99999998               -0.03121153               -0.03054596                0.09761333               -0.00138238               -0.02501450               -0.01965319
              -0.12056681                0.96427418               82.06684080                0.99999999               -0.02941666               -0.01802947                0.08700820                0.00060785                0.00278283               -0.00127946
               0.87913902                0.95963901               82.06939855                0.01000000               -0.03512379               -0.03071376                0.07634931                0.02197250                0.00746115                0.01412333
               1.87873071                0.95546996               82.07196435                0.01000001               -0.11396391                0.00896027                0.06990895                0.07579611                0.06164118                0.13184990
               2.87685974                0.95327074               82.07533363                0.01000000               -0.25963473                0.07817994                0.06036050                0.32290920                0.18387740                0.05323253
               3.87353802                0.95582914               82.07887254                0.01000002               -0.33348229                0.07926772                0.06434065                0.62071899                0.14322944               -0.08010229
               4.87019010                0.96431659               82.08178174                0.01000000               -0.12750555               -0.09411740                0.05927833                0.68582108                0.03868277               -0.01475169
               5.87098791                0.96980313               82.08522554                0.01000001                0.03003228               -0.17308393                0.07836751                0.43358284                0.06021715                0.05146242
               6.87079074                0.97217682               82.08806879                0.01658619               -0.02020741               -0.10553278                0.08438334                0.15288291                0.02123729                0.04971647
               7.87058376                0.97437676               82.09088271                0.99999999               -0.02447392               -0.02709922                0.09682813                0.00834198                0.00664250                0.01233714
               8.87030126                0.97636294               82.09347276                0.99999999               -0.02939760               -0.03061904                0.10096304               -0.00106800               -0.00339471                0.00377785
               9.86999581                0.97832728               82.09605912                1.00000000               -0.03054582               -0.03213645                0.10380446               -0.00234420               -0.00207752               -0.02023207
              -0.11583265                1.96411912               82.06877983                0.55597356               -0.02231363               -0.00833309                0.09137974                0.01627772                0.00194249               -0.01330257
               0.88394421                1.95929716               82.07147082                0.01000001               -0.08235373               -0.04681514                0.07198840                0.08783138                0.12850128                0.03769719
               1.88252028                1.95581777               82.07675838                0.01000001               -0.11807954               -0.01202652                0.03584920                0.31839901                0.31392628                0.12812232
               2.88158262                1.95479315               82.07960021                0.01000000               -0.21711650                0.06198999                0.13491663                0.62761788                0.59019183                0.14327271
               3.87817795                1.95696496               82.08180285                0.01000000               -0.28917205                0.03772493                0.16131947                1.00096096                0.45000712                0.03630215
               4.87579918                1.96199518               82.08552573                0.01000001               -0.19774261               -0.18494011                0.08520652                1.17217752                0.22510338                0.08917843
               5.87422309                1.96657894               82.08916832                0.01000002               -0.21229354               -0.22719001                0.06372645                0.91730082                0.09979790                0.08248197
               6.87155331                1.97032027               82.09264744                0.01000004               -0.27858357               -0.15493155                0.24950988                0.67983730               -0.03429204                0.15734023
               7.86865142                1.97409534               82.09491086                0.01000000               -0.16115674               -0.15536507                0.10425632                0.35055046                0.00712423                0.05363842
               8.86833018                1.97604005               82.09759774                0.99999999               -0.03185212               -0.03286771                0.10713230               -0.00088432                0.01907125                0.02333639
               9.86801438                1.97799001               82.10009938                0.99999999               -0.03157969               -0.03438141                0.10847434               -0.00157903                0.01032840               -0.01703405
              -0.11059733                2.96410752               82.07064117                0.20652022               -0.02056699                0.08286017                0.10358143                0.17823643                0.00000664               -0.03184937
               0.88919700                2.95870270               82.07380416                0.01000000                0.01000152               -0.20254722                0.05912122                0.30031051                0.11025417                0.12878678
               1.88960270                2.95522943               82.07934960                0.01000000               -0.04660461               -0.13124698                0.07365048                0.68664498                0.19746983                0.03444879
               2.88826491                2.95451054               82.08308629                0.01000000               -0.16237494               -0.06538430                0.07506016                0.96656258                0.12245402                0.07744993
               3.88635520                2.95658364               82.08655473                0.01000001               -0.21226182               -0.06452483                0.07878339                1.28051394                0.14809158                0.18002962
               4.88401967                2.96061779               82.09003474                0.01000000               -0.26731822               -0.11033617                0.07921717                1.39857754                0.13539986                0.14785587
               5.88100884                2.96525933               82.09357428                0.01000000               -0.35742932               -0.09073968                0.09502820                1.29044533                0.08184963                0.12102816
               6.87687108                2.96907819               82.09669641                0.01000000               -0.45669232               -0.05213104                0.09814669                1.04512427                0.05559311                0.10181469
               7.87187499                2.97126946               82.09961076                0.01000000               -0.52410857               -0.07183387                0.13720966                0.80534941                0.03337161                0.09821882
               8.86638891                2.97570559               82.10204163                1.00000000               -0.29053434               -0.03365646                0.11292912                0.12483254                0.01002430                0.02999873
               9.86606430                2.97763965               82.10422950                0.99999997               -0.03246096               -0.03428307                0.11015476               -0.00078563               -0.00091994               -0.00955033
              -0.10145830                3.96577632               82.07254742                0.13157902                0.02868073                0.10288576                0.08986676                0.26374173                0.02940589                0.07049621
               0.89882851                3.95524621               82.07719284                0.01000001                0.09518180               -0.36753774                0.04121849                0.71803422                0.03866659                0.23019628
               1.90044534                3.95319283               82.08245775                0.01000000                0.03655777               -0.19371065                0.06819941                1.11474473                0.10284470                0.07761138
               2.89955967                3.95348546               82.08667501                0.01000001               -0.13821830               -0.14502696                0.07801565                1.30665528                0.07626170                0.08312858
               3.89768097                3.95567447               82.09047501                0.01000000               -0.22323139               -0.12592134                0.08127965                1.51066300                0.07601404                0.10246154
               4.89509504                3.95978846               82.09423186                0.01000001               -0.30546863               -0.10091454                0.08513210                1.66432980                0.08457126                0.11032604
               5.89157160                3.96476414               82.09786376                0.01000000               -0.43246845               -0.04529049                0.09060575                1.68683237                0.07694325                0.09936031
               6.88644567                3.96927765               82.10126909                0.01000003               -0.67202947                0.04405603                0.10481886                1.60036504                0.05872791                0.10214530
               7.87813101                3.97265866               82.10435140                0.01000000               -1.09945162                0.14602414                0.12265979                1.49475791                0.00898076                0.10543650
               8.86445664                3.97536692               82.10631653                0.01000000               -0.70002357               -0.10123995                0.11627881                1.52524540                0.00070789                0.10819348
               9.86413054                3.97730435               82.10841043                0.05294892               -0.03260966               -0.85228152                0.11256903                1.52451002                0.00860680                0.12656515
              -0.08426227                4.96616523               82.07678367                0.14383981                0.04034506               -0.16968799                0.06736389                0.16226070               -0.03232786                0.21560118
               0.91614118                4.95135195               82.08060432                0.01000000               -0.10396918               -0.10550685                0.06477780                0.87723234                0.02215213                0.14452302
               1.91365834                4.95135522               82.08551280                0.01000001               -0.21124006               -0.17458700                0.07549507                1.31736898                0.08636107                0.07012169
               2.91191638                4.95161000               82.08985753                0.01000000               -0.16964403               -0.22211117                0.08262114                1.37845872                0.06857963                0.05790350
               3.91026546                4.95406521               82.09401486                0.01000001               -0.18498948               -0.22454698                0.08787103                1.63735555                0.06940684                0.06786648
               4.90821659                4.95859950               82.09805182                0.01000000               -0.25045840               -0.17130046                0.09258898                1.88079458                0.07098144                0.07071825
               5.90525630                4.96435352               82.10198758                0.01000006               -0.36163612               -0.07755250                0.09890519                2.02633629                0.06916545                0.07243532
               6.90098386                4.96995931               82.10574584                0.01000009               -0.47877077                0.02361217                0.10753553                2.08499772                0.05708160                0.08169445
               7.89568088                4.97418994               82.10917123                0.01000000               -0.43678623                0.03465746                0.11626679                2.07599643                0.04242573                0.10425533
               8.89224814                4.97368079               82.11232177                0.01000001               -0.15006167               -0.25000082                0.12358840                1.82824762                0.02576537                0.18499399
               9.89267965                4.96059402               82.11524761                0.01000002                0.04315062               -1.01314904                0.12467371                1.19645470                0.00763073                0.28983921
              -0.06858652                5.96238256               82.08050690                0.86097558               -0.02303102               -0.20373130                0.07125467                0.32149638                0.01383579                0.04709903
               0.93118317                5.95313608               82.08416926                0.01000001               -0.24394072                0.07930219                0.08501401                0.57884917                0.03535814                0.08873083
               1.92653467                5.94970109               82.08827783                0.01000002               -0.33821632               -0.17712291                0.08649753                0.97824389                0.05966702                0.04201994
               2.92441885                5.94904324               82.09278407                0.01000000               -0.15480414               -0.32962520                0.09143572                1.29184999                0.07476895                0.03699939
               3.92343859                5.95118353               82.09720141                0.01000000               -0.09981138               -0.37602230                0.09669755                1.65980664                0.07018599                0.03992769
               4.92242262                5.95636245               82.10156496                0.01000006               -0.13500343               -0.29706029                0.10120092                2.01393106                0.06957872                0.04199401
               5.92073852                5.96321309               82.10586977                0.01000001               -0.20567074               -0.15959015                0.10590421                2.20665695                0.06796006                0.04680289
               6.91830921                5.96974989               82.11007424                0.01000000               -0.24045276               -0.05813784                0.11161165                2.20995828                0.06204648                0.06502840
               7.91592946                5.97335181               82.11411630                0.01000031               -0.18458457               -0.06811422                0.11852677                1.95211295                0.04798194                0.10764946
               8.91461751                5.97036690               82.11792452                0.01000002               -0.08481456               -0.17530494                0.12501940                1.22208990                0.02528574                0.17713776
               9.91423317                5.95704136               82.12148847                0.01000000               -0.03843418               -0.10750707                0.12979445                0.60287524                0.00995815                0.27471796
              -0.05933937                6.96209061               82.08233842                1.00000000               -0.02609969               -0.03093162                0.08247341                0.00282670               -0.00074835               -0.04349208
               0.94039964                6.95293799               82.08621056                0.01000001               -0.16722873               -0.02001550                0.08825928                0.20247604                0.03189408                0.00402765
               1.93731606                6.94781276               82.09073861                0.01000001               -0.20643476               -0.29229500                0.09477917                0.73875667                0.07222156                0.00099154
               2.93627094                6.94501750               82.09530936                0.01000000               -0.05868368               -0.44120625                0.10076020                1.03477086                0.07446454                0.00806285
               3.93614238                6.94654476               82.10001704                0.01000003                0.00973495               -0.62064087                0.10608322                1.59111205                0.07782563                0.01123286
               4.93646564                6.95265829               82.10473564                0.01000000               -0.00701955               -0.42656942                0.10984793                2.05979701                0.07713520                0.01178518
               5.93600199                6.96116172               82.10949307                0.01000000               -0.07106642               -0.21493822                0.11311756                2.18880419                0.08076134                0.02497006
               6.93504431                6.96879655               82.11428737                0.01000002               -0.09479316               -0.10907073                0.11723421                2.08618363                0.07963152                0.05154641
               7.93410613                6.97282766               82.11901194                0.01000002               -0.10219617               -0.01474817                0.12299250                1.74391316                0.06596924                0.11246418
               8.93300039                6.97017469               82.12354449                0.01000000               -0.13589538                0.14190850                0.13045484                1.01996207                0.03715255                0.19635628
               9.93138822                6.95844388               82.12770965                0.01000000               -0.16121651                0.31348587                0.13909158                0.45651215                0.01929721                0.29973498
              -0.05022476                7.96176393               82.08412000                0.99999999               -0.02647019               -0.03252840                0.08958236                0.00239373               -0.00021669               -0.03808211
               0.94951054                7.95273577               82.08821914                0.99999999               -0.02724719               -0.02367665                0.09477276                0.00792262                0.00356750               -0.00400899
               1.94923030                7.94385519               82.09239728                0.01000070               -0.15641420               -0.21387175                0.10074616                0.41569620                0.04518799               -0.00814721
               2.94638226                7.94021911               82.09735556                0.01000000               -0.08051347               -0.51793298                0.10957804                0.82328736                0.09150571               -0.02652119
               3.94762003                7.93877071               82.10232701                0.01000000                0.13096739               -1.03705136                0.11562413                1.44635655                0.09037947               -0.06303410
               4.94900161                7.94783106               82.10744234                0.01000000                0.03781562               -0.40725394                0.11871650                2.01122172                0.10360263               -0.01139329
               5.94837634                7.95891433               82.11285010                0.01000001               -0.03173333               -0.18863906                0.12092973                1.90315466                0.11837555                0.00586395
               6.94836694                7.96756848               82.11831822                0.01000002                0.05266234               -0.14370407                0.12436647                1.71402604                0.12775366                0.03488376
               7.94942959                7.97305685               82.12402757                0.01000000                0.05167979               -0.04857749                0.12951101                1.55333642                0.11756823                0.10116832
               8.94940054                7.97320507               82.12949460                0.01000000               -0.13022767                0.33385078                0.13866542                1.16012046                0.07313797                0.28748153
               9.94682504                7.96331108               82.13446694                0.01000002               -0.25754989                0.78111246                0.15168440                0.71472962                0.05004074                0.35558998
              -0.04123516                8.96144004               82.08595719                1.00000000               -0.02980098               -0.03169220                0.09618072                0.00049082                0.00029862               -0.02429765
               0.95846683                8.95246446               82.09019146                0.99999998               -0.03091033               -0.02915025                0.10228001               -0.00017939                0.00324722               -0.00529802
               1.95814663                8.94353532               82.09445873                0.99999999               -0.03228305               -0.03251778                0.10893041                0.00134418                0.01210849                0.00781062
               2.95782117                8.93465884               82.09885752                0.99999999               -0.03445332               -0.29602877                0.11885443                0.12908122                0.01360256               -0.01879907
               3.95745757                8.92580374               82.10317346                0.01000000               -0.06373584               -0.66744877                0.12708585                1.42774062                0.12739384               -0.04682014
               4.95654645                8.94451321               82.10987409                0.01000001               -0.15649474               -0.17523340                0.12606292                1.73602032                0.21001106               -0.01655263
               5.95432767                8.95738894               82.11597029                0.01000002               -0.06820703               -0.12396313                0.12929049                1.17099743                0.17974855               -0.00539029
               6.95518231                8.96592247               82.12212110                0.01000001                0.26042967               -0.19293043                0.13359282                0.97173265                0.19080592                0.01532788
               7.95953627                8.97185611               82.12868280                0.01000002                0.53831270               -0.23818959                0.14005467                1.04228878                0.27775623                0.06711054
               8.96594857                8.97685170               82.13706642                0.99999997                0.29672631                0.15848507                0.14760175                1.08149909                0.16200694                0.18739717
               9.96547079                8.97406613               82.14206268                0.99999999               -0.04777739                0.50954592                0.17376453                0.79305137               -0.00745838                0.17377296
              -0.03226378                9.96113009               82.08793154                1.00000000               -0.03245474               -0.03099504                0.10380963               -0.00059497               -0.00745462               -0.01453052
               0.96741167                9.95215276               82.09218792                0.99999997               -0.03367044               -0.03116995                0.10977400               -0.00177869               -0.00516495               -0.00303101
               1.96706281                9.94320483               82.09644384                1.00000000               -0.03581004               -0.03304890                0.11487240               -0.00109356               -0.00197978                0.00402741
               2.96669547                9.93429854               82.10073012                0.99999999               -0.03711710               -0.03602974                0.12046707               -0.00172504                0.00030195               -0.00072562
               3.96632047                9.92542173               82.10501666                0.06236691               -0.72793280               -0.03820042                0.12726606                1.38768274                0.14898616                0.00160295
               4.95213681                9.94432639               82.11228876                0.01000002               -0.79667149               -0.01868192                0.13181698                1.10970282                0.30015850               -0.01511710
               5.95038704                9.95643507               82.11900753                0.01000000                0.05988054               -0.09538697                0.13721278                0.57511015                0.25909525               -0.00535935
               6.95333442                9.96370987               82.12563410                0.01000000                0.44795483               -0.22126012                0.14477591                0.40811077                0.26209766                0.00935605
               7.95934613                9.96829306               82.13286981                0.01000001                0.77430377               -0.35630480                0.15468718                0.61423192                0.30827422                0.05878580
               8.96882050                9.97637477               82.14103754                0.99999999                0.44555431               -0.04769312                0.17325603                0.54764045                0.16563074                0.00705795
               9.96825722                9.97350200               82.14603380                0.99999998               -0.05632800               -0.05641250                0.19941883               -0.00863435                0.00715493               -0.00715480
              -0.12757098               -0.03748477               83.06565528                0.99631848               -0.01958328               -0.02034019                0.07508728               -0.00053364                0.00331822                0.00427187
               0.87223318               -0.04202749               83.06814530                0.90684117               -0.01758717               -0.02511103                0.07591566                0.00069771                0.00206037                0.00549207
               1.87207727               -0.04642296               83.07061928                0.37272960                0.00833504               -0.02326804                0.08179013                0.04191542               -0.01093305                0.00304891
               2.87239988               -0.04982859               83.07297602                0.17571083                0.09069638               -0.02144396                0.12315411                0.16077514               -0.06862037                0.01445698
               3.87389120               -0.04908373               83.07510613                0.10834595                0.06669866                0.02677555                0.12698103                0.29215122                0.01847304                0.03297220
               4.87373386               -0.03994436               83.07919924                0.12514148               -0.17722065                0.04558416                0.10314604                0.17162571                0.15910537               -0.04406417
               5.87034679               -0.03296001               83.08285315                0.99837994               -0.18404948               -0.02688305                0.08628766                0.25314510                0.01096156                0.01913262
               6.87005287               -0.03103576               83.08549718                1.00000000               -0.03130589               -0.02708407                0.08767975                0.00018002               -0.04728417               -0.00308003
               7.86972067               -0.02918391               83.08792438                0.99999999               -0.03239771               -0.02660174                0.08967135                0.00093706               -0.05398784                0.00745420
               8.86940491               -0.02743471               83.09033680                1.00000000               -0.02983884               -0.02813555                0.08946093               -0.00060826               -0.04146379                0.00052740
               9.86912389               -0.02569238               83.09292753                1.00000000               -0.02810211               -0.02881320                0.09030911               -0.00190401               -0.02956503               -0.02275700
              -0.12303360                0.96231183               83.06768140                1.00000000               -0.02571422               -0.01994678                0.08063705               -0.00014570                0.00249637                0.00452980
               0.87670926                0.95772140               83.07016551                0.01000000               -0.02847113               -0.02696230                0.07793215                0.00771201                0.00721367                0.00862077
               1.87639698                0.95334436               83.07269321                0.01000001               -0.06856187               -0.00162293                0.07894872                0.04797017                0.04974523                0.08956159
               2.87533802                0.94995697               83.07591159                0.01000000               -0.22631881                0.07522170                0.06832835                0.23355750                0.16478448                0.06153333
               3.87187060                0.95118403               83.07950250                0.01000002               -0.39748830                0.14116063                0.06062339                0.65829967                0.17181053               -0.01220745
               4.86738825                0.96051148               83.08257819                0.01000000               -0.17233316               -0.07011575                0.09711495                0.79227271                0.06455200               -0.00514640
               5.86842394                0.96677116               83.08610440                0.01000001                0.03891831               -0.19353454                0.09430987                0.45576867                0.06094395                0.04921788
               6.86816662                0.96869340               83.08895915                0.10366392               -0.02472116                0.00572809                0.09355630                0.00670941                0.02397048                0.13633482
               7.86792951                0.97055007               83.09184436                1.00000000               -0.02567776               -0.02787904                0.09664517                0.00553500                0.00948091                0.01646567
               8.86765306                0.97228394               83.09446658                0.99999999               -0.02834957               -0.02979641                0.09786229               -0.00082292               -0.00393841                0.00477090
               9.86736252                0.97401949               83.09707687                0.99999999               -0.02905420               -0.03038607                0.09868146               -0.00226785               -0.00309317               -0.02340670
              -0.11839304                1.96211630               83.06969659                0.55976026               -0.02520625               -0.01641580                0.09062837                0.00880774                0.00205616                0.00390178
               0.88135489                1.95743327               83.07222415                0.01000001               -0.04029266               -0.03607904                0.07965162                0.04741827                0.09271904                0.02330718
               1.88080110                1.95354458               83.07660746                0.01000001               -0.10617646               -0.01809245                0.01380592                0.23706672                0.19034855                0.13157820
               2.87923137                1.95167585               83.08019932                0.01000000               -0.21492083                0.10117930                0.05707596                0.56211210                0.11615688                0.10633784
               3.87650269                1.95373948               83.08356169                0.01000000               -0.26195952                0.13022312                0.12939237                0.97640352                0.12603215                0.07673864
               4.87399218                1.95865332               83.08684168                0.01000001               -0.26112237               -0.14299573                0.11919785                1.18703299                0.10660119                0.09160120
               5.87128024                1.96316930               83.09000937                0.01000005               -0.37920147               -0.21948557                0.11613582                1.01223581                0.13234733                0.10065431
               6.86640815                1.96907880               83.09523661                0.01000002               -0.25197044               -0.13016233                0.16043589                0.67615964               -0.07525289                0.18910973
               7.86624083                1.97025851               83.09595296                0.01000001               -0.02445547               -0.15258272                0.10579139                0.22280068               -0.06936612                0.06672158
               8.86591904                1.97196936               83.09866115                1.00000000               -0.03167016               -0.03233687                0.10611548               -0.00051528                0.02012718                0.02467474
               9.86560743                1.97369990               83.10117186                1.00000000               -0.03116083               -0.03284299                0.10561333               -0.00191276                0.01060197               -0.02098812
              -0.11349139                2.96198351               83.07174970                0.19224897               -0.02792751                0.05969279                0.11378036                0.14413021                0.00280454               -0.00403030
               0.88622934                2.95699982               83.07447420                0.01000000                0.01935585               -0.16135229                0.07723635                0.20612067                0.12792853                0.08995515
               1.88689573                2.95298251               83.07982628                0.01000000                0.00780099               -0.13257563                0.04455938                0.55238376                0.19673965                0.10200640
               2.88638536                2.95198056               83.08387860                0.01000000               -0.12372677               -0.03715677                0.06765903                0.89578683                0.14948853                0.10260642
               3.88442119                2.95378849               83.08742201                0.01000001               -0.23431317               -0.03664113                0.08697237                1.19400765                0.12733697                0.10992302
               4.88169909                2.95765156               83.09098303                0.01000000               -0.30890104               -0.08642427                0.10063954                1.34108562                0.11399054                0.11926481
               5.87824317                2.96238145               83.09466532                0.01000001               -0.35492445               -0.07739596                0.11132702                1.29828713                0.06782302                0.14002208
               6.87460061                2.96609015               83.09773145                0.01000000               -0.43741045               -0.16224433                0.12555690                1.12329114                0.06753926                0.04403107
               7.86949496                2.96749842               83.10090329                0.01000000               -0.51996195               -0.06730085                0.12409203                0.75387338                0.03571685                0.10321670
               8.86420137                2.97163720               83.10317355                1.00000000               -0.28158857               -0.03450570                0.11479165                0.12152498                0.00407862                0.03165257
               9.86386319                2.97336263               83.10533405                0.99999996               -0.03381729               -0.03430916                0.11115505               -0.00184289               -0.00239164               -0.01333000
              -0.10554305                3.96331015               83.07375214                0.10622062                0.00213662                0.11474544                0.15383078                0.34333033                0.02201488                0.04965686
               0.89447831                3.95420622               83.07766126                0.01000001                0.12055473               -0.38247724                0.05778135                0.66649916                0.06895378                0.23374669
               1.89686804                3.95089307               83.08305175                0.01000000                0.09314050               -0.19192048                0.05735453                0.98817340                0.14352094                0.09707049
               2.89634112                3.95093271               83.08734269                0.01000001               -0.10781029               -0.14214494                0.06647223                1.20582412                0.09961483                0.09004368
               3.89471184                3.95300666               83.09129413                0.01000000               -0.20600985               -0.11970751                0.08206435                1.42172494                0.09298525                0.10616055
               4.89222093                3.95692484               83.09513117                0.01000001               -0.29522203               -0.09937712                0.09374132                1.59240398                0.08819258                0.11143218
               5.88880740                3.96162138               83.09883791                0.01000000               -0.42319618               -0.06430397                0.10502136                1.63720039                0.08313257                0.10035915
               6.88375700                3.96583391               83.10239234                0.01000001               -0.65180713                0.01414699                0.11561901                1.53220092                0.06988381                0.10792219
               7.87577125                3.96891249               83.10555991                0.01000000               -1.06358394                0.14116095                0.12317004                1.43767790                0.01971419                0.09273668
               8.86248532                3.97127925               83.10751000                0.01000000               -0.68257719               -0.09855358                0.12308225                1.46839653                0.00512275                0.10684084
               9.86211971                3.97301372               83.10956249                0.06260439               -0.03656147               -0.82333695                0.11809864                1.47218334                0.00752786                0.12441199
              -0.08841692                4.96427842               83.07761801                0.11549279                0.03933236               -0.16159198                0.11722824                0.17415469               -0.01823948                0.17515565
               0.91197641                4.94935028               83.08137630                0.01000000               -0.08251875               -0.15290733                0.08986024                0.89731781                0.03314211                0.18012367
               1.90993271                4.94914410               83.08625401                0.01000001               -0.17940793               -0.16976822                0.07398060                1.28636647                0.10375824                0.08871502
               2.90838825                4.94913766               83.09066287                0.01000000               -0.15345697               -0.21246471                0.07992274                1.33059921                0.08442256                0.07427693
               3.90686357                4.95139434               83.09488183                0.01000001               -0.17278974               -0.22121918                0.08825652                1.57764912                0.07859168                0.07825518
               4.90493245                4.95566402               83.09899170                0.01000000               -0.23927320               -0.17432525                0.09708907                1.81191967                0.07713642                0.07849738
               5.90207810                4.96109537               83.10300411                0.01000000               -0.34894685               -0.08526351                0.10546931                1.95175585                0.07400210                0.07706226
               6.89795352                4.96637309               83.10684675                0.01000000               -0.46374578                0.01332528                0.11428349                2.01227998                0.06390128                0.07815972
               7.89280319                4.97032164               83.11036747                0.01000000               -0.42427223                0.02731512                0.12243615                1.99923376                0.04818353                0.09518181
               8.88946807                4.96966613               83.11355995                0.01000001               -0.14826316               -0.24051781                0.12626097                1.76275280                0.02895119                0.17733468
               9.88983793                4.95689589               83.11649882                0.01000002                0.03698542               -0.97511489                0.12760056                1.15452676                0.01002517                0.28847812
              -0.07220367                5.96007831               83.08121260                0.90703827               -0.02373407               -0.22271490                0.07058456                0.36522518                0.01056057                0.04622294
               0.92755899                5.95114807               83.08504320                0.01000001               -0.24941731                0.07775897                0.08864450                0.59655063                0.02554777                0.08308446
               1.92280799                5.94749770               83.08918158                0.01000002               -0.34280620               -0.17057022                0.09437580                0.95326459                0.06053911                0.05563270
               2.92070287                5.94668342               83.09370794                0.01000001               -0.15347650               -0.31675908                0.09480539                1.25266403                0.07824830                0.05005826
               3.91973846                5.94858228               83.09817227                0.01000000               -0.09722909               -0.36536160                0.09896758                1.60355912                0.07318626                0.05113077
               4.91875829                5.95343833               83.10258458                0.01000000               -0.13025073               -0.29208762                0.10425144                1.94304089                0.07025311                0.04930036
               5.91713344                5.95991611               83.10694337                0.01000000               -0.19909748               -0.16023918                0.10995324                2.12848117                0.06809693                0.04888130
               6.91477634                5.96610042               83.11121178                0.01000000               -0.23352749               -0.06173950                0.11633779                2.13092010                0.06285603                0.06118383
               7.91246289                5.96945879               83.11532131                0.01000001               -0.18051062               -0.06977648                0.12317118                1.88250401                0.05005383                0.09841334
               8.91116612                5.96646889               83.11919871                0.01000001               -0.08560877               -0.16953388                0.12990387                1.17799918                0.02719375                0.16823501
               9.91075072                5.95351142               83.12281169                0.01000000               -0.04154076               -0.10026357                0.13497959                0.58108346                0.01115820                0.27217585
              -0.06325194                6.95982412               83.08314801                1.00000000               -0.02600346               -0.02713688                0.07974318                0.00103947               -0.00045865               -0.03856805
               0.93648803                6.95090546               83.08711734                0.01000001               -0.16427033               -0.02401615                0.09166309                0.18701361                0.03140028               -0.00065365
               1.93346266                6.94573269               83.09171844                0.01000173               -0.20655369               -0.28036294                0.10130142                0.70941787                0.07064767                0.00291374
               2.93235695                6.94280248               83.09634198                0.01000000               -0.06414101               -0.42577615                0.10683986                0.99801925                0.07431628                0.01729725
               3.93217984                6.94408711               83.10109348                0.01000001                0.00512404               -0.60135805                0.11046325                1.53630239                0.07548894                0.02095603
               4.93245944                6.94982227               83.10584734                0.01000000               -0.00970983               -0.41546763                0.11337560                1.98863713                0.07261175                0.01809484
               5.93198564                6.95789059               83.11063836                0.01000000               -0.07150993               -0.21097971                0.11663141                2.11220279                0.07503424                0.02581688
               6.93102924                6.96513830               83.11547503                0.01000001               -0.09504218               -0.10807847                0.12079266                2.01212734                0.07436421                0.04645339
               7.93008480                6.96892611               83.12025859                0.01000000               -0.10269039               -0.01559900                0.12666578                1.68044419                0.06229408                0.10264112
               8.92897543                6.96627545               83.12486534                0.01000000               -0.13551266                0.13732734                0.13430112                0.98133442                0.03568690                0.18635697
               9.92737454                6.95489062               83.12911751                0.01000000               -0.16008862                0.30468249                0.14320842                0.43789365                0.01951279                0.29684009
              -0.05434554                7.95953557               83.08499447                0.99999999               -0.02637660               -0.02898785                0.08547979                0.00109885                0.00120433               -0.03795949
               0.94539069                7.95066775               83.08916932                1.00000000               -0.02775695               -0.02572360                0.09490428                0.00439668                0.00540082               -0.00526661
               1.94509932                7.94189044               83.09342159                0.01000000               -0.15409261               -0.20831963                0.10396494                0.39718621                0.04841425               -0.00632618
               2.94230884                7.93816789               83.09847311                0.01000000               -0.08273038               -0.50143632                0.11484043                0.79392923                0.09274604               -0.01968741
               3.94344471                7.93655512               83.10350500                0.01000000                0.12093532               -1.00460663                0.12093966                1.39873346                0.08657283               -0.05257122
               4.94472755                7.94512898               83.10864967                0.01000000                0.03083759               -0.39570239                0.12350949                1.94413231                0.09568749               -0.00611669
               5.94406147                7.95569652               83.11407757                0.01000001               -0.03720918               -0.18358441                0.12509231                1.83814319                0.10856519                0.00670135
               6.94398336                7.96393885               83.11957871                0.01000001                0.04365813               -0.13907130                0.12796119                1.65369739                0.11738424                0.03066493
               7.94493463                7.96914681               83.12533789                0.01000000                0.04224675               -0.04546552                0.13266557                1.49639794                0.10824005                0.09195172
               8.94482830                7.96921544               83.13089427                0.01000001               -0.13281889                0.32752458                0.14148528                1.11153680                0.06755867                0.27470017
               9.94227825                7.95960507               83.13599378                0.01000002               -0.25500494                0.75007875                0.15402131                0.68369436                0.04807580                0.35446121
              -0.04549431                8.95924437               83.08688806                1.00000000               -0.02845950               -0.02872948                0.09007353                0.00013841                0.00080055               -0.02594165
               0.95422109                8.95039098               83.09120013                0.99999998               -0.02997251               -0.02891666                0.09947509               -0.00031287                0.00401012               -0.00529104
               1.95390624                8.94156630               83.09554941                1.00000000               -0.03251124               -0.03270259                0.10921106                0.00065078                0.01433839                0.00966265
               2.95357087                8.93277375               83.10005863                1.00000000               -0.03564086               -0.28796445                0.12157520                0.12443879                0.01657813               -0.01531568
               3.95319342                8.92399497               83.10447078                0.01000000               -0.06850940               -0.64784926                0.13268401                1.38387134                0.12413860               -0.03953199
               4.95220068                8.94190822               83.11116004                0.01000001               -0.16273942               -0.16908401                0.13195377                1.68009859                0.20048129               -0.01254199
               5.94993863                8.95421890               83.11728620                0.01000001               -0.07738951               -0.11936629                0.13464750                1.13211803                0.17015792               -0.00438767
               6.95065289                8.96235688               83.12347650                0.01000000                0.23987670               -0.18521779                0.13790159                0.93849084                0.17957289                0.01339586
               7.95473617                8.96801680               83.13009840                0.01000002                0.50475099               -0.22667987                0.14321201                1.00843596                0.26361018                0.06170629
               8.96074791                8.97282594               83.13854846                0.99999998                0.27665032                0.15652719                0.14879830                1.04055619                0.15270488                0.17883222
               9.96026917                8.96989219               83.14379723                0.99999999               -0.04787371                0.48630122                0.17314583                0.75279808               -0.00745409                0.17148146
              -0.03663600                9.95896098               83.08892488                1.00000000               -0.03014942               -0.02833826                0.09501583               -0.00132580               -0.00941465               -0.01634276
               0.96306250                9.95008942               83.09325669                1.00000000               -0.03172139               -0.03015661                0.10415222               -0.00208861               -0.00756190               -0.00295558
               1.96272957                9.94123639               83.09758119                1.00000000               -0.03467779               -0.03299099                0.11263915               -0.00170746               -0.00478585                0.00499297
               2.96236895                9.93240860               83.10193984                1.00000000               -0.03709487               -0.03651471                0.12139054               -0.00210516               -0.00201280               -0.00103430
               3.96198767                9.92359813               83.10630913                0.09328655               -0.71316759               -0.03968431                0.13113396                1.34635982                0.14561926                0.00260096
               4.94810559                9.94174730               83.11363264                0.01000002               -0.78662494               -0.01609226                0.13801944                1.07604463                0.29710064               -0.01184714
               5.94625517                9.95330919               83.12040407                0.01000000                0.04248451               -0.09097070                0.14337343                0.55601388                0.25494781               -0.00441594
               6.94895529                9.96023449               83.12710274                0.01000000                0.41895549               -0.21223806                0.14984001                0.39544078                0.25653038                0.00926172
               7.95463428                9.96461322               83.13443131                0.01000001                0.74043700               -0.34035801                0.15801327                0.59538610                0.30345420                0.05709579
               8.96376403                9.97234598               83.14277320                0.99999999                0.42837117               -0.04799574                0.17387554                0.53750548                0.16171440                0.00705877
               9.96320171                9.96933109               83.14802197                1.00000000               -0.05623197               -0.05611013                0.19822309               -0.00823570                0.00715338               -0.00715323
              -0.13002884               -0.03948710               84.06635380                0.96901286               -0.01934126               -0.01894369                0.06773615                0.00116960                0.00464671                0.00621666
               0.86977775               -0.04401914               84.06890056                0.88663078               -0.01922288               -0.02482819                0.07628913                0.00131220                0.00784352                0.00249617
               1.86958670               -0.04844832               84.07149583                0.40636925               -0.00766945               -0.02786680                0.09163755                0.02261867                0.02738595                0.00224809
               2.86962436               -0.05235244               84.07445200                0.16868139                0.06844774               -0.03694569                0.14671380                0.15691023                0.01394037               -0.00054458
               3.87095566               -0.05275369               84.07707087                0.09676062                0.09337404               -0.01168826                0.23154148                0.36473636                0.03597492                0.01522245
               4.87149184               -0.04376164               84.08067313                0.10865099               -0.18113487                0.03328732                0.19425146                0.17246217                0.06200918                0.00751361
               5.86733296               -0.03607923               84.08372189                0.99926629               -0.22197344               -0.02894921                0.08783041                0.30963852               -0.01313172                0.01617376
               6.86705237               -0.03455461               84.08636598                1.00000000               -0.02908164               -0.02813049                0.08638550               -0.00093386               -0.04337936               -0.00150755
               7.86675133               -0.03305355               84.08880068                1.00000000               -0.02913729               -0.02689544                0.08584056               -0.00063687               -0.05350267                0.00929835
               8.86646963               -0.03159658               84.09120263                1.00000000               -0.02670787               -0.02694150                0.08356221               -0.00134074               -0.04326878                0.00116122
               9.86621717               -0.03012109               84.09378799                1.00000000               -0.02524549               -0.02641022                0.08143075               -0.00283269               -0.03141917               -0.02436297
              -0.12548510                0.96032346               84.06845354                1.00000000               -0.02434149               -0.01920198                0.07505742                0.00002142                0.00125493                0.00992572
               0.87427148                0.95573258               84.07095719                0.01000001               -0.02676789               -0.02631255                0.08077442                0.00297605                0.00570990                0.00432737
               1.87397954                0.95127301               84.07354332                0.01000002               -0.04626687               -0.01177055                0.09031953                0.01554486                0.03764292                0.07097164
               2.87334614                0.94727811               84.07670019                0.01000000               -0.18359569                0.06526636                0.08861644                0.15917979                0.10009847                0.08112096
               3.87030762                0.94712943               84.08008501                0.01000000               -0.42334546                0.16669578                0.06871524                0.61968514                0.15701274                0.05728594
               4.86487923                0.95657123               84.08372404                0.01000000               -0.22408975               -0.04079946                0.13800445                0.82467689                0.10791227                0.05573320
               5.86582583                0.96363128               84.08711174                0.01000000                0.03254796               -0.19448325                0.10556320                0.48675029                0.05012967                0.06370375
               6.86553019                0.96516409               84.08993991                0.21376033               -0.02799419               -0.00576172                0.10162514                0.00492526                0.02163048                0.11478013
               7.86526595                0.96667749               84.09281561                1.00000000               -0.02701045               -0.02878023                0.09772321                0.00290732                0.00918680                0.01905647
               8.86498998                0.96813400               84.09543001                0.99999998               -0.02762982               -0.02884248                0.09490980               -0.00092432               -0.00421468                0.00551473
               9.86471335                0.96961481               84.09803275                0.99999999               -0.02766356               -0.02829250                0.09246280               -0.00252786               -0.00342481               -0.02535013
              -0.12084664                1.96012886               84.07059240                0.58032985               -0.02656358               -0.01760507                0.08810974                0.00731786                0.00165545                0.02270251
               0.87888772                1.95545461               84.07306385                0.01000004               -0.04006429               -0.03339419                0.08678766                0.02974572                0.07548892                0.01465373
               1.87835207                1.95131626               84.07703450                0.01000001               -0.09680940               -0.02238686                0.05437179                0.18259183                0.13586017                0.11576243
               2.87695153                1.94895289               84.08074173                0.01000000               -0.21479179                0.10705969                0.05823083                0.47883853                0.12461694                0.13841359
               3.87405624                1.95058023               84.08439070                0.01000000               -0.27340006                0.19601148                0.07902125                0.89796842                0.10685590                0.13133657
               4.87148353                1.95542237               84.08790968                0.01000001               -0.27905624               -0.09288208                0.10423624                1.18139026                0.10351966                0.11866836
               5.86847511                1.96003110               84.09149104                0.01000001               -0.36894360               -0.22000213                0.13603022                0.98494166                0.13948410                0.11669218
               6.86410466                1.96533016               84.09585615                0.01000002               -0.23177772               -0.11805060                0.06711947                0.63967234                0.04682957                0.08175401
               7.86383956                1.96637084               84.09702669                0.01000000               -0.02954205               -0.14753275                0.10940653                0.21888501               -0.04503515                0.07032246
               8.86351382                1.96782657               84.09972005                0.99999999               -0.03172793               -0.03221066                0.10608507               -0.00040181                0.02053248                0.02560507
               9.86320500                1.96931306               84.10221164                1.00000000               -0.03088212               -0.03161946                0.10254771               -0.00224503                0.01074351               -0.02406153
              -0.11599025                2.95997136               84.07291678                0.20631353               -0.03307658                0.03861457                0.11759143                0.10985354                0.00462770                0.05239143
               0.88367899                2.95506469               84.07534889                0.01000000                0.00616694               -0.12177781                0.09498076                0.14370850                0.12385339                0.05885268
               1.88413309                2.95082527               84.08024079                0.01000000               -0.00100183               -0.13048749                0.05168429                0.48184331                0.18920880                0.11041604
               2.88365895                2.94941930               84.08443947                0.01000000               -0.11677892               -0.02254099                0.05988954                0.82912202                0.13221333                0.11789285
               3.88179751                2.95104966               84.08829418                0.01000001               -0.23013932               -0.01211844                0.08487118                1.14951265                0.11403800                0.12153910
               4.87905616                2.95471359               84.09204753                0.01000000               -0.30903200               -0.07069700                0.10568180                1.30065786                0.11131077                0.11994746
               5.87561687                2.95923123               84.09580082                0.01000001               -0.35361317               -0.07992821                0.11596197                1.27937304                0.10015274                0.10303045
               6.87198390                2.96280307               84.09920755                0.01000000               -0.42348206               -0.15046801                0.13519897                1.07561407                0.06350763                0.03503189
               7.86714723                2.96372684               84.10209260                0.01000000               -0.49720876               -0.06608124                0.11895266                0.71274012                0.02603746                0.10437172
               8.86203973                2.96748979               84.10433746                1.00000000               -0.27258868               -0.03546179                0.11818998                0.11491441                0.00461407                0.03268937
               9.86169546                2.96898242               84.10645260                0.99999993               -0.03442669               -0.03426245                0.11210636               -0.00218085               -0.00248600               -0.01658188
              -0.10883624                3.96090115               84.07562404                0.10174621               -0.02557811                0.11182668                0.19414928                0.40412086               -0.00406724                0.08782667
               0.89090798                3.95301905               84.07834846                0.01000000                0.12352852               -0.37461023                0.08191475                0.61472025                0.10613873                0.19722189
               1.89363433                3.94870651               84.08360484                0.01000000                0.12008028               -0.19127894                0.06118269                0.88984318                0.18481934                0.11921237
               2.89330959                3.94850207               84.08800446                0.01000001               -0.09410660               -0.13445040                0.06950422                1.14747008                0.12898943                0.11039807
               3.89175220                3.95033786               84.09211629                0.01000000               -0.19972347               -0.11487438                0.08595300                1.36086533                0.10987054                0.11004680
               4.88931512                3.95400843               84.09610669                0.01000000               -0.28895562               -0.09987745                0.10143486                1.53377710                0.10186613                0.10418231
               5.88597309                3.95843254               84.09996419                0.01000000               -0.40968891               -0.07209633                0.11536202                1.57883944                0.09198745                0.08870843
               6.88112134                3.96232080               84.10358147                0.01000000               -0.62827221               -0.00500043                0.12363226                1.47656538                0.07926153                0.08091308
               7.87340764                3.96504922               84.10681480                0.01000000               -1.02824079                0.13026725                0.12810829                1.37903285                0.02471609                0.08200399
               8.86055652                3.96711733               84.10877817                0.01000001               -0.66157623               -0.09755118                0.13023207                1.41173443                0.00890943                0.10374987
               9.86017612                3.96862782               84.11077241                0.20014508               -0.03804041               -0.79340220                0.12282284                1.41639509                0.00892162                0.12218629
              -0.09214363                4.96220789               84.07912823                0.11199395                0.03116601               -0.15620611                0.17156332                0.17644600                0.00623614                0.08282544
               0.90816803                4.94757249               84.08240152                0.01000000               -0.07047145               -0.19811663                0.12241322                0.88044845                0.06868992                0.20677597
               1.90644694                4.94699969               84.08699241                0.01000001               -0.15955088               -0.16786038                0.07788417                1.23020917                0.12333029                0.11548168
               2.90497701                4.94673029               84.09145598                0.01000000               -0.14692376               -0.20683870                0.08358165                1.27180063                0.10610643                0.09640837
               3.90350846                4.94875217               84.09577999                0.01000000               -0.16699907               -0.21716842                0.09350369                1.51296115                0.09404541                0.08901020
               4.90163703                4.95271604               84.09999360                0.01000000               -0.23135839               -0.17578020                0.10389497                1.73893042                0.08653518                0.07952808
               5.89888129                4.95778931               84.10409696                0.01000001               -0.33692484               -0.09380301                0.11317145                1.87435995                0.08129297                0.06912819
               6.89489853                4.96270307               84.10803151                0.01000000               -0.44749710                0.00122427                0.12157408                1.93049602                0.06998063                0.06645089
               7.88993135                4.96633218               84.11161995                0.01000000               -0.41013568                0.01898718                0.12845266                1.91858345                0.05327740                0.08114548
               8.88669582                4.96553877               84.11484699                0.01000003               -0.14644770               -0.23455664                0.13232081                1.69483432                0.03208095                0.16733688
               9.88700240                4.95311438               84.11779962                0.01000002                0.03065817               -0.93808119                0.13422648                1.11027412                0.01230826                0.28764194
              -0.07603651                5.95777703               84.08191859                0.95458468               -0.02383406               -0.23352612                0.07042889                0.37079032                0.00776941                0.01090716
               0.92372515                5.94905672               84.08594215                0.01000000               -0.24413892                0.06131572                0.09018944                0.59307314                0.01752411                0.06957581
               1.91908071                5.94534931               84.09016534                0.01000001               -0.33660157               -0.16843353                0.10517983                0.91830088                0.06442183                0.08154843
               2.91699312                5.94436530               84.09468018                0.01000001               -0.15275191               -0.30660097                0.10007859                1.20252036                0.08132729                0.06896230
               3.91602567                5.94599449               84.09918076                0.01000000               -0.09682641               -0.35605047                0.10419575                1.53829349                0.07696389                0.06319525
               4.91505659                5.95049282               84.10364999                0.01000001               -0.12762066               -0.28804683                0.10955204                1.86489774                0.07251007                0.05309851
               5.91347326                5.95655648               84.10806884                0.01000000               -0.19341036               -0.16227258                0.11532569                2.04230731                0.06867225                0.04506576
               6.91118838                5.96234528               84.11240100                0.01000000               -0.22648249               -0.06721881                0.12150485                2.04426548                0.06358789                0.05059491
               7.90894361                5.96542896               84.11657972                0.01000001               -0.17586853               -0.07341407                0.12840636                1.80556337                0.05132462                0.08469422
               8.90767101                5.96242620               84.12052260                0.01000001               -0.08566163               -0.16662531                0.13562407                1.12983111                0.02847479                0.15672504
               9.90723038                5.94986619               84.12418806                0.01000000               -0.04406345               -0.09578972                0.14178666                0.55758638                0.01212779                0.26793025
              -0.06728721                6.95753737               84.08393328                1.00000000               -0.02555809               -0.02561666                0.07728628                0.00045076               -0.00003835               -0.03320744
               0.93245721                6.94879880               84.08804382                0.01000001               -0.16042057               -0.02545331                0.09262639                0.17799721                0.03087797               -0.00458066
               1.92950438                6.94363102               84.09276463                0.01000001               -0.20374876               -0.27258023                0.11158544                0.68067759                0.06949621                0.00319147
               2.92838223                6.94059827               84.09744616                0.01000000               -0.06787871               -0.41282902                0.11576953                0.95803982                0.06937792                0.03036024
               3.92814680                6.94163116               84.10222631                0.01000000               -0.00046192               -0.58262534                0.11565431                1.47530454                0.07134649                0.03179827
               4.92837299                6.94695510               84.10700316                0.01000000               -0.01359102               -0.40483996                0.11821541                1.90994441                0.06715432                0.02400285
               5.92787498                6.95454386               84.11182570                0.01000000               -0.07308183               -0.20779840                0.12078071                2.02744668                0.06881830                0.02413709
               6.92691136                6.96135869               84.11670322                0.01000001               -0.09566410               -0.10824855                0.12449390                1.92929839                0.06875195                0.03812493
               7.92596170                6.96486390               84.12154525                0.01000001               -0.10280747               -0.01864434                0.13042916                1.60913934                0.05865377                0.08967324
               8.92485521                6.96220626               84.12623052                0.01000003               -0.13437776                0.12948802                0.13881131                0.93797440                0.03439082                0.17382263
               9.92327415                6.95119858               84.13057381                0.01000000               -0.15810628                0.29271969                0.14871574                0.41709033                0.01967387                0.29090872
              -0.05855036                7.95726469               84.08582960                1.00000000               -0.02581981               -0.02732863                0.08177422                0.00049218                0.00250199               -0.03693305
               0.94119144                7.94854765               84.09011722                1.00000000               -0.02774232               -0.02637698                0.09448810                0.00307430                0.00681044               -0.00671514
               1.94089479                7.93989770               84.09447658                0.01000001               -0.15188346               -0.20310256                0.10679196                0.38157918                0.05093103               -0.00566662
               2.93815377                7.93610872               84.09965237                0.01000001               -0.08599309               -0.48562423                0.12247980                0.76467049                0.09254578               -0.01308003
               3.93917493                7.93434198               84.10474580                0.01000000                0.10945062               -0.97111009                0.12775135                1.34897162                0.08029016               -0.04097552
               4.94034278                7.94239603               84.10991253                0.01000000                0.02218376               -0.38378499                0.12929364                1.87130917                0.08548355                0.00051066
               5.93961861                7.95240051               84.11535195                0.01000001               -0.04442404               -0.17845867                0.12957542                1.76618387                0.09714085                0.00732939
               6.93945430                7.96018031               84.12087745                0.01000001                0.03301092               -0.13461677                0.13134032                1.58528868                0.10627934                0.02521564
               7.94027882                7.96505607               84.12668088                0.01000003                0.03207561               -0.04335441                0.13552759                1.43052301                0.09902635                0.08127338
               8.94009582                7.96501596               84.13232430                0.01000000               -0.13456438                0.31715809                0.14436705                1.05565694                0.06237599                0.25988211
               9.93758754                7.95572059               84.13754736                0.01000002               -0.25082788                0.71344908                0.15690983                0.64796304                0.04618396                0.34976614
              -0.04984329                8.95699080               84.08775866                0.99999999               -0.02710305               -0.02675516                0.08411249               -0.00022069                0.00126712               -0.02696698
               0.94988568                8.94827126               84.09218096                0.99999998               -0.02909085               -0.02835693                0.09667105               -0.00045766                0.00459570               -0.00549195
               1.94957490                8.93956897               84.09664295                1.00000000               -0.03271615               -0.03282937                0.10947915                0.00018357                0.01615049                0.01093053
               2.94923136                8.93088579               84.10128902                0.99999999               -0.03679860               -0.27966470                0.12477281                0.12067471                0.01930691               -0.01246596
               3.94883893                8.92220896               84.10582714                0.01000001               -0.07453551               -0.62724721                0.13896504                1.33793726                0.11975241               -0.03143708
               4.94774065                8.93927940               84.11251316                0.01000003               -0.17122759               -0.16258807                0.13948115                1.62034124                0.18896382               -0.00712066
               5.94541437                8.95097468               84.11866324                0.01000001               -0.08895416               -0.11447472                0.14120599                1.08921168                0.15856234               -0.00276510
               6.94596157                8.95866635               84.12487913                0.01000003                0.21610682               -0.17688448                0.14248948                0.90028101                0.16698589                0.01136262
               7.94973651                8.96399681               84.13154704                0.01000000                0.46711340               -0.21434526                0.14616843                0.96745012                0.24879634                0.05584475
               8.95530384                8.96854942               84.14004238                0.99999999                0.25438243                0.15252523                0.14997972                0.99195312                0.14324924                0.16962933
               9.95482416                8.96546757               84.14552560                0.99999999               -0.04796767                0.45944382                0.17252814                0.70757455               -0.00745015                0.16782850
              -0.04111571                9.95672959               84.08983185                1.00000000               -0.02801793               -0.02612072                0.08655870               -0.00214960               -0.01093976               -0.01768814
               0.95860412                9.94798051               84.09427097                0.99999999               -0.03001775               -0.02907490                0.09882457               -0.00258057               -0.00957541               -0.00301562
               1.95828394                9.93924112               84.09869662                0.99999999               -0.03384200               -0.03278544                0.11041905               -0.00235036               -0.00740518                0.00559449
               2.95792728                9.93051542               84.10315793                0.99999998               -0.03719399               -0.03703658                0.12201747               -0.00261233               -0.00442352               -0.00139581
               3.95754006                9.92179704               84.10763934                0.19536041               -0.69716935               -0.04119209                0.13463417                1.30155558                0.14244387                0.00359899
               4.94398389                9.93914426               84.11504915                0.01000095               -0.77620855               -0.01351398                0.14712579                1.04002260                0.29467923               -0.00804353
               5.94201589                9.95011102               84.12187499                0.01000000                0.02269522               -0.08636655                0.15260779                0.53506943                0.24931135               -0.00317799
               6.94443779                9.95664262               84.12863090                0.01000000                0.38644347               -0.20237329                0.15665120                0.38053019                0.24893016                0.00914407
               7.94974476                9.96076917               84.13603008                0.01000002                0.70131662               -0.32276440                0.16184947                0.57201709                0.29656548                0.05514424
               8.95846413                9.96806647               84.14451505                0.99999995                0.40789918               -0.04829568                0.17449403                0.52304361                0.15714726                0.00705972
               9.95790274                9.96490946               84.14999826                0.99999999               -0.05613828               -0.05581044                0.19704246               -0.00784210                0.00715203               -0.00715190
              -0.13257157               -0.04155993               85.06701000                0.94659017               -0.01804042               -0.01683314                0.06385904                0.00248834                0.00440436                0.00467494
               0.86724802               -0.04609083               85.06967108                0.87044222               -0.01774354               -0.02645188                0.07714788                0.00291257                0.01254766               -0.00170259
               1.86707355               -0.05047299               85.07245203                0.46738922               -0.00721842               -0.03018888                0.09775973                0.02107548                0.05699505                0.00130856
               2.86710365               -0.05433587               85.07591030                0.19857286                0.06580065               -0.03744726                0.13558486                0.15273668                0.11402261               -0.00357929
               3.86838957               -0.05480756               85.07973696                0.11466419                0.06096816               -0.01825319                0.22239072                0.38174250                0.10861933               -0.02732719
               4.86832302               -0.04589591               85.08308427                0.14639134               -0.19991343                0.02854940                0.18881103                0.18924158               -0.12365473                0.05225889
               5.86439130               -0.03941623               85.08460976                1.00000000               -0.21082618               -0.03076822                0.09066634                0.26604187               -0.08175078                0.01251127
               6.86410649               -0.03821378               85.08722489                1.00000000               -0.02886639               -0.02873951                0.08552251               -0.00169207               -0.03857264                0.00087101
               7.86381397               -0.03702780               85.08964119                0.99999998               -0.02771347               -0.02670082                0.08217968               -0.00170562               -0.05100640                0.01075058
               8.86355222               -0.03586625               85.09200804                0.99999999               -0.02446011               -0.02569381                0.07755483               -0.00212588               -0.04297080                0.00150661
               9.86332477               -0.03466914               85.09455615                1.00000000               -0.02274541               -0.02420213                0.07259788               -0.00391007               -0.03167819               -0.02510854
              -0.12801579                0.95827174               85.06918255                0.97379305               -0.02505297               -0.01664815                0.07236670                0.00072849               -0.00049941                0.01248346
               0.87173368                0.95364466               85.07178100                0.01000001               -0.02886866               -0.02872678                0.08413101                0.00639716                0.00383291               -0.00046239
               1.87140683                0.94922513               85.07449960                0.01000000               -0.04676853               -0.01823253                0.09868407                0.02059373                0.02641845                0.05775328
               2.87079831                0.94528966               85.07768392                0.01000003               -0.17099106                0.05203558                0.10249116                0.15243158                0.04202736                0.09417112
               3.86798701                0.94500991               85.08087681                0.01000000               -0.41392696                0.14823012                0.10359614                0.60911080                0.09699672                0.14178322
               4.86251977                0.95438959               85.08533828                0.01000000               -0.23881793               -0.07004465                0.18778238                0.79526994                0.12971947                0.11545113
               5.86321065                0.96027609               85.08821567                0.01000000                0.01877967               -0.18848564                0.11442621                0.44206972                0.02112317                0.05600484
               6.86289536                0.96149883               85.09099165                0.33038490               -0.02937498               -0.01699875                0.10730613                0.00658453                0.01694274                0.09154464
               7.86262315                0.96270519               85.09379883                1.00000000               -0.02718630               -0.02921186                0.09835914                0.00201225                0.00701602                0.02041883
               8.86235163                0.96387681               85.09636477                0.99999998               -0.02672993               -0.02798673                0.09204218               -0.00119205               -0.00452024                0.00586231
               9.86208855                0.96508884               85.09892613                1.00000000               -0.02630793               -0.02660218                0.08663801               -0.00307995               -0.00344855               -0.02679487
              -0.12330284                1.95810711               85.07145879                0.61546478               -0.02745840               -0.01360170                0.08763250                0.01039014                0.00083884                0.04057235
               0.87642258                1.95333464               85.07395990                0.01000001               -0.04283673               -0.03761962                0.09327133                0.03519892                0.06173152                0.00888922
               1.87584043                1.94916236               85.07769490                0.01000001               -0.10275405               -0.03023189                0.07669394                0.17763487                0.11075649                0.10237940
               2.87436750                1.94670484               85.08136394                0.01000000               -0.21842873                0.08930171                0.07473765                0.45863071                0.10266270                0.16550443
               3.87147185                1.94815705               85.08514212                0.01000000               -0.27026325                0.17418840                0.08808344                0.85526228                0.11739665                0.20052278
               4.86896223                1.95270320               85.08892640                0.01000001               -0.26742010               -0.12680385                0.11076271                1.12779567                0.13139151                0.13284885
               5.86612345                1.95681406               85.09272997                0.01000000               -0.35765746               -0.21535923                0.12527280                0.93093018                0.15116017                0.11317612
               6.86180908                1.96144625               85.09657900                0.01000003               -0.23236084               -0.12166753                0.08110976                0.61287587                0.04138619                0.07969047
               7.86147624                1.96238796               85.09814109                0.01000000               -0.03321753               -0.14537239                0.11286208                0.21952052               -0.02309937                0.06884236
               8.86114473                1.96357401               85.10078285                1.00000000               -0.03185635               -0.03219744                0.10649112               -0.00035624                0.02043754                0.02629021
               9.86083911                1.96479882               85.10322282                0.99999998               -0.03056254               -0.03093053                0.09989504               -0.00278708                0.01073949               -0.02681729
              -0.11826305                2.95799971               85.07410153                0.24930677               -0.03545475                0.03740623                0.11647287                0.10073502                0.00554256                0.11072417
               0.88138240                2.95289226               85.07637382                0.01000003               -0.00738095               -0.11183064                0.10681867                0.14092443                0.11572442                0.03632864
               1.88158933                2.94862049               85.08085997                0.01000000               -0.02030811               -0.13183341                0.07470808                0.46257166                0.19045481                0.10249953
               2.88097624                2.94707569               85.08507639                0.01000000               -0.12477148               -0.02903394                0.07559591                0.79575749                0.14802955                0.14128133
               3.87909390                2.94849368               85.08911943                0.01000001               -0.22787872               -0.02176337                0.09124393                1.10564901                0.13228115                0.14694883
               4.87641866                2.95185351               85.09309667                0.01000000               -0.30038454               -0.08203969                0.11033089                1.24616743                0.13287004                0.12833566
               5.87308621                2.95596891               85.09698456                0.01000000               -0.34198432               -0.08573253                0.12010437                1.21304404                0.11791436                0.08923794
               6.86957898                2.95906548               85.10043543                0.01000000               -0.41002044               -0.14090168                0.12304785                1.02556871                0.07752473                0.03520237
               7.86488580                2.95979774               85.10328235                0.01000001               -0.48226615               -0.06813699                0.12171763                0.68800074                0.03213859                0.09882666
               8.85993365                2.96323286               85.10553735                0.99999998               -0.26512982               -0.03646449                0.12198334                0.11168279                0.00857321                0.03412529
               9.85958320                2.96447023               85.10757618                0.99999997               -0.03504511               -0.03441975                0.11232137               -0.00273469               -0.00284281               -0.01966559
              -0.11107325                3.95885523               85.07763513                0.12323113               -0.03064617                0.08203380                0.17480534                0.39549322               -0.01785385                0.14950351
               0.88862029                3.95109803               85.07929956                0.01000000                0.09908430               -0.35000747                0.10866354                0.58870464                0.15337904                0.14216764
               1.89090843                3.94652570               85.08427540                0.01000001                0.08945846               -0.18636300                0.08158361                0.83908319                0.21898633                0.12718727
               2.89040946                3.94612416               85.08873278                0.01000001               -0.10507094               -0.13427939                0.08376504                1.09713175                0.15352343                0.12651752
               3.88880702                3.94772178               85.09301319                0.01000000               -0.19995516               -0.11918015                0.09718998                1.30255991                0.12934609                0.12050133
               4.88641035                3.95106241               85.09715987                0.01000000               -0.28173255               -0.10711115                0.11068234                1.46525790                0.11737940                0.10117143
               5.88317237                3.95509941               85.10114515                0.01000001               -0.39593652               -0.07978100                0.12157403                1.50728291                0.10629282                0.07415639
               6.87849162                3.95862821               85.10486499                0.01000000               -0.60517488               -0.00914481                0.12974027                1.40884863                0.08756177                0.06275358
               7.87106887                3.96102522               85.10812208                0.01000000               -0.98928595                0.11909395                0.13377449                1.31919840                0.03162681                0.07147225
               8.85870590                3.96284472               85.11011464                0.01000000               -0.63795955               -0.09822100                0.13720953                1.35407845                0.01576038                0.09946505
               9.85830968                3.96411042               85.11201894                0.21851128               -0.03962276               -0.76185789                0.12578239                1.35635120                0.00989554                0.12042375
              -0.09483877                4.95964038               85.08104928                0.14641725                0.03248054               -0.16819132                0.15885512                0.17406596                0.03827183               -0.04697953
               0.90548603                4.94589211               85.08382456                0.01000000               -0.09081844               -0.21003668                0.16353313                0.81476375                0.09969407                0.20289333
               1.90334486                4.94489323               85.08781169                0.01000001               -0.18816204               -0.15846254                0.09317417                1.14739702                0.12563444                0.13660244
               2.90172279                4.94439010               85.09233450                0.01000000               -0.15690015               -0.20258389                0.09553054                1.20606953                0.12671931                0.11268498
               3.90020685                4.94611008               85.09675190                0.01000000               -0.16883009               -0.21609563                0.10424724                1.44110490                0.10817714                0.09559611
               4.89834619                4.94971129               85.10106960                0.01000020               -0.22703980               -0.17858281                0.11275006                1.65866353                0.09612260                0.07569625
               5.89566606                4.95437329               85.10526754                0.01000000               -0.32580248               -0.10053616                0.12073760                1.78774031                0.08727155                0.05610312
               6.89183014                4.95888258               85.10927823                0.01000001               -0.43063994               -0.00938053                0.12768321                1.84259601                0.07486612                0.04751572
               7.88705326                4.96217962               85.11293653                0.01000000               -0.39500576                0.01010776                0.13472021                1.83423864                0.05779426                0.06347434
               8.88393002                4.96126844               85.11620636                0.01000001               -0.14372158               -0.23124285                0.14045284                1.62374108                0.03617583                0.15439712
               9.88417883                4.94923307               85.11918335                0.01000001                0.02488040               -0.90072966                0.14511553                1.06409635                0.01571608                0.28809305
              -0.08009540                5.95549141               85.08262117                0.98583474               -0.02418865               -0.21957093                0.07206136                0.30883825                0.00530485               -0.04456730
               0.91966272                5.94689729               85.08684699                0.01000000               -0.22731086                0.03733247                0.09232745                0.53266209                0.01479499                0.03907267
               1.91535839                5.94335644               85.09128517                0.01000000               -0.31743595               -0.17039682                0.10701486                0.86402881                0.07708906                0.10150680
               2.91331400                5.94207248               85.09570951                0.01000000               -0.15252277               -0.29763036                0.11037470                1.13017341                0.08356684                0.08241019
               3.91230793                5.94339987               85.10025619                0.01000002               -0.09967932               -0.34760248                0.11168777                1.46305901                0.08242523                0.06998665
               4.91132041                5.94749075               85.10477562                0.01000000               -0.12760274               -0.28357507                0.11667054                1.77728826                0.07337233                0.05182140
               5.90975588                5.95308869               85.10924988                0.01000000               -0.18916017               -0.16415344                0.12104942                1.94728667                0.06744520                0.03479575
               6.90753721                5.95844060               85.11364187                0.01000000               -0.21940476               -0.07291150                0.12608656                1.94966380                0.06231409                0.03449970
               7.90536778                5.96122738               85.11788944                0.01000000               -0.17049658               -0.07806056                0.13292676                1.72282917                0.05158182                0.06658594
               8.90412728                5.95821986               85.12191119                0.01000000               -0.08527202               -0.16591198                0.14252540                1.07865556                0.02976848                0.14211215
               9.90366234                5.94609583               85.12564742                0.01000000               -0.04649360               -0.09417879                0.15264674                0.53272616                0.01297969                0.26145809
              -0.07147378                6.95524896               85.08469373                1.00000000               -0.02519831               -0.02599356                0.07561559                0.00021230                0.00081495               -0.02789329
               0.92827424                6.94663876               85.08896987                0.01000001               -0.15379884               -0.02504945                0.09270488                0.17267671                0.03604505               -0.00715589
               1.92545024                6.94148529               85.09395015                0.01000001               -0.19956990               -0.27288257                0.14118838                0.65115707                0.05625277                0.01609687
               2.92428284                6.93843750               85.09865737                0.01000000               -0.07002363               -0.40045261                0.11654462                0.91246335                0.06410568                0.03368525
               3.92404977                6.93915803               85.10340656                0.01000000               -0.00398533               -0.56325460                0.12173828                1.40423584                0.06665367                0.04260163
               4.92420313                6.94403978               85.10821165                0.01000001               -0.01939159               -0.39307823                0.12356360                1.82214296                0.06029553                0.02663827
               5.92366194                6.95109022               85.11305397                0.01000000               -0.07592028               -0.20415605                0.12440671                1.93340269                0.06055925                0.01741763
               6.92268472                6.95742435               85.11796491                0.01000000               -0.09656784               -0.10866720                0.12735880                1.83854996                0.06180169                0.02498491
               7.92173058                6.96061841               85.12286718                0.01000001               -0.10250209               -0.02284410                0.13326484                1.53131837                0.05428129                0.07334519
               8.92063468                6.95795020               85.12764157                0.01000001               -0.13245786                0.11906743                0.14306208                0.89065722                0.03295928                0.15817154
               9.91908142                6.94734949               85.13209183                0.01000000               -0.15532600                0.27763886                0.15594102                0.39460267                0.01986610                0.28071531
              -0.06287075                7.95497154               85.08662996                0.99999998               -0.02493253               -0.02730954                0.07834118                0.00048689                0.00394013               -0.03590756
               0.93687992                7.94639630               85.09105908                0.99999999               -0.02732268               -0.02556810                0.09371931                0.00408675                0.00839921               -0.00743518
               1.93658280                7.93789879               85.09555743                0.01000000               -0.14946973               -0.19602123                0.10929533                0.36690387                0.05531309               -0.00945563
               2.93389053                7.93406343               85.10092270                0.01000001               -0.08962183               -0.47093134                0.13285504                0.73629798                0.09362662               -0.01258716
               3.93479036                7.93213477               85.10606002                0.01000001                0.09702744               -0.93426665                0.13512927                1.29401542                0.07076739               -0.02714252
               4.93583108                7.93962918               85.11123554                0.01000000                0.01245023               -0.37052996                0.13462933                1.79057607                0.07226032                0.00682180
               5.93503936                7.94900557               85.11666908                0.01000000               -0.05255314               -0.17248357                0.13249076                1.68600254                0.08365809                0.00502616
               6.93478002                7.95626726               85.12220551                0.01000001                0.02144676               -0.12968407                0.13335459                1.50945067                0.09475203                0.01647172
               7.93546830                7.96077050               85.12804844                0.01000002                0.02146608               -0.04169589                0.13739895                1.35761061                0.09024205                0.06851119
               8.93520934                7.96060121               85.13378161                0.01000001               -0.13562475                0.30387907                0.14650488                0.99388794                0.05775643                0.24311847
               9.93275580                7.95164861               85.13913198                0.01000000               -0.24535329                0.67241866                0.15995978                0.60835495                0.04455685                0.34070055
              -0.05431358                8.95470277               85.08857031                0.99999999               -0.02577067               -0.02553509                0.07821150               -0.00065082                0.00175502               -0.02831003
               0.94542871                8.94612740               85.09313355                0.99999998               -0.02826144               -0.02736012                0.09382946               -0.00058035                0.00519839               -0.00579151
               1.94512119                8.93756487               85.09773899                0.99999995               -0.03279482               -0.03289259                0.10977093                0.00015846                0.01812307                0.01212065
               2.94477282                8.92901887               85.10255408                0.99999952               -0.03784330               -0.27102843                0.12859494                0.11775267                0.02244554               -0.01103769
               3.94436432                8.92047269               85.10725008                0.01000000               -0.08144791               -0.60445325                0.14605651                1.28826442                0.11503696               -0.02174159
               4.94314386                8.93662919               85.11394966                0.01000001               -0.18102057               -0.15573640                0.14846479                1.55501517                0.17554376                0.00019736
               5.94074391                8.94764055               85.12011032                0.01000000               -0.10175242               -0.10917224                0.14761550                1.04108825                0.14447641               -0.00168574
               6.94110881                8.95483067               85.12632629                0.01000001                0.19024622               -0.16767161                0.14579530                0.85713668                0.15315939                0.00764607
               7.94454884                8.95978449               85.13302177                0.01000005                0.42627607               -0.20102396                0.14806667                0.92051305                0.23406416                0.04910399
               8.94963433                8.96402778               85.14154805                0.99999999                0.23024500                0.14703188                0.15114676                0.93714135                0.13397079                0.15992756
               9.94915374                8.96079787               85.14724779                1.00000000               -0.04805937                0.42970642                0.17191125                0.65813446               -0.00744655                0.16259295
              -0.04573302                9.95446083               85.09065605                1.00000000               -0.02607514               -0.02419389                0.07835253               -0.00311764               -0.01253589               -0.01920194
               0.95400622                9.94584910               85.09523318                1.00000000               -0.02862387               -0.02783003                0.09367843               -0.00324350               -0.01172351               -0.00321791
               1.95369450                9.93724094               85.09978958                1.00000000               -0.03342339               -0.03239251                0.10812964               -0.00298115               -0.01050304                0.00605362
               2.95333776                9.92864286               85.10438019                0.99999997               -0.03745831               -0.03760056                0.12212974               -0.00326764               -0.00757623               -0.00189045
               3.95294533                9.92004571               85.10900182                0.23411909               -0.67871142               -0.04269852                0.13737211                1.25168037                0.14107907                0.00486532
               4.93976353                9.93651446               85.11657515                0.01000000               -0.76428433               -0.01147287                0.16244829                1.00078768                0.29573871               -0.00342545
               5.93765965                9.94682212               85.12345622                0.01000000                0.00076379               -0.08184254                0.16678329                0.51154171                0.24181261               -0.00211071
               6.93977880                9.95291383               85.13023576                0.01000000                0.35109016               -0.19168426                0.16479512                0.36339412                0.23714592                0.00845335
               7.94468145                9.95675002               85.13766830                0.01000001                0.65799928               -0.30344769                0.16506957                0.54466232                0.28699451                0.05288695
               8.95293879                9.96354185               85.14626308                1.00000000                0.38484361               -0.04859300                0.17511165                0.50508175                0.15181257                0.00706072
               9.95237832                9.96024273               85.15196282                1.00000000               -0.05604689               -0.05551337                0.19587623               -0.00745339                0.00715094               -0.00715069
              -0.13526292               -0.04373871               86.06763098                0.93082889               -0.01504066               -0.01369514                0.06144243                0.00366193                0.00390127                0.00207539
               0.86458667               -0.04827302               86.07044352                0.85535682               -0.01248431               -0.02924679                0.07694864                0.00551192                0.01698422               -0.00531249
               1.86448739               -0.05251730               86.07345102                0.53791657                0.00166063               -0.02974968                0.09912033                0.02684821                0.07185709               -0.00045480
               2.86461988               -0.05597126               86.07716369                0.25588180                0.07333406               -0.03208572                0.11461494                0.16582958                0.14899509               -0.00015679
               3.86595407               -0.05557992               86.08151868                0.16871316               -0.02369677                0.01398599                0.13162375                0.30125157                0.09699466               -0.01650754
               4.86414595               -0.04722447               86.08444935                0.25819689               -0.21983700                0.02625998                0.11051082                0.22583673               -0.19191674                0.11110743
               5.86155733               -0.04304082               86.08553522                0.99999999               -0.14482286               -0.03280175                0.09578068                0.16144768               -0.09443502                0.00802200
               6.86124949               -0.04207071               86.08807643                1.00000000               -0.03046418               -0.02884212                0.08470989               -0.00200951               -0.03438652                0.00421573
               7.86094805               -0.04115381               86.09044427                0.99999999               -0.02771176               -0.02602196                0.07834175               -0.00195046               -0.04793900                0.01195192
               8.86069525               -0.04027991               86.09275372                0.99999999               -0.02303243               -0.02436521                0.07177201               -0.00276806               -0.04175622                0.00154781
               9.86048740               -0.03936322               86.09523995                1.00000000               -0.02078554               -0.02245351                0.06497776               -0.00490457               -0.03132549               -0.02563383
              -0.13069199                0.95612434               86.06990088                0.93522991               -0.02769251               -0.01199845                0.07245577                0.00255811               -0.00259881                0.01405182
               0.86903108                0.95143451               86.07263981                0.01000000               -0.03515102               -0.03437039                0.08726909                0.01802150                0.00109725               -0.00386565
               1.86860499                0.94718520               86.07551700                0.01000000               -0.06107979               -0.02396061                0.10307244                0.04745742                0.01278256                0.05055353
               2.86780949                0.94370789               86.07875002                0.01000000               -0.20058967                0.04208782                0.11002134                0.21562116                0.01791878                0.10118305
               3.86459320                0.94455994               86.08215693                0.01000000               -0.38373630                0.09639895                0.14262318                0.61089374                0.08614906                0.18279430
               4.86013476                0.95303813               86.08747968                0.01000000               -0.19991361               -0.12272830                0.18057012                0.72243933                0.12659478                0.08455671
               5.86059492                0.95663116               86.08940026                0.01000001                0.00755637               -0.17167262                0.12080503                0.34455683               -0.03036668                0.04303462
               6.86028589                0.95764087               86.09208604                0.44710911               -0.02808905               -0.02245551                0.10939546                0.01132904                0.01136168                0.07381771
               7.86003314                0.95858597               86.09478279                1.00000000               -0.02568065               -0.02910099                0.09760475                0.00306180                0.00427135                0.02103829
               8.85977228                0.95947644               86.09727085                0.99999999               -0.02557388               -0.02701467                0.08907958               -0.00140660               -0.00473905                0.00613334
               9.85952167                0.96041225               86.09976551                1.00000000               -0.02506122               -0.02550566                0.08184220               -0.00379643               -0.00332475               -0.02821576
              -0.12583210                1.95602132               86.07234505                0.66203491               -0.02816636               -0.00574219                0.08947441                0.01522543               -0.00110501                0.05364606
               0.87388624                1.95103957               86.07492928                0.01000001               -0.05023691               -0.04914516                0.09994944                0.05930585                0.05198964                0.00301809
               1.87316316                1.94700349               86.07856837                0.01000004               -0.11643331               -0.04452242                0.09853505                0.22327762                0.10047489                0.09474035
               2.87155757                1.94487050               86.08223649                0.01000000               -0.21607275                0.05841013                0.10064678                0.49475788                0.09615822                0.17851841
               3.86884171                1.94634806               86.08615237                0.01000001               -0.25170310                0.07788120                0.11651579                0.86400644                0.13316788                0.21497025
               4.86652351                1.95032096               86.09012494                0.01000001               -0.24979934               -0.19956455                0.13233691                1.04456703                0.14815122                0.08698293
               5.86384572                1.95352573               86.09399649                0.01000002               -0.35011223               -0.20151733                0.12723995                0.86003475                0.13887015                0.09880254
               6.85952126                1.95748018               86.09747835                0.01000002               -0.23360032               -0.12098697                0.09474764                0.58445822                0.03824543                0.07560620
               7.85917371                1.95826417               86.09928393                0.01000001               -0.03402095               -0.14317943                0.11430403                0.21772821               -0.00798507                0.06592554
               8.85884085                1.95917980               86.10184987                0.99999996               -0.03169268               -0.03179645                0.10668287                0.00037896                0.02029450                0.02765022
               9.85853986                1.96012667               86.10420954                0.99999999               -0.03009847               -0.03096310                0.09771608               -0.00334960                0.01057457               -0.03003635
              -0.12042397                2.95600950               86.07524624                0.31324388               -0.03409881                0.04610718                0.10867098                0.10970707                0.00607632                0.13436903
               0.87923504                2.95045161               86.07748526                0.01000005               -0.01682062               -0.13139560                0.11384466                0.18671522                0.10944168                0.02393834
               1.87923961                2.94629476               86.08173495                0.01000000               -0.04374797               -0.13524754                0.10013847                0.49210790                0.18681982                0.09777559
               2.87836008                2.94487609               86.08595139                0.01000004               -0.14083735               -0.05480945                0.10207253                0.79537520                0.15711563                0.15255944
               3.87642287                2.94611756               86.09011905                0.01000001               -0.22558223               -0.06163197                0.11246525                1.06205321                0.14821676                0.15593931
               4.87384843                2.94904683               86.09425414                0.01000000               -0.28932355               -0.11310205                0.12344463                1.17452464                0.14794795                0.12329273
               5.87063639                2.95260082               86.09820291                0.01000000               -0.33059095               -0.09465200                0.12621192                1.13612026                0.12614907                0.07471893
               6.86723661                2.95522113               86.10166850                0.01000000               -0.39741523               -0.13735561                0.12640598                0.97479690                0.08363563                0.04257555
               7.86268809                2.95572238               86.10452696                0.01000000               -0.46596283               -0.07198437                0.12797415                0.66180966                0.04032535                0.09564664
               8.85791736                2.95884051               86.10677713                1.00000000               -0.25635766               -0.03710902                0.12618020                0.11023127                0.01360850                0.03690992
               9.85756094                2.95979298               86.10869903                0.99999999               -0.03564204               -0.03487746                0.11196260               -0.00347502               -0.00348355               -0.02383177
              -0.11252218                3.95694347               86.07912014                0.17539063               -0.01425393                0.01363789                0.12008907                0.32157955               -0.00665276                0.14662093
               0.88733528                3.94841166               86.08052173                0.01000000                0.05515081               -0.31843413                0.13294173                0.57597647                0.17921557                0.12470642
               1.88858084                3.94429854               86.08523651                0.01000002                0.01534924               -0.17863918                0.11091129                0.82863625                0.22216316                0.13201578
               2.88764227                3.94377431               86.08967976                0.01000001               -0.13344061               -0.14344167                0.10830132                1.05139938                0.16307730                0.13401860
               3.88591203                3.94511542               86.09406009                0.01000001               -0.20557602               -0.13482330                0.11520213                1.23993223                0.14112107                0.12367839
               4.88353075                3.94805892               86.09832033                0.01000000               -0.27590997               -0.12163094                0.12341542                1.38563361                0.12758705                0.09344679
               5.88039383                3.95163269               86.10239567                0.01000001               -0.38175547               -0.08970905                0.12954158                1.42279290                0.11365830                0.06050132
               6.87589564                3.95473307               86.10617627                0.01000000               -0.58016498               -0.01723201                0.13442250                1.33410237                0.09484341                0.04729637
               7.86879053                3.95682448               86.10949029                0.01000001               -0.94603856                0.10559663                0.14104119                1.25877816                0.04225782                0.06016955
               8.85697487                3.95843762               86.11152236                0.01000002               -0.61125557               -0.10051769                0.14449240                1.29298945                0.02613125                0.09594634
               9.85656542                3.95942912               86.11328805                0.27604038               -0.04094508               -0.72726105                0.12724649                1.28924013                0.01159519                0.12199081
              -0.09692877                4.95628226               86.08230534                0.24381054                0.03282619               -0.18511220                0.10498017                0.18707368                0.09037526               -0.12306594
               0.90339950                4.94408293               86.08567219                0.01000000               -0.13107745               -0.18593986                0.16755260                0.72307409                0.07467365                0.17824947
               1.90044969                4.94272197               86.08885589                0.01000001               -0.24141558               -0.15287782                0.11946542                1.05517297                0.08756794                0.13200254
               2.89857119                4.94200726               86.09336659                0.01000000               -0.17563913               -0.20418390                0.11471152                1.13751476                0.12988306                0.11744254
               3.89693690                4.94342110               86.09786494                0.01000000               -0.17636747               -0.21879286                0.12036001                1.36515005                0.11556500                0.09318987
               4.89504384                4.94661422               86.10224860                0.01000002               -0.22594016               -0.18358541                0.12474622                1.56925674                0.09837944                0.06725252
               5.89241810                4.95080664               86.10651171                0.01000001               -0.31584836               -0.10833611                0.12892774                1.69121797                0.08740284                0.03928281
               6.88872687                4.95487649               86.11058517                0.01000001               -0.41294976               -0.01922384                0.13303486                1.74635729                0.07476264                0.02669950
               7.88415911                4.95783431               86.11431436                0.01000002               -0.37771794                0.00027744                0.13937489                1.74345347                0.06012596                0.04259376
               8.88117251                4.95683016               86.11765604                0.01000000               -0.13981817               -0.23021920                0.15017767                1.54734902                0.04233244                0.13994775
               9.88136274                4.94524776               86.12070193                0.01000003                0.01902320               -0.86211202                0.16546793                1.01436506                0.02011216                0.29506482
              -0.08438204                5.95324122               86.08335981                0.99598579               -0.02609091               -0.16557673                0.07862423                0.20044261                0.00289840               -0.06443623
               0.91535705                5.94469286               86.08778869                0.01000000               -0.19289951                0.01803338                0.09773267                0.42609764                0.00528077               -0.01022797
               1.91175997                5.94124098               86.09230564                0.01000001               -0.28318048               -0.15206345                0.10702563                0.77450107                0.06809614                0.09119872
               2.90969344                5.93969063               86.09688768                0.01000000               -0.15759498               -0.29742364                0.12775945                1.05676647                0.10648883                0.06166212
               3.90860807                5.94073956               86.10141451                0.01000001               -0.10815478               -0.33708683                0.12379091                1.38426361                0.08181939                0.07122471
               4.90753034                5.94438721               86.10598340                0.01000001               -0.13260794               -0.27931320                0.12664320                1.68070327                0.06901286                0.04317689
               5.90595591                5.94946597               86.11048982                0.01000001               -0.18676186               -0.16668118                0.12787271                1.84380930                0.06019191                0.01805634
               6.90379511                5.95434859               86.11492273                0.01000002               -0.21249892               -0.07908713                0.13018001                1.84856902                0.05518421                0.01396704
               7.90170593                5.95683003               86.11923826                0.01000003               -0.16433544               -0.08312552                0.13538835                1.63481018                0.04699916                0.04593607
               8.90050840                5.95383324               86.12337311                0.01000007               -0.08442116               -0.16654454                0.14864555                1.02370415                0.02888393                0.12460717
               9.90001751                5.94218688               86.12724100                0.01000000               -0.04908896               -0.09597144                0.17058178                0.50577504                0.01308550                0.25210389
              -0.07582319                6.95297072               86.08544559                1.00000000               -0.02551201               -0.02856277                0.07577006               -0.00010101                0.00209693               -0.02433437
               0.92392169                6.94444359               86.08989792                0.01000000               -0.16174381               -0.02287940                0.09312676                0.18924431                0.06366647               -0.00914027
               1.92094194                6.93968070               86.09558840                0.01000002               -0.18568785               -0.26606146                0.20844347                0.59963252                0.20731103               -0.15858265
               2.92020794                6.93605878               86.09977705                0.01000000               -0.05081686               -0.38651887                0.11691842                0.84144634                0.06743086                0.05348701
               3.91992560                6.93667936               86.10466108                0.01000000               -0.01382195               -0.53919711                0.13223833                1.33192729                0.06725561                0.04810743
               4.91993150                6.94102795               86.10947443                0.01000001               -0.02963482               -0.37963836                0.12898378                1.72211231                0.04891733                0.02045322
               5.91933290                6.94747301               86.11431384                0.01000002               -0.07986557               -0.20106422                0.12836774                1.83163414                0.04912043                0.00127864
               6.91833418                6.95329475               86.11925040                0.01000003               -0.09811176               -0.11001121                0.13038299                1.74368323                0.05226806                0.00663144
               7.91737067                6.95617180               86.12421055                0.01000000               -0.10222202               -0.02791642                0.13533765                1.45030755                0.04672277                0.05566077
               8.91628974                6.95349927               86.12909176                0.01000001               -0.12998552                0.10693079                0.14583264                0.84077704                0.02903401                0.14129293
               9.91477096                6.94332833               86.13369263                0.01000000               -0.15187878                0.25958748                0.16453500                0.37092864                0.01884339                0.26408132
              -0.06732980                7.95266997               86.08739642                0.99999999               -0.02382421               -0.02861115                0.07486689                0.00095670                0.00559250               -0.03576573
               0.93243195                7.94423527               86.09199161                1.00000000               -0.02663836               -0.02311335                0.09272413                0.00745310                0.01060638               -0.00711650
               1.93213743                7.93591975               86.09666248                0.01000001               -0.14541218               -0.20507346                0.11181887                0.36499334                0.06335581               -0.03319316
               2.92952371                7.93196026               86.10230947                0.01000000               -0.09299911               -0.44256193                0.14100081                0.69985576                0.09308066               -0.00249081
               3.93027745                7.92995562               86.10744839                0.01000002                0.08276142               -0.89235121                0.14391226                1.23263365                0.05819440               -0.01124079
               4.93117894                7.93679444               86.11260511                0.01000002                0.00221738               -0.35421067                0.13631814                1.69744231                0.05510078                0.00624878
               5.93032179                7.94544468               86.11800176                0.01000003               -0.06044788               -0.16595973                0.13263017                1.59741518                0.07086646               -0.00794867
               6.92996998                7.95214837               86.12354454                0.01000000                0.00928854               -0.12528620                0.13506964                1.43030700                0.08557728                0.00111394
               7.93050756                7.95627170               86.12942886                0.01000005                0.00987132               -0.04063835                0.13897950                1.28244221                0.08232741                0.05444257
               8.93016741                7.95597185               86.13525440                0.01000001               -0.13648086                0.28836218                0.14775847                0.92872058                0.05321827                0.22617142
               9.92777795                7.94737863               86.14074656                0.01000000               -0.23894594                0.62801251                0.16220753                0.56591686                0.04326627                0.32721340
              -0.05893466                8.95239850               86.08932289                0.99999999               -0.02443660               -0.02479544                0.07222067               -0.00126139                0.00226394               -0.03024202
               0.94082097                8.94398133               86.09405755                0.99999998               -0.02742580               -0.02591976                0.09097913               -0.00075477                0.00601603               -0.00593269
               1.94051682                8.93557923               86.09883837                0.99999995               -0.03258933               -0.03293696                0.11022237                0.00078301                0.02096539                0.01357574
               2.94016918                8.92720754               86.10386092                1.00000000               -0.03863678               -0.25674308                0.13317790                0.11464514                0.02695313               -0.01138248
               3.93974409                8.91883234               86.10874827                0.01000002               -0.08889520               -0.57823753                0.15400796                1.23127155                0.11098482               -0.00868126
               4.93839128                8.93394374               86.11548246                0.01000000               -0.19084029               -0.14848305                0.15621067                1.47933982                0.16048802                0.00726478
               5.93592728                8.94415382               86.12161555                0.01000000               -0.11389876               -0.10338421                0.14932097                0.98575121                0.13064826               -0.00859243
               6.93611330                8.95078903               86.12779503                0.01000000                0.16343754               -0.15778156                0.14683977                0.81019387                0.14291729               -0.00133011
               7.93919603                8.95535904               86.13450837                0.01000000                0.38219626               -0.18689202                0.14937049                0.87136272                0.22224959                0.04157571
               8.94375723                8.95926651               86.14306532                0.99999999                0.20398552                0.14028885                0.15229994                0.87839984                0.12556717                0.15030346
               9.94327574                8.95588858               86.14896382                1.00000000               -0.04814895                0.39788867                0.17129526                0.60562394               -0.00744345                0.15582210
              -0.05052069                9.95217406               86.09139890                1.00000000               -0.02431909               -0.02244385                0.07023376               -0.00432048               -0.01449150               -0.02111670
               0.94923612                9.94371688               86.09614453                1.00000000               -0.02762216               -0.02644473                0.08864881               -0.00413716               -0.01436780               -0.00351123
               1.94892687                9.93526101               86.10085922                0.99999996               -0.03363056               -0.03182210                0.10578023               -0.00356926               -0.01472555                0.00650723
               2.94856351                9.92682539               86.10560053                0.99999999               -0.03800930               -0.03821500                0.12160698               -0.00407453               -0.01230744               -0.00266589
               3.94816668                9.91839087               86.11038679                0.33030200               -0.65596290               -0.04414674                0.13893531                1.19222927                0.14575864                0.00686870
               4.93544425                9.93382478               86.11829812                0.01000000               -0.74875770               -0.01189558                0.19527720                0.95460378                0.30919140                0.00239746
               5.93319153                9.94337700               86.12521066                0.01000000               -0.02378068               -0.07768199                0.18733489                0.48482292                0.22738664               -0.00479579
               6.93496864                9.94899274               86.13192681                0.01000000                0.31329021               -0.17962872                0.16991128                0.34337668                0.22126721                0.00490684
               7.93945733                9.95253386               86.13933147                0.01000001                0.61186077               -0.28251744                0.16726451                0.51537490                0.27530492                0.05065213
               8.94720586                9.95877763               86.14801728                0.99999999                0.35944728               -0.04888828                0.17572867                0.48498952                0.14642704                0.00706220
               9.94664628                9.95533640               86.15391578                0.99999999               -0.05595754               -0.05521832                0.19472362               -0.00706876                0.00714979               -0.00715017
              -0.13811863               -0.04605822               87.06823885                0.91925495               -0.01137131               -0.01030766                0.06164919                0.00415513                0.00438817               -0.00001458
               0.86176766               -0.05058966               87.07121006                0.84024767               -0.00454263               -0.03287584                0.07644859                0.00939239                0.02054577               -0.00669494
               1.86179052               -0.05461404               87.07443444                0.60550933                0.01241184               -0.02671123                0.09545140                0.03007631                0.07309840               -0.00221064
               2.86201590               -0.05751165               87.07820260                0.32515135                0.06266432               -0.02478235                0.09567379                0.16007797                0.12576859                0.00467432
               3.86304381               -0.05641420               87.08236944                0.25091266               -0.07738760                0.04463101                0.07188428                0.18251280                0.04668166                0.00916638
               4.86046814               -0.04973443               87.08529449                0.44210878               -0.20841456                0.01395603                0.07852277                0.20543470               -0.13080411                0.07150782
               5.85887552               -0.04698587               87.08652537                1.00000000               -0.09792185               -0.03386156                0.10116135                0.09143293               -0.07982011                0.00312153
               6.85850971               -0.04614867               87.08891909                1.00000000               -0.03488078               -0.02780639                0.08357969               -0.00096046               -0.03419991                0.00756577
               7.85817790               -0.04546580               87.09120803                0.99999999               -0.02941438               -0.02479038                0.07453783               -0.00145816               -0.04618328                0.01277534
               8.85792142               -0.04486956               87.09344348                0.99999999               -0.02260513               -0.02271120                0.06647322               -0.00308449               -0.04104946                0.00126558
               9.85772580               -0.04423292               87.09585570                0.99789947               -0.01956224               -0.02121440                0.05909907               -0.00564049               -0.03145953               -0.02657696
              -0.13354564                0.95383870               87.07063166                0.89997121               -0.03148701               -0.00535556                0.07387253                0.00554946               -0.00410521                0.01432446
               0.86613949                0.94908158               87.07352638                0.01598762               -0.04510432               -0.04303965                0.08892921                0.03757662               -0.00080828               -0.00433801
               1.86555228                0.94511885               87.07656105                0.01000000               -0.08113694               -0.02733665                0.10485110                0.09555729                0.00364246                0.05007089
               2.86451676                0.94224053               87.07988434                0.01000001               -0.22859768                0.02927435                0.11564118                0.28020166                0.02541649                0.10195246
               3.86098032                0.94403211               87.08372927                0.01000000               -0.33542142                0.04542633                0.15014357                0.56837780                0.11564608                0.14707631
               4.85780833                0.95040513               87.08894968                0.01000000               -0.14916792               -0.12985863                0.11916519                0.61281967                0.11556566                0.00927734
               5.85799697                0.95267551               87.09063177                0.01000000               -0.00341313               -0.15133304                0.12038191                0.29200305               -0.04390441                0.03104186
               6.85774006                0.95357326               87.09317956                0.56406719               -0.02366021               -0.02377119                0.10723445                0.01938173                0.00654377                0.06111681
               7.85752376                0.95428630               87.09575092                1.00000000               -0.02329635               -0.02859476                0.09518527                0.00485887                0.00197415                0.02104082
               8.85727414                0.95490333               87.09814636                0.99999999               -0.02455040               -0.02548492                0.08584969               -0.00138870               -0.00501145                0.00661672
               9.85703275                0.95555493               87.10056297                0.99999999               -0.02413835               -0.02512534                0.07823907               -0.00456664               -0.00329618               -0.03021084
              -0.12849339                1.95383467               87.07324827                0.71023334               -0.02675573                0.00366453                0.08929771                0.01779059               -0.00343315                0.05666744
               0.87123905                1.94854955               87.07595889                0.01000000               -0.04819430               -0.06515028                0.10397644                0.09737920                0.04838923               -0.00032190
               1.87054272                1.94483923               87.07966560                0.01000001               -0.12661915               -0.06054915                0.10149696                0.29158066                0.09353465                0.08638380
               2.86870667                1.94307384               87.08337688                0.01000001               -0.21479810                0.02215403                0.12418237                0.54363951                0.10483297                0.16995086
               3.86624676                1.94449433               87.08747243                0.01000003               -0.23127656               -0.01636831                0.13736536                0.86848568                0.15014774                0.17284069
               4.86408114                1.94766840               87.09157314                0.01000001               -0.23496576               -0.21405815                0.14259194                0.94892898                0.14516091                0.04035343
               5.86154744                1.94998747               87.09527477                0.01000000               -0.33972906               -0.18057005                0.12525640                0.79526841                0.11363206                0.07691151
               6.85728655                1.95337590               87.09847395                0.01000001               -0.23012153               -0.11770990                0.10032178                0.55812097                0.03721343                0.07071013
               7.85694501                1.95396231               87.10042717                0.01000001               -0.03307713               -0.13909898                0.11245498                0.21523782                0.00327544                0.06457737
               8.85662501                1.95462074               87.10291651                1.00000000               -0.03068804               -0.03023819                0.10615876                0.00309397                0.02094393                0.03094544
               9.85633125                1.95526457               87.10517714                0.99999999               -0.02937593               -0.03199253                0.09604688               -0.00376780                0.01039783               -0.03461950
              -0.12261958                2.95391199               87.07627495                0.38168250               -0.02978991                0.04469429                0.09687597                0.11085341                0.00692185                0.12018568
               0.87708252                2.94777858               87.07865071                0.01000001               -0.02604100               -0.15721564                0.11807292                0.24225259                0.10315520                0.02755187
               1.87685960                2.94390786               87.08286274                0.01000001               -0.06740384               -0.13970779                0.12328416                0.52779926                0.17586907                0.09923129
               2.87573445                2.94268361               87.08711784                0.01000000               -0.15520618               -0.08422529                0.12612640                0.79688165                0.15639989                0.14966557
               3.87375548                2.94370474               87.09136874                0.01000001               -0.22203397               -0.10224322                0.13377400                1.00912312                0.15269111                0.14036597
               4.87129377                2.94612397               87.09556556                0.01000000               -0.27803246               -0.13657584                0.13691193                1.09523753                0.14854599                0.09808172
               5.86819483                2.94906411               87.09950880                0.01000000               -0.31830619               -0.09934165                0.13364654                1.05686237                0.12380604                0.05817312
               6.86492764                2.95121906               87.10296355                0.01000000               -0.38055739               -0.13592157                0.13188549                0.92237636                0.08683528                0.04498356
               7.86058368                2.95150432               87.10584183                0.01000001               -0.44469441               -0.07605472                0.13451531                0.63512086                0.05043158                0.09750666
               8.85603375                2.95429856               87.10806095                0.99999999               -0.24569710               -0.03680032                0.13078904                0.11082571                0.01947283                0.04302999
               9.85566974                2.95491508               87.10981543                0.99999999               -0.03640156               -0.03586181                0.11111926               -0.00440066               -0.00466413               -0.03025908
              -0.11400949                3.95472855               87.08003691                0.25357375                0.00977201               -0.04863001                0.07978671                0.21039831                0.00844439                0.10316608
               0.88608823                3.94540523               87.08195839                0.01000000                0.01015810               -0.27942155                0.14350538                0.53314704                0.15809460                0.13636652
               1.88619367                3.94204507               87.08649363                0.01000003               -0.06204064               -0.17218578                0.13299159                0.82631527                0.18870827                0.14103764
               2.88484742                3.94138933               87.09089880                0.01000001               -0.16024069               -0.15762854                0.13182637                0.99906744                0.15126403                0.13404298
               3.88298886                3.94244946               87.09531723                0.01000000               -0.21104508               -0.15426457                0.13472181                1.17141059                0.13800286                0.11700922
               4.88062652                3.94493688               87.09962818                0.01000001               -0.26996338               -0.13653461                0.13759692                1.29622035                0.12536343                0.07964509
               5.87758959                3.94800063               87.10373598                0.01000003               -0.36663231               -0.09996607                0.13883683                1.33016539                0.11110417                0.04394348
               6.87329387                3.95065747               87.10755344                0.01000034               -0.55108308               -0.02744744                0.14116546                1.25178432                0.09686253                0.03133447
               7.86656793                3.95244121               87.11094290                0.01000000               -0.89315546                0.08896045                0.15061636                1.19142448                0.05158795                0.04674368
               8.85543076                3.95388473               87.11300448                0.01000000               -0.57788654               -0.10409557                0.15220804                1.22307325                0.04096349                0.09528763
               9.85501020                3.95454733               87.11456387                0.20221389               -0.04205620               -0.68668305                0.12728464                1.20723801                0.01461933                0.13383329
              -0.09976497                4.95293939               87.08314888                0.41501643                0.01939187               -0.18330653                0.07839171                0.18078997                0.07519275               -0.10055740
               0.90042895                4.94219014               87.08717561                0.01000000               -0.14166100               -0.14691162                0.12433829                0.61295133                0.01254292                0.15290326
               1.89740181                4.94046415               87.09020100                0.01000001               -0.25587728               -0.17985810                0.13709339                0.93842724                0.04270962                0.12024723
               2.89531140                4.93953104               87.09462873                0.01000000               -0.18828349               -0.22470324                0.13633711                1.08213925                0.11158965                0.11990449
               3.89363614                4.94061945               87.09915910                0.01000001               -0.18222009               -0.22106193                0.13747781                1.28609885                0.10613836                0.08813805
               4.89166700                4.94339327               87.10356453                0.01000000               -0.22792974               -0.19042084                0.13919870                1.47220899                0.08890937                0.05472584
               5.88907755                4.94706479               87.10784610                0.01000000               -0.30721262               -0.11764699                0.13912519                1.58538159                0.07598541                0.02039897
               6.88552275                4.95067012               87.11193893                0.01000000               -0.39463188               -0.03013773                0.13814527                1.64086636                0.06169182                0.00459109
               7.88118491                4.95328353               87.11572402                0.01000007               -0.35668252               -0.00956537                0.13921974                1.64179944                0.05020808                0.02024078
               8.87838910                4.95221665               87.11920991                0.01000100               -0.13478042               -0.23042196                0.15449384                1.45846713                0.04338072                0.12435294
               9.87848930                4.94118142               87.12249271                0.01000000                0.01002007               -0.82000664                0.21290928                0.95538019                0.02536092                0.31955667
              -0.08889519                5.95106242               87.08419366                1.00000000               -0.02823052               -0.11068630                0.08777930                0.11188160                0.00074962               -0.06097025
               0.91082251                5.94246700               87.08880164                0.01000000               -0.17417415                0.00314491                0.10238710                0.31806452                0.00104675               -0.03687607
               1.90762133                5.93844791               87.09342569                0.01000000               -0.22438024               -0.32536762                0.13437104                0.83718914                0.06431433                0.13390041
               2.90633490                5.93689527               87.09826470                0.01000000               -0.13863645               -0.27227972                0.13951866                1.04138463                0.09951322                0.05548517
               3.90484860                5.93802822               87.10273201                0.01000003               -0.13547703               -0.32665759                0.14122031                1.31472809                0.06453703                0.06744718
               4.90362536                5.94112846               87.10730848                0.01000000               -0.14141075               -0.27830718                0.13993522                1.57405935                0.05349900                0.02788566
               5.90202038                5.94564769               87.11180733                0.01000000               -0.18664504               -0.17304672                0.13843323                1.73585406                0.04293765               -0.00302611
               6.89989246                5.95005472               87.11624547                0.01000160               -0.20814997               -0.08674734                0.13631583                1.74564183                0.03501619               -0.00594776
               7.89785738                5.95224991               87.12059720                0.01000104               -0.15951237               -0.08712530                0.13668794                1.54301748                0.02559368                0.03071137
               8.89670221                5.94927630               87.12488410                0.01000001               -0.08345595               -0.16609425                0.14946370                0.96207373                0.01221753                0.11401524
               9.89618827                5.93814720               87.12905906                0.01000000               -0.05139469               -0.10279298                0.19253374                0.47545251                0.00263431                0.23490452
              -0.08033649                6.95072567               87.08620914                1.00000000               -0.02587519               -0.03417496                0.07677006                0.00003315                0.00306586               -0.02538475
               0.91940476                6.94225304               87.09083241                0.11361076                0.00269101               -0.01863316                0.09379285                0.01173059                0.13636761               -0.01012857
               1.91971733                6.93395680               87.09811902                0.01000001               -0.14229877               -0.22314736                0.16034420                0.58715615                0.20990826               -0.15662362
               2.91655878                6.93408544               87.10099574                0.01000000               -0.20099118               -0.34827590                0.14680148                0.93804200                0.00570456                0.05737100
               3.91569750                6.93408630               87.10605133                0.01000002               -0.05150317               -0.51027309                0.14396542                1.22758474                0.05447628                0.04909162
               4.91552872                6.93782713               87.11079132                0.01000000               -0.04145658               -0.36911676                0.13951753                1.61359591                0.02769914               -0.00237147
               5.91486837                6.94360385               87.11562133                0.01000009               -0.08476722               -0.20514072                0.13687350                1.73024619                0.03539764               -0.02754432
               6.91383337                6.94893517               87.12057257                0.01000000               -0.10223470               -0.11549068                0.13827485                1.65545850                0.03831677               -0.01369373
               7.91282368                6.95154102               87.12557393                0.01000003               -0.10500476               -0.03441904                0.13994713                1.37535996                0.03001923                0.04449624
               8.91173328                6.94889477               87.13055822                0.01000001               -0.12835712                0.09373926                0.14808534                0.79191654                0.01661484                0.13168661
               9.91025654                6.93912556               87.13538253                0.01000003               -0.14767409                0.23872411                0.16881871                0.34550666                0.01359079                0.24353955
              -0.07194928                7.95037893               87.08812729                1.00000000               -0.02247336               -0.03151088                0.07128202                0.00148439                0.00719611               -0.03747538
               0.92782599                7.94209434               87.09291356                1.00000000               -0.02593361               -0.01986100                0.09195412                0.01174152                0.01347055               -0.00561853
               1.92753205                7.93398496               87.09779380                0.01000002               -0.14298770               -0.01585732                0.11465161                0.19276071                0.07111897               -0.09952836
               2.92496624                7.92992975               87.10374272                0.01000001               -0.09367239               -0.42926401                0.14168866                0.63404989                0.09933592                0.01540635
               3.92565860                7.92782276               87.10893827                0.01000000                0.07067435               -0.83628133                0.15661578                1.15406783                0.03983154               -0.00396875
               4.92637972                7.93374613               87.11396190                0.01000007               -0.00706672               -0.33728264                0.13099584                1.58398711                0.03586392               -0.02569765
               5.92551727                7.94154488               87.11932168                0.01000001               -0.06576310               -0.16720278                0.13862246                1.50873526                0.06926003               -0.04810842
               6.92506446                7.94774490               87.12490691                0.01000003               -0.00561418               -0.12566857                0.14175766                1.36288044                0.08505833               -0.02179001
               7.92540499                7.95156153               87.13082803                0.01000000               -0.00542289               -0.04138127                0.14389798                1.21530217                0.07463631                0.04353382
               8.92495600                7.95115108               87.13673678                0.01000001               -0.13840886                0.26881011                0.14985447                0.86585506                0.04728614                0.21408253
               9.92263681                7.94292168               87.14237613                0.01000001               -0.23191951                0.58097614                0.16427559                0.52462640                0.04193298                0.31045264
              -0.06373763                8.95009545               87.09001472                0.99999999               -0.02288184               -0.02462272                0.06611105               -0.00220476                0.00261137               -0.03277241
               0.93603355                8.94185582               87.09495313                0.99999999               -0.02626186               -0.02447117                0.08803285               -0.00116181                0.00705486               -0.00589736
               1.93573713                8.93363965               87.09994344                0.99999996               -0.03157866               -0.03277820                0.11064144                0.00281403                0.02538671                0.01519405
               2.93540198                8.92550016               87.10521764                0.99999998               -0.03873260               -0.24097096                0.13846998                0.11594130                0.03429399               -0.00895232
               3.93496248                8.91736067               87.11033024                0.01000000               -0.09578185               -0.54583523                0.16276996                1.15428149                0.10661025                0.00872065
               4.93348634                8.93108148               87.11707388                0.01000001               -0.19590888               -0.14075171                0.14940733                1.38214416                0.15323901               -0.01116156
               5.93104430                8.94025980               87.12309674                0.01000001               -0.12060029               -0.10044470                0.14790624                0.92008686                0.14169608               -0.05152472
               6.93107434                8.94642180               87.12926308                0.01000001                0.13396211               -0.14982410                0.15068259                0.77362372                0.14951563               -0.01729751
               7.93372355                8.95071340               87.13600918                0.01000004                0.33079425               -0.17223335                0.15356362                0.82706290                0.21535041                0.03596641
               8.93769022                8.95427097               87.14459405                0.99999999                0.17421560                0.13140463                0.15344118                0.81793498                0.11790750                0.14103991
               9.93720786                8.95074508               87.15067370                0.99999999               -0.04823628                0.36370636                0.17067894                0.55178651               -0.00744015                0.14825679
              -0.05551412                9.94988647               87.09206073                0.99945268               -0.02273279               -0.02089795                0.06229465               -0.00580418               -0.01705072               -0.02355765
               0.94425856                9.94160491               87.09700616                0.99999999               -0.02709451               -0.02509081                0.08372791               -0.00535325               -0.01787014               -0.00397908
               1.94394399                9.93332940               87.10190518                1.00000000               -0.03472589               -0.03102522                0.10333551               -0.00404318               -0.02066220                0.00686756
               2.94356404                9.92511033               87.10681233                0.99999997               -0.03905384               -0.03898329                0.12051508               -0.00496099               -0.01950654               -0.00389322
               3.94316292                9.91690606               87.11178052                0.43269759               -0.62202787               -0.04546169                0.13923010                1.11108190                0.16970238                0.01019963
               4.93112348                9.93093109               87.12048070                0.01000000               -0.72921147               -0.01503844                0.27068672                0.89521044                0.34185156               -0.02106409
               5.92857869                9.93953598               87.12720292                0.01000000               -0.05200715               -0.07238140                0.18665413                0.44430478                0.21933851               -0.03320649
               6.93008334                9.94474842               87.13363399                0.01000000                0.27591928               -0.16733768                0.17372769                0.32994396                0.20253633               -0.00106622
               7.93409707                9.94811686               87.14101359                0.01000002                0.55998390               -0.25965389                0.16926694                0.48889036                0.26674220                0.05051181
               8.94128302                9.95377917               87.14977765                0.99999999                0.33136174               -0.04917961                0.17634515                0.46322722                0.14128418                0.00706184
               9.94072431                9.95019581               87.15585729                1.00000000               -0.05587082               -0.05492738                0.19358324               -0.00669116                0.00715037               -0.00714733
              -0.14111758               -0.04852463               88.06886396                0.90643207               -0.00804239               -0.00739615                0.06427284                0.00391253                0.00613622               -0.00099106
               0.85880199               -0.05303956               88.07197249                0.82146777                0.00371992               -0.03615174                0.07612297                0.01384827                0.02281493               -0.00565638
               1.85895682               -0.05681474               88.07536005                0.66589098                0.01991304               -0.02297993                0.08954626                0.02622124                0.06571361               -0.00245296
               2.85920026               -0.05924126               88.07907717                0.39046562                0.04194980               -0.01860839                0.08365580                0.12985871                0.09003445                0.00779839
               3.85979581               -0.05811626               88.08295637                0.32156327               -0.09131645                0.05147292                0.05949236                0.11132456                0.02313392                0.01096454
               4.85737393               -0.05310470               88.08601980                0.64055807               -0.17297399                0.00497219                0.06840469                0.16321949               -0.06779577                0.03195587
               5.85633633               -0.05119118               88.08755845                1.00000000               -0.07455428               -0.03062194                0.10018212                0.04828107               -0.06678340               -0.00089625
               6.85588284               -0.05044033               88.08974802                1.00000000               -0.04181731               -0.02513215                0.08194865                0.00183125               -0.04139395                0.00982457
               7.85549999               -0.04998409               88.09193503                1.00000000               -0.03281259               -0.02282652                0.07119729               -0.00041782               -0.04841374                0.01296995
               8.85522659               -0.04966036               88.09408319                0.99751167               -0.02331083               -0.02038945                0.06199132               -0.00291938               -0.04292121                0.00049326
               9.85503377               -0.04930930               88.09642193                0.99573648               -0.01928190               -0.02041072                0.05520320               -0.00601880               -0.03349035               -0.02870779
              -0.13656353                0.95140141               88.07137833                0.86310899               -0.03509437                0.00180114                0.07541894                0.00953050               -0.00367379                0.01318917
               0.86308553                0.94659892               88.07441839                0.01787500               -0.05582996               -0.05258168                0.08857248                0.05943766                0.00094175               -0.00114272
               1.86231988                0.94295546               88.07761403                0.01000000               -0.09679647               -0.03778888                0.10484543                0.13163965                0.00609993                0.03713547
               2.86114960                0.94057266               88.08106284                0.01000000               -0.22395483                0.01386370                0.11557176                0.30450765                0.04650351                0.09550626
               3.85784078                0.94239847               88.08515980                0.01000000               -0.28030117                0.01408326                0.12831690                0.51124748                0.14880397                0.08694367
               4.85554358                0.94694502               88.08986299                0.01000000               -0.11769097               -0.11915742                0.08292007                0.51773005                0.10586764               -0.01301745
               5.85548696                0.94850261               88.09180790                0.01000000               -0.01229827               -0.13109507                0.10985443                0.26222722               -0.02621623                0.02575612
               6.85529761                0.94930835               88.09423072                0.68616645               -0.01905697               -0.02246377                0.10162972                0.02576626                0.00433394                0.05148821
               7.85510582                0.94978764               88.09668650                1.00000000               -0.02188080               -0.02755487                0.09102640                0.00620398               -0.00026301                0.01993478
               8.85486000                0.95013575               88.09898785                0.99999996               -0.02416481               -0.02277606                0.08219438               -0.00089385               -0.00608626                0.00719257
               9.85462252                0.95048659               88.10133029                1.00000000               -0.02374730               -0.02544410                0.07550969               -0.00527591               -0.00392888               -0.03355128
              -0.13132200                1.95151139               88.07413101                0.74970519               -0.02413092                0.01115851                0.08700575                0.01606424               -0.00428189                0.05134462
               0.86843669                1.94590880               88.07700881                0.01000000               -0.05310667               -0.07978877                0.10492700                0.12714562                0.03357213                0.00419503
               1.86761587                1.94242948               88.08059831                0.01000000               -0.12946476               -0.07520536                0.11348247                0.35485998                0.10335630                0.09180271
               2.86584740                1.94103602               88.08472013                0.01000001               -0.19837356               -0.01125921                0.13070826                0.57841990                0.13143651                0.14888743
               3.86364840                1.94216540               88.08889968                0.01000001               -0.21115042               -0.06591934                0.14089751                0.83321656                0.15120411                0.12517977
               4.86162439                1.94451215               88.09297678                0.01000000               -0.22154226               -0.19957960                0.13468936                0.85786137                0.13309778                0.02413887
               5.85921755                1.94618692               88.09650162                0.01000002               -0.32556294               -0.15997674                0.12092406                0.74129016                0.09168089                0.06386183
               6.85511313                1.94911039               88.09948478                0.01000000               -0.22104449               -0.11335144                0.09748088                0.53102824                0.03735065                0.06842165
               7.85479666                1.94946481               88.10153303                0.01000000               -0.03016867               -0.13154299                0.10675021                0.21336165                0.01323347                0.06685867
               8.85450976                1.94988412               88.10397304                0.99999996               -0.02850509               -0.02613062                0.10416046                0.00951134                0.02300968                0.03763170
               9.85422656                1.95018182               88.10613048                1.00000000               -0.02831965               -0.03427635                0.09431002               -0.00342187                0.01045618               -0.04112922
              -0.12503706                2.95162458               88.07718376                0.44489664               -0.02525833                0.03107330                0.08822601                0.09414375                0.00727778                0.09212941
               0.87471035                2.94500314               88.07984672                0.01000000               -0.03365373               -0.16473577                0.11859055                0.27152686                0.09538049                0.04398113
               1.87428986                2.94145135               88.08420063                0.01000001               -0.08641383               -0.13242254                0.13025151                0.55715279                0.15621079                0.12078330
               2.87298208                2.94034747               88.08847392                0.01000001               -0.16304433               -0.10458669                0.13933644                0.78126390                0.14613993                0.13855488
               3.87102897                2.94108008               88.09279453                0.01000000               -0.21513944               -0.12500823                0.14488248                0.94501330                0.14744888                0.11759528
               4.86867929                2.94295343               88.09699238                0.01000002               -0.26572261               -0.14296511                0.14429381                1.01089350                0.13771704                0.07490822
               5.86571452                2.94530307               88.10087584                0.01000059               -0.30194968               -0.10063302                0.13806387                0.97804940                0.11469987                0.04692644
               6.86264029                2.94704132               88.10430621                0.01000000               -0.35575994               -0.13630034                0.13595559                0.86832702                0.08906036                0.04816829
               7.85859932                2.94715678               88.10721726                0.01000000               -0.41535404               -0.07938242                0.13731557                0.60731970                0.06346563                0.10668721
               8.85433321                2.94961314               88.10939291                1.00000000               -0.23203154               -0.03448575                0.13516118                0.11538487                0.02716089                0.05519930
               9.85395869                2.94980107               88.11092141                0.99999998               -0.03745200               -0.03766565                0.11040242               -0.00558367               -0.00685995               -0.03940908
              -0.11619626                3.95213286               88.08071588                0.32641581                0.02367107               -0.07551079                0.06717293                0.12605752                0.01084644                0.06877257
               0.88404045                3.94261409               88.08339184                0.01000001               -0.01945748               -0.23526999                0.13306055                0.47680305                0.10869719                0.15566664
               1.88341459                3.93978103               88.08789634                0.01000001               -0.10982538               -0.16282448                0.14037629                0.79455471                0.14552060                0.14238669
               2.88184395                3.93894428               88.09231629                0.01000000               -0.17359429               -0.16540127                0.14520548                0.93735054                0.12893675                0.13294949
               3.87994271                3.93966524               88.09675453                0.01000003               -0.21123377               -0.16554986                0.14808180                1.09017341                0.12379645                0.10623968
               4.87761927                3.94165285               88.10107227                0.01000006               -0.26260272               -0.14625015                0.14877991                1.19823805                0.11298196                0.06539061
               5.87469065                3.94417426               88.10517241                0.01000000               -0.34966546               -0.10799059                0.14814394                1.22902120                0.10010089                0.02881125
               6.87062596                3.94638439               88.10899958                0.01000000               -0.51597079               -0.03825206                0.14799575                1.15726903                0.09268627                0.01317007
               7.86437124                3.94787716               88.11250262                0.01000001               -0.82263968                0.07140247                0.16353873                1.10514881                0.05508264                0.02987331
               8.85417317                3.94919441               88.11456652                0.01000002               -0.53161055               -0.10877672                0.16066796                1.12447866                0.06129847                0.09448781
               9.85373903                3.94942851               88.11583375                0.55361215               -0.04341417               -0.63286767                0.12707924                1.09069380                0.02001982                0.17627908
              -0.10347837                4.95011436               88.08387317                0.61347259                0.00766140               -0.15856449                0.06721643                0.14900037                0.03684709               -0.04694418
               0.89659824                4.94029774               88.08815895                0.01000000               -0.13354328               -0.11577693                0.08755695                0.50930023               -0.01588160                0.13264633
               1.89385076                4.93819486               88.09159776                0.01000000               -0.23766814               -0.18900313                0.13755909                0.84551530                0.02356645                0.13080358
               2.89184488                4.93703945               88.09609333                0.01000002               -0.18634422               -0.22554747                0.14783021                1.00538293                0.08812798                0.12072999
               3.89012388                4.93776908               88.10061449                0.01000006               -0.18549257               -0.22344822                0.15069008                1.19506478                0.08356908                0.08664869
               4.88813503                4.94002843               88.10503258                0.01000000               -0.22802324               -0.19673598                0.15273021                1.36399493                0.07100839                0.04351688
               5.88556341                4.94314326               88.10929422                0.01000000               -0.30261238               -0.12720233                0.15230388                1.47174338                0.05476365                0.00481744
               6.88208278                4.94627628               88.11334808                0.01000001               -0.38355663               -0.03941956                0.14761122                1.52605843                0.02714016               -0.01496382
               7.87789228                4.94858483               88.11709875                0.01000001               -0.34056691               -0.01414034                0.13498147                1.51846338               -0.00202257               -0.00052624
               8.87527144                4.94743760               88.12074592                0.01000001               -0.12939535               -0.22145875                0.15482200                1.33383058               -0.01890075                0.14437255
               9.87530437                4.93714371               88.12496011                0.01000000                0.00329315               -0.77166769                0.29565027                0.86967391               -0.06110994                0.40625476
              -0.09358301                5.94896157               88.08511540                0.99999999               -0.02710286               -0.07924840                0.09135390                0.05719622               -0.00057953               -0.05507822
               0.90614596                5.94029855               88.08983644                0.01000000               -0.14168953               -0.00843208                0.10013895                0.25901608                0.02359263               -0.02986558
               1.90358319                5.93600097               88.09499306                0.01000000               -0.18842866               -0.30073754                0.13720452                0.76303982                0.06908418                0.13685368
               2.90237738                5.93443333               88.09967805                0.01000000               -0.13640846               -0.26556330                0.14269979                0.98700750                0.04791313                0.09132898
               3.90085503                5.93519628               88.10423892                0.01000000               -0.14261938               -0.31570770                0.15501238                1.21902307                0.04002700                0.06287865
               4.89952500                5.93771813               88.10878210                0.01000000               -0.14886764               -0.28506608                0.15617325                1.46071989                0.02934941                0.01570597
               5.89787767                5.94163022               88.11325849                0.01000001               -0.19097177               -0.18677391                0.15461078                1.62870298                0.01761789               -0.02008826
               6.89570556                5.94559599               88.11764904                0.01000000               -0.21492466               -0.09584158                0.14995422                1.65146372               -0.00189958               -0.01619219
               7.89357918                5.94759435               88.12197202                0.01000001               -0.17073320               -0.08769636                0.14936400                1.46311796               -0.03389758                0.04103711
               8.89229090                5.94476523               88.12636238                0.01000001               -0.09294486               -0.15786427                0.15696410                0.89714025               -0.05739905                0.14065939
               9.89172028                5.93399515               88.13109167                0.01000001               -0.05706141               -0.11308299                0.17888103                0.42748183               -0.04018885                0.23646301
              -0.08500841                6.94852939               88.08698099                1.00000000               -0.02524268               -0.04233448                0.07644253                0.00120077                0.00331012               -0.03339650
               0.91473916                6.94012910               88.09177378                0.28356194               -0.00074075               -0.01481832                0.09550517                0.02698079                0.11652110               -0.00768765
               1.91497677                6.93218011               88.09879529                0.01000000               -0.11747206               -0.19480988                0.06202617                0.53732672                0.06168626                0.02278981
               2.91238972                6.93172818               88.10271308                0.01000000               -0.18786158               -0.31934276                0.15726319                0.86317005               -0.01179705                0.05110893
               3.91121954                6.93145493               88.10754038                0.01000000               -0.07371179               -0.47994695                0.15729766                1.12993973                0.01339586                0.04964827
               4.91091548                6.93432711               88.11226478                0.01000001               -0.04799669               -0.38600981                0.15903117                1.49703299                0.00402757               -0.03691815
               5.91025961                6.93940778               88.11705131                0.01000000               -0.08837833               -0.23115599                0.15715048                1.64583281                0.01603132               -0.05412529
               6.90914792                6.94435944               88.12201590                0.01000001               -0.11371032               -0.12869679                0.15670839                1.59411788                0.01858261               -0.02560471
               7.90798540                6.94683090               88.12700949                0.01000001               -0.11672354               -0.04436139                0.15328948                1.32560531                0.00194967                0.05238454
               8.90681344                6.94428032               88.13205346                0.01000000               -0.12956162                0.07262218                0.15434511                0.76626433               -0.00337253                0.14889694
               9.90539417                6.93488205               88.13706901                0.01000000               -0.14192778                0.21506774                0.17705951                0.34105548                0.00403786                0.22302799
              -0.07675842                7.94811488               88.08882206                1.00000000               -0.02067291               -0.03598881                0.06759981                0.00118855                0.00825915               -0.04195941
               0.92303485                7.94000218               88.09383069                1.00000000               -0.02554670               -0.01791611                0.09153111                0.01420433                0.01607569               -0.00382131
               1.92273065                7.93210477               88.09895552                0.01000002               -0.13344436               -0.02041858                0.11687782                0.19137830                0.07346138               -0.07280581
               2.92036597                7.92804648               88.10514324                0.01000000               -0.09378752               -0.38846482                0.13939671                0.57855562                0.10863475                0.02013961
               3.92085490                7.92559734               88.11058071                0.01000001                0.05734201               -0.76452179                0.17351078                1.03759855                0.00116914               -0.00302306
               4.92151281                7.92999793               88.11522503                0.01000001               -0.00464536               -0.35626965                0.15060950                1.45919156                0.00278598               -0.11074381
               5.92076199                7.93700710               88.12077421                0.01000001               -0.06740045               -0.20828508                0.16806463                1.46682573                0.09825022               -0.11474598
               6.92016480                7.94302206               88.12637969                0.01000001               -0.02957884               -0.13217257                0.16139806                1.33716443                0.08704199               -0.03825765
               7.92017041                7.94670712               88.13230682                0.01000001               -0.02998825               -0.04690478                0.15734042                1.16911445                0.06276209                0.04143084
               8.91956503                7.94621768               88.13825149                0.01000000               -0.14162476                0.23830625                0.15818489                0.81134001                0.03946281                0.20658185
               9.91733792                7.93829651               88.14403207                0.01000001               -0.22271135                0.52452519                0.16684302                0.48655666                0.04265936                0.29795798
              -0.06875925                8.94780962               88.09064511                0.99750039               -0.02073947               -0.02519918                0.06047115               -0.00359108                0.00221102               -0.03631513
               0.93103335                8.93977078               88.09581821                1.00000000               -0.02403529               -0.02354740                0.08453505               -0.00192304                0.00767711               -0.00648166
               1.93076004                8.93177174               88.10105120                0.99999996               -0.02825443               -0.03149469                0.10963713                0.00824566                0.03205602                0.01621961
               2.93046826                8.92395889               88.10663032                1.00000000               -0.03699933               -0.22441642                0.14355747                0.11624141                0.04661861                0.00103464
               3.93002005                8.91616449               88.11200367                0.01060716               -0.08893550               -0.49515237                0.17233422                1.01401493                0.09184782                0.03017295
               4.92868955                8.92720171               88.11847061                0.01000001               -0.17240292               -0.17040338                0.21759487                1.22118311                0.26496648               -0.29044712
               5.92657200                8.93524208               88.12457367                0.01000000               -0.12491889               -0.12532951                0.17127180                0.90886489                0.22034132               -0.12341891
               6.92619118                8.94171599               88.13080869                0.01000001                0.08000375               -0.13962274                0.16855119                0.78473164                0.16865628               -0.02434540
               7.92817207                8.94589281               88.13757964                0.01000096                0.26298435               -0.15859173                0.16499753                0.79042755                0.20567215                0.03389272
               8.93145086                8.94904644               88.14613414                0.99999999                0.13977831                0.11669938                0.15457236                0.75512771                0.10820560                0.13097721
               9.93096764                8.94537256               88.15237740                1.00000000               -0.04832258                0.32648833                0.17006187                0.49721606               -0.00744021                0.13933419
              -0.06075257                9.94761089               88.09264480                0.99635434               -0.02131657               -0.01987228                0.05542344               -0.00729734               -0.02066194               -0.02680942
               0.93903427                9.93953123               88.09781909                1.00000000               -0.02699896               -0.02395455                0.07900592               -0.00670936               -0.02283791               -0.00499835
               1.93870745                9.93147488               88.10292593                1.00000000               -0.03681142               -0.02968640                0.10035450               -0.00391297               -0.02857809                0.00699588
               2.93829804                9.92355815               88.10801083                0.99999998               -0.04075421               -0.04007369                0.11942157               -0.00605185               -0.02925579               -0.00594609
               3.93789237                9.91569429               88.11317139                0.66912430               -0.57195777               -0.04702054                0.13940310                0.93881734                0.24261492                0.01570225
               4.92685888                9.92658987               88.12371185                0.01000000               -0.67336812               -0.06118462                0.24505310                0.75724379                0.65619489               -0.28443263
               5.92442501                9.93450051               88.12894374                0.01000001               -0.08250907               -0.07415729                0.18528132                0.46728797                0.19554399               -0.07052660
               6.92520870                9.94022960               88.13540136                0.01000001                0.21117543               -0.14863896                0.18268420                0.35349179                0.20446937                0.00298405
               7.92864852                9.94353529               88.14271681                0.01000000                0.49895664               -0.23575164                0.17395021                0.46374745                0.26006746                0.05100306
               8.93518783                9.94855166               88.15154418                1.00000000                0.29907460               -0.04947784                0.17695605                0.43824635                0.13626987                0.00707182
               9.93463001                9.94482627               88.15778745                1.00000000               -0.05578273               -0.05462838                0.19246280               -0.00630192                0.00714248               -0.00715867
              -0.14421296               -0.05110677               89.06952430                0.87614196               -0.00591748               -0.00577827                0.07042462                0.00258897                0.00919688               -0.00031558
               0.85572787               -0.05559460               89.07273252                0.79258108                0.01065347               -0.03829941                0.07649256                0.01626262                0.02441284               -0.00230664
               1.85600011               -0.05917105               89.07622536                0.72402138                0.02462008               -0.02056569                0.08454501                0.01635080                0.05814340               -0.00103058
               2.85622027               -0.06132702               89.07987571                0.45011279                0.02818696               -0.01652897                0.07934008                0.09654188                0.06676891                0.00706360
               3.85656385               -0.06060178               89.08355928                0.35734305               -0.08550596                0.04294480                0.06518306                0.08650752                0.02119724                0.00377916
               4.85451015               -0.05678168               89.08666258                0.80235585               -0.13761126               -0.00305116                0.06295945                0.13169624               -0.03502186                0.02000842
               5.85381163               -0.05550271               89.08852902                1.00000000               -0.06024531               -0.02498325                0.09056699                0.02253268               -0.06186518               -0.00242719
               6.85330524               -0.05491758               89.09055806                0.99999972               -0.04685814               -0.02161507                0.07932667                0.00395933               -0.05393227                0.01064914
               7.85287446               -0.05470933               89.09263197                1.00000000               -0.03645760               -0.02036758                0.06855662                0.00111984               -0.05647138                0.01211626
               8.85257609               -0.05466902               89.09468331                0.99462082               -0.02479844               -0.01736621                0.05853485               -0.00246978               -0.04868836               -0.00123070
               9.85237849               -0.05462379               89.09695977                0.98647026               -0.01975976               -0.02008544                0.05277471               -0.00639646               -0.03803005               -0.03298926
              -0.13969924                0.94883544               89.07214004                0.81851868               -0.03781254                0.00814527                0.07742704                0.01261245               -0.00081708                0.01180297
               0.85992263                0.94402241               89.07529783                0.19464911               -0.06354625               -0.06001417                0.08685017                0.07515835                0.00770667                0.00636945
               1.85902983                0.94062329               89.07865796                0.01000000               -0.10107901               -0.03701390                0.10141657                0.16918456                0.01989996                0.04057797
               2.85790105                0.93850769               89.08219578                0.01000000               -0.19367880               -0.00162349                0.10694217                0.30090707                0.06503558                0.08206952
               3.85515626                0.93982767               89.08629561                0.01000000               -0.23117362               -0.00175186                0.10395385                0.45652323                0.16408245                0.05410490
               4.85327758                0.94318781               89.09060808                0.01000000               -0.10256761               -0.10982699                0.07358470                0.45253920                0.09835657               -0.00133746
               5.85310490                0.94424746               89.09282886                0.01000000               -0.01647154               -0.11502640                0.09523426                0.23699429               -0.00536753                0.03039657
               6.85294815                0.94486627               89.09521215                0.79711926               -0.01717622               -0.02067851                0.09405616                0.02682238                0.00388700                0.04163610
               7.85276138                0.94508699               89.09757145                1.00000000               -0.02197632               -0.02609774                0.08554634                0.00690061               -0.00396574                0.01704082
               8.85250862                0.94515732               89.09979025                1.00000000               -0.02460413               -0.01813348                0.07817761                0.00000147               -0.00877111                0.00687776
               9.85226930                0.94517536               89.10207317                1.00000000               -0.02393252               -0.02626761                0.07288052               -0.00584545               -0.00547174               -0.03910315
              -0.13433464                1.94905613               89.07498839                0.78672394               -0.02221793                0.01671330                0.08480822                0.00986314               -0.00319029                0.04485946
               0.86544318                1.94320512               89.07805743                0.01000000               -0.03834205               -0.08736217                0.10246612                0.15415837                0.03678028                0.01831401
               1.86489852                1.94008867               89.08193525                0.01000001               -0.12045760               -0.07988968                0.09774881                0.38810913                0.09659112                0.09196355
               2.86303403                1.93864051               89.08599104                0.01000001               -0.19421629               -0.03245684                0.12849163                0.57184030                0.13186287                0.13361477
               3.86101420                1.93936319               89.09029038                0.01000001               -0.19464423               -0.08129378                0.13225306                0.77055019                0.14561136                0.10285788
               4.85914115                1.94102178               89.09426693                0.01000000               -0.20705719               -0.18305862                0.12688412                0.77613989                0.12147494                0.03308240
               5.85687305                1.94219676               89.09769325                0.01000001               -0.30694956               -0.14578024                0.12097710                0.68585792                0.07135444                0.06723361
               6.85300216                1.94466885               89.10042357                0.01000001               -0.20758154               -0.10993161                0.09054727                0.49956153                0.03516812                0.07179643
               7.85272142                1.94476872               89.10256218                0.01000001               -0.02572008               -0.12092572                0.09893090                0.21521914                0.02398557                0.07181655
               8.85248776                1.94496831               89.10499972                1.00000000               -0.02479593               -0.01741252                0.09902661                0.02231747                0.02611410                0.04678012
               9.85222550                1.94485086               89.10706334                1.00000000               -0.02622515               -0.03758626                0.09083707               -0.00143284                0.00955674               -0.05015540
              -0.12779995                2.94916971               89.07803947                0.50508550               -0.02267891                0.01792314                0.08541207                0.07005295                0.00562565                0.07049367
               0.87197326                2.94227516               89.08102252                0.01000000               -0.04217112               -0.14993900                0.11272884                0.27471597                0.08093969                0.06120635
               1.87135662                2.93902550               89.08546777                0.01000001               -0.09549574               -0.12964978                0.12823492                0.54322541                0.13949364                0.12519898
               2.87006334                2.93785855               89.08990457                0.01000001               -0.15853178               -0.11058026                0.13951959                0.73551160                0.13650522                0.13182345
               3.86818599                2.93820180               89.09426639                0.01000000               -0.20482712               -0.13044469                0.14560879                0.86813446                0.13505872                0.10167904
               4.86596680                2.93952664               89.09845143                0.01000001               -0.25054972               -0.14086415                0.14383030                0.92285953                0.12292250                0.06540525
               5.86317499                2.94133185               89.10227008                0.01000000               -0.27996866               -0.10191416                0.14060761                0.89661244                0.10590950                0.04352542
               6.86036743                2.94266763               89.10568266                0.01000000               -0.32043486               -0.13949197                0.13832891                0.80759281                0.08899782                0.05743421
               7.85676630                2.94266848               89.10858814                0.01000008               -0.37473017               -0.08057620                0.13518129                0.57613267                0.07919703                0.12494705
               8.85287282                2.94480907               89.11076417                1.00000000               -0.21453794               -0.02734161                0.13560593                0.12965003                0.03740372                0.07779478
               9.85247554                2.94442364               89.11202348                1.00000000               -0.03972854               -0.04083256                0.11006256               -0.00601088               -0.00895165               -0.05085300
              -0.11914449                3.94941459               89.08138037                0.36772657                0.02261992               -0.07843602                0.07051783                0.08919244                0.00536071                0.05297776
               0.88108171                3.94020634               89.08461960                0.01000000               -0.03379350               -0.19383434                0.11368213                0.42472766                0.07135820                0.16646755
               1.88017964                3.93749568               89.08930116                0.01000001               -0.12568724               -0.15210006                0.13601748                0.74023486                0.11761744                0.14394294
               2.87856797                3.93642890               89.09380291                0.01000000               -0.17354206               -0.16373397                0.14735629                0.86262498                0.10879020                0.12853353
               3.87670880                3.93675429               89.09827887                0.01000000               -0.20498434               -0.16668821                0.15219194                0.99789402                0.10675077                0.09838225
               4.87446828                3.93820450               89.10260378                0.01000000               -0.25222499               -0.14864249                0.15401128                1.09224161                0.09891324                0.05737334
               5.87166430                3.94015848               89.10669886                0.01000006               -0.33254467               -0.11283998                0.15491561                1.11784173                0.08845233                0.02320489
               6.86781739                3.94187901               89.11051335                0.01000000               -0.47808309               -0.04731283                0.15656780                1.04461510                0.08978322                0.00221111
               7.86210264                3.94315719               89.11421368                0.01000001               -0.72458936                0.05675618                0.17616570                0.97613948                0.05327358               -0.00807383
               8.85332560                3.94442148               89.11621784                0.01198960               -0.46132434               -0.07504111                0.17309414                0.90769577                0.09044238                0.09641432
               9.85287615                3.94403421               89.11710546                1.00000000               -0.04494465               -0.51875230                0.13308773                0.77943182                0.02695051                0.26435551
              -0.10759959                4.94760099               89.08449321                0.77817292               -0.00136803               -0.12807797                0.06025905                0.11953053                0.02101727               -0.01488446
               0.89238673                4.93839848               89.08892675                0.01000000               -0.12308257               -0.09757359                0.07529589                0.43587471               -0.00719392                0.11734400
               1.88993876                4.93598350               89.09295218                0.01000000               -0.21647509               -0.17541119                0.12982174                0.75835749                0.02915605                0.12418055
               2.88805723                4.93458387               89.09758534                0.01000001               -0.17852404               -0.21634027                0.14746810                0.91819349                0.06951448                0.11954533
               3.88636828                4.93486803               89.10217290                0.01000000               -0.18248902               -0.21971939                0.15646123                1.09030992                0.06573567                0.08581915
               4.88440745                4.93655379               89.10661913                0.01000001               -0.22554793               -0.19970567                0.16208042                1.24657613                0.05524437                0.04110225
               5.88185732                4.93907505               89.11089217                0.01000001               -0.30732135               -0.13348203                0.16512875                1.35045442                0.03694890               -0.00103519
               6.87826102                4.94172138               89.11489115                0.01000001               -0.40553515               -0.04079766                0.17108356                1.40260509               -0.00894723               -0.02317948
               7.87374661                4.94380360               89.11842365                0.01000007               -0.40556499                0.00013582                0.15323697                1.39751620               -0.10557133               -0.02233646
               8.87014972                4.94330825               89.12230635                0.01000004               -0.24539514               -0.18197701                0.37228861                1.16769788               -0.45405258                0.28122960
               9.86883871                4.93404859               89.12840571                0.01000000               -0.13110074               -0.66333217                0.09410577                0.72652161               -0.38934436                0.82498543
              -0.09834885                5.94685304               89.08602074                0.99999999               -0.02344510               -0.06249570                0.08522726                0.02737020               -0.00111338               -0.05332249
               0.90141670                5.93825487               89.09080442                0.01000000               -0.12448745               -0.01467219                0.09226638                0.23342888                0.03107603               -0.01045300
               1.89916140                5.93398745               89.09616978                0.01000001               -0.16846962               -0.27666812                0.11474869                0.69601107                0.06486808                0.11868391
               2.89804730                5.93210210               89.10111870                0.01000000               -0.13081555               -0.24707232                0.14081907                0.89464837                0.03792119                0.09821773
               3.89654509                5.93235991               89.10583225                0.01000006               -0.14272613               -0.30652763                0.16127808                1.10768666                0.02350260                0.06990912
               4.89519278                5.93421038               89.11043195                0.01000001               -0.15196446               -0.29539734                0.17033690                1.34099177                0.01110326                0.01809295
               5.89350580                5.93748884               89.11489955                0.01000001               -0.20259202               -0.20347139                0.17374050                1.52166171               -0.00507024               -0.02128134
               6.89114094                5.94106305               89.11924456                0.01000000               -0.25198516               -0.10144747                0.17290594                1.58284438               -0.03390055               -0.01454488
               7.88846610                5.94315991               89.12358448                0.01000000               -0.23531843               -0.07748472                0.19085709                1.43986882               -0.09920267                0.09024097
               8.88643457                5.94078194               89.12802338                0.01000000               -0.12700968               -0.16623242                0.16570347                0.95321254               -0.11502594                0.24579304
               9.88592590                5.93076757               89.13263668                0.01000000               -0.05086705               -0.17014321                0.20443822                0.57193748               -0.08581646                0.20279282
              -0.08985585                6.94635108               89.08773799                0.99999999               -0.02232629               -0.04887068                0.07405930                0.00277084                0.00546462               -0.04670492
               0.90992089                6.93810503               89.09274251                0.51185666               -0.00662013               -0.01406949                0.09619133                0.03482081                0.08917033               -0.00224260
               1.91001175                6.93045014               89.09935954                0.01000001               -0.11715728               -0.18572620                0.05364018                0.50323610                0.06213136                0.02566471
               2.90757774                6.92964243               89.10414100                0.01000000               -0.17990114               -0.28433977                0.13968642                0.78768904                0.00104371                0.06690814
               3.90641372                6.92873748               89.10919728                0.01000000               -0.07396972               -0.45304470                0.16813544                1.00292627               -0.00030292                0.06495853
               4.90609835                6.93064584               89.11397195                0.01000001               -0.04879220               -0.44424794                0.18396023                1.36586523               -0.01426500               -0.03153475
               5.90543788                6.93500563               89.11876433                0.01000000               -0.09257540               -0.28806250                0.18448753                1.59342026               -0.00365771               -0.04544852
               6.90424684                6.93969243               89.12370674                0.01000000               -0.13063871               -0.14380468                0.18105546                1.56900160               -0.00784486               -0.01564256
               7.90282511                6.94225391               89.12863972                0.01000000               -0.13202647               -0.06699584                0.17708141                1.33067527               -0.02436300                0.06819177
               8.90160631                6.93998360               89.13364513                0.01000001               -0.12594508                0.02100495                0.18512893                0.79886263               -0.01139372                0.16679392
               9.90030620                6.93064572               89.13892372                0.01000000               -0.13001051                0.14024403                0.19138709                0.36635905                0.01900839                0.23974590
              -0.08180135                7.94587562               89.08947929                1.00000000               -0.01845966               -0.04023310                0.06458337                0.00059751                0.00890469               -0.04945904
               0.91801405                7.93797348               89.09474418                1.00000000               -0.02549596               -0.01836224                0.08959877                0.01287126                0.01689555               -0.00510061
               1.91768873                7.93027293               89.10013136                0.01000001               -0.12501546               -0.02282534                0.11371909                0.19981115                0.07231370               -0.04099092
               2.91551374                7.92641530               89.10653066                0.01000006               -0.10442640               -0.34945789                0.13658548                0.54151098                0.11836944                0.04208087
               3.91560020                7.92329901               89.11240848                0.01000001                0.03640988               -0.66820151                0.18457414                0.87277736               -0.01085584                0.01522875
               4.91624194                7.92532542               89.11697409                0.01000007                0.03637068               -0.69300612                0.20570817                1.42729495               -0.01072134               -0.07156295
               5.91632761                7.93172759               89.12268297                0.01000000               -0.04846239               -0.26918699                0.21307250                1.52683528                0.09208022               -0.10590513
               6.91527269                7.93818696               89.12813487                0.01000000               -0.07695918               -0.13896040                0.19004962                1.36435272                0.06378152               -0.02745488
               7.91478843                7.94181999               89.13397484                0.01000000               -0.06263412               -0.06363234                0.17963889                1.13507523                0.04279825                0.04603932
               8.91402001                7.94120204               89.13990048                0.01000003               -0.14298000                0.18071096                0.17291639                0.76013598                0.02732471                0.20055684
               9.91192883                7.93357245               89.14571299                0.01000001               -0.20911787                0.45653326                0.17383884                0.45035737                0.03917119                0.28221113
              -0.07403961                8.94554641               89.09122414                0.99381144               -0.01793858               -0.02623559                0.05629343               -0.00459217               -0.00008002               -0.04111616
               0.92578100                8.93773779               89.09664383                0.99999998               -0.01971226               -0.02351466                0.08033034               -0.00230826                0.00634129               -0.00900145
               1.92556614                8.92999363               89.10213618                1.00000000               -0.01995626               -0.02765339                0.10484188                0.02037229                0.03991097                0.01554502
               2.92538188                8.92265327               89.10808879                1.00000000               -0.03034974               -0.20924582                0.14398150                0.12997698                0.06804323                0.01477511
               3.92495915                8.91537345               89.11377692                0.02214891                0.04168944               -0.42071712                0.18587278                0.54232215                0.15600328                0.05930599
               4.92621567                8.91678572               89.12142578                0.01000001               -0.09230502               -0.52827347                0.39093431                1.32407606                0.27141518               -0.42890750
               5.92311305                8.92962189               89.12652218                0.01000001               -0.23870874               -0.11711370                0.21001273                1.22999737                0.18472426               -0.10616766
               6.92144149                8.93691322               89.13263411                0.01000001               -0.03007582               -0.12821024                0.20509132                0.82431713                0.15335234               -0.01432657
               7.92251153                8.94098126               89.13930913                0.01000000                0.18075393               -0.14787025                0.18229786                0.75258831                0.18336509                0.03462658
               8.92505657                8.94359782               89.14768550                0.99999999                0.10304994                0.09492447                0.15564765                0.68564462                0.09200342                0.11507781
               9.92457253                8.93977639               89.15407494                0.99999996               -0.04840397                0.28300485                0.16948467                0.44044698               -0.00742713                0.12904018
              -0.06627595                9.94535091               89.09316920                0.98524306               -0.02033844               -0.01955036                0.05072853               -0.00840629               -0.02592713               -0.03121829
               0.93352067                9.93750318               89.09858628                1.00000000               -0.02716790               -0.02346055                0.07474923               -0.00758591               -0.03004053               -0.00653258
               1.93318070                9.92971986               89.10391227                1.00000000               -0.03936036               -0.02737684                0.09568961               -0.00218481               -0.03903174                0.00617233
               2.93273346                9.92223039               89.10920076                1.00000000               -0.04332501               -0.04228821                0.11823987               -0.00660136               -0.04086613               -0.00790629
               3.93231420                9.91488467               89.11456858                0.99246461               -0.21292191               -0.04887807                0.14603752                0.36198298                0.23412481                0.02228230
               4.92847502                9.91475995               89.12538176                0.01000001               -0.57570689               -0.20257616                0.06451667                0.95096789                0.79013851               -0.46809198
               5.92080006                9.92938532               89.13090855                0.01000003               -0.40376819               -0.02365713                0.22034906                0.81184087                0.20982091               -0.05699304
               6.92039966                9.93562276               89.13728767                0.01000000                0.11777709               -0.12904642                0.20037337                0.36968015                0.19833443                0.01386867
               7.92315560                9.93886259               89.14449259                0.01000000                0.42690570               -0.21186762                0.18354068                0.43829522                0.25086890                0.05135232
               8.92893777                9.94310053               89.15331677                0.99999999                0.26125132               -0.04972899                0.17762820                0.40661817                0.12878685                0.00702607
               9.92838063                9.93923255               89.15970655                1.00000000               -0.05571479               -0.05438446                0.19127383               -0.00598887                0.00718589               -0.00709215
              -0.14735007               -0.05376242               90.07027245                0.84998433               -0.00607376               -0.00641958                0.07933707                0.00007322                0.00939115               -0.00168004
               0.85258919               -0.05821632               90.07350234                0.73772922                0.01632787               -0.03822838                0.07790670                0.01634917                0.02383391                0.00201991
               1.85297649               -0.06170055               90.07705095                0.77934469                0.03062604               -0.02423189                0.08187183                0.00815445                0.05549070                0.00134847
               2.85320171               -0.06374011               90.08066397                0.50778611                0.02282004               -0.01611655                0.07867682                0.07045661                0.05887549                0.00507063
               3.85343289               -0.06351333               90.08426003                0.36678778               -0.07489785                0.02627932                0.07771961                0.08495278                0.01855193                0.00229028
               4.85170376               -0.06059553               90.08727899                0.91505318               -0.11146671               -0.00905422                0.06170106                0.11106696               -0.02321470                0.01823531
               5.85120355               -0.05983940               90.08936979                0.99999999               -0.05012573               -0.02142991                0.07852990                0.01019836               -0.06132929               -0.00205288
               6.85070124               -0.05953553               90.09133456                1.00000000               -0.04791218               -0.01889053                0.07560451                0.00408563               -0.06622454                0.01050220
               7.85024531               -0.05962072               90.09330616                0.99999988               -0.03881070               -0.01810234                0.06625981                0.00214364               -0.06845971                0.01002908
               8.84992503               -0.05989885               90.09525388                0.99082947               -0.02625274               -0.01442509                0.05632948               -0.00297493               -0.05747432               -0.00343812
               9.84972026               -0.06019588               90.09747743                0.97024620               -0.02047719               -0.02031566                0.05092859               -0.00700254               -0.04414721               -0.03795654
              -0.14289544                0.94617338               90.07292687                0.75200601               -0.03828140                0.01357887                0.08030858                0.01411044                0.00316074                0.00855259
               0.85672175                0.94140139               90.07615540                0.38223571               -0.06423172               -0.06166441                0.08369481                0.07599979                0.01628410                0.01510165
               1.85581993                0.93805713               90.07964236                0.01000000               -0.09545400               -0.04202521                0.09277324                0.16674610                0.03587977                0.01145179
               2.85481267                0.93609872               90.08320168                0.01000000               -0.15549015               -0.01301855                0.09606584                0.28100735                0.07458361                0.08253652
               3.85271012                0.93674947               90.08723888                0.01000000               -0.19176028               -0.01174454                0.09484252                0.40335296                0.16050239                0.04910880
               4.85097746                0.93931393               90.09133468                0.01000001               -0.09672918               -0.10370115                0.07426640                0.40720506                0.09266757                0.01876720
               5.85077554                0.93994630               90.09371259                0.01000001               -0.01723503               -0.10351152                0.08534681                0.21230403                0.00571852                0.04363315
               6.85063276                0.94027556               90.09611185                0.87446781               -0.01635666               -0.01943282                0.08716016                0.02491385                0.00238220                0.03271842
               7.85044841                0.94019825               90.09839742                0.99999999               -0.02249515               -0.02474143                0.08049908                0.00681235               -0.00962171                0.01306152
               8.85018286                0.93995689               90.10055140                0.99999999               -0.02505736               -0.01276717                0.07390442                0.00042788               -0.01303805                0.00408280
               9.84994726                0.93960096               90.10278790                1.00000000               -0.02355983               -0.02878592                0.06908535               -0.00708339               -0.00781477               -0.04640724
              -0.13752389                1.94650915               90.07582717                0.82102264               -0.02506753                0.02345441                0.08358152                0.00436253               -0.00038729                0.04130524
               0.86222544                1.94055039               90.07905813                0.01000000               -0.04310159               -0.08681488                0.09474213                0.15644464                0.00792518                0.03507697
               1.86161408                1.93745895               90.08255329                0.01000001               -0.10479569               -0.07338529                0.05888114                0.39134417                0.08140843                0.09055871
               2.86012952                1.93599952               90.08728997                0.01000001               -0.16646708               -0.04633251                0.12502226                0.54468658                0.15101379                0.13083185
               3.85828474                1.93625178               90.09154474                0.01000001               -0.17392512               -0.08121454                0.12287044                0.69020485                0.12952301                0.10236049
               4.85665102                1.93733045               90.09551446                0.01000000               -0.18983682               -0.16946219                0.11409799                0.69975852                0.10954307                0.05698897
               5.85448800                1.93809037               90.09892116                0.01000003               -0.28517260               -0.13891650                0.13774402                0.62856521                0.06486686                0.07118398
               6.85094757                1.94007581               90.10129573                0.01000002               -0.18938898               -0.10876717                0.08679110                0.46317519                0.02635791                0.08147472
               7.85070022                1.93988445               90.10351165                0.01000000               -0.02083457               -0.10970174                0.09253495                0.22116697                0.03196794                0.07897114
               8.85053088                1.93984580               90.10595358                1.00000000               -0.02048827               -0.00029942                0.09191761                0.04035204                0.02708483                0.05263381
               9.85029046                1.93922840               90.10794722                0.99999999               -0.02404198               -0.04295363                0.08683853                0.00394898                0.00877405               -0.06015751
              -0.13089066                2.94664247               90.07889200                0.56355039               -0.02084932                0.01147574                0.08531725                0.05008137                0.00334379                0.06043712
               0.86890085                2.93966510               90.08210130                0.01000000               -0.04558289               -0.12555915                0.10373284                0.26341746                0.07734372                0.07260993
               1.86819768                2.93658943               90.08676533                0.01000001               -0.09936435               -0.11417349                0.12525898                0.52382643                0.13225150                0.15293806
               2.86691356                2.93517207               90.09126431                0.01000000               -0.15071974               -0.10826638                0.13443719                0.67241331                0.12185948                0.12312501
               3.86518329                2.93512518               90.09570671                0.01000001               -0.18897587               -0.12627065                0.13956867                0.78723670                0.11942757                0.09825947
               4.86313404                2.93592469               90.09986899                0.01000000               -0.22909026               -0.13489154                0.13956862                0.82846618                0.10718414                0.06849110
               5.86060148                2.93716797               90.10368799                0.01000004               -0.25159269               -0.10370530                0.13385044                0.81188280                0.09270221                0.04925205
               6.85810219                2.93810022               90.10707279                0.01000003               -0.27498647               -0.14278448                0.13727592                0.73977396                0.08399845                0.08147490
               7.85510175                2.93800422               90.10992089                0.01000001               -0.32281207               -0.10021390                0.12849678                0.54413410                0.08630475                0.15395821
               8.85164595                2.93995091               90.11210503                1.00000000               -0.19203528               -0.01326450                0.11757950                0.16485147                0.03986134                0.10373428
               9.85126105                2.93874189               90.11312266                1.00000000               -0.03849002               -0.04475085                0.10834703               -0.01028435               -0.01860982               -0.06492350
              -0.12256751                3.94673867               90.08212624                0.38344367                0.01143442               -0.07330831                0.08165383                0.07833098                0.00334769                0.04206578
               0.87754683                3.93803921               90.08566548                0.01000001               -0.04244259               -0.16026443                0.10481693                0.37656757                0.05990689                0.16100108
               1.87658363                3.93517548               90.09061669                0.01000001               -0.12523957               -0.13897857                0.12757466                0.66862979                0.10863927                0.13662905
               2.87504204                3.93383419               90.09526341                0.01000001               -0.16533874               -0.15287499                0.14217351                0.78258893                0.09632453                0.12391906
               3.87327686                3.93372637               90.09979837                0.01000001               -0.19322452               -0.15965468                0.14888863                0.90099672                0.09315237                0.09450830
               4.87117755                3.93463262               90.10415250                0.01000002               -0.23633663               -0.14511928                0.15197266                0.98382453                0.08900754                0.06105415
               5.86855013                3.93601627               90.10827072                0.01000000               -0.31353720               -0.11230555                0.15558537                1.00081948                0.08836288                0.03015626
               6.86490680                3.93722012               90.11213094                0.01000000               -0.44089552               -0.05093695                0.16321959                0.90670336                0.10915089                0.01659774
               7.85973222                3.93788017               90.11602593                0.01000000               -0.59082832                0.03815390                0.16203639                0.78121426                0.08987999                0.00302616
               8.85309024                3.93958051               90.11802841                0.21922412               -0.36147032                0.06528751                0.18872936                0.25077951                0.12521282                0.34223967
               9.85250281                3.93833338               90.11849550                1.00000000               -0.05874278               -0.03148417                0.15791645                0.07817263                0.04528968                0.08040292
              -0.11192511                4.94517630               90.08507835                0.89157254               -0.00794935               -0.10441639                0.05917281                0.09809368                0.01751613               -0.00562099
               0.88799539                4.93645981               90.08966487                0.01000001               -0.11497942               -0.08827378                0.07529416                0.38525793                0.00852624                0.10564064
               1.88577530                4.93380985               90.09419419                0.01000000               -0.19904733               -0.16040972                0.12294681                0.68187047                0.04251863                0.11572690
               2.88401445                4.93211457               90.09904270                0.01000001               -0.16852516               -0.19960823                0.14088252                0.82767600                0.06479696                0.11205650
               3.88240479                4.93193208               90.10374372                0.01000002               -0.17469032               -0.20781464                0.15427439                0.98213467                0.05830615                0.08805571
               4.88052064                4.93302230               90.10827419                0.01000000               -0.21872115               -0.19527208                0.16464181                1.12459979                0.04970701                0.04770573
               5.87803037                4.93492186               90.11259679                0.01000007               -0.30741424               -0.13419180                0.17351153                1.22363551                0.04295971                0.00606634
               6.87437235                4.93708148               90.11676975                0.01000000               -0.48323617               -0.03653060                0.18580698                1.26406219                0.00430181               -0.02057546
               7.86836565                4.93876730               90.12016349                0.01000001               -0.90820133                0.06514690                0.24188294                1.36296321                0.13369129               -0.00705646
               8.85620833                4.94125666               90.12819169                0.01000001               -0.65234417               -0.06190950                0.28830169                1.35964276               -0.31328471                0.20814115
               9.85531876                4.93811220               90.12684223                0.01000001               -0.08895634               -0.54001866               -0.03028825                1.09928240               -0.71918098                0.71592798
              -0.10317265                5.94465034               90.08681995                1.00000000               -0.02089130               -0.05197813                0.07523143                0.01318622               -0.00127633               -0.05516405
               0.89661844                5.93627373               90.09168176                0.01000001               -0.11305355               -0.01576608                0.08530014                0.21112787                0.03758353                0.00333374
               1.89456628                5.93196728               90.09728804                0.01000008               -0.15725539               -0.25390169                0.11280529                0.63069522                0.07418739                0.08051034
               2.89347333                5.92984202               90.10249443                0.01000005               -0.12772274               -0.22300925                0.13570597                0.80806028                0.04296445                0.09865437
               3.89201182                5.92957008               90.10746448                0.01000000               -0.13967823               -0.28771059                0.15969427                0.99314477                0.02543085                0.08186025
               4.89067977                5.93072718               90.11218884                0.01000007               -0.15240829               -0.29340155                0.17653591                1.21524214                0.00686066                0.03976613
               5.88896366                5.93333243               90.11673330                0.01000000               -0.21685750               -0.21032369                0.18650957                1.40918097               -0.01061390               -0.00701902
               6.88634261                5.93648951               90.12110716                0.01000000               -0.30736778               -0.09625965                0.19578076                1.52969786               -0.01729299               -0.01894157
               7.88281630                5.93918311               90.12578916                0.01000000               -0.27022149               -0.04814557                0.20621416                1.55234597               -0.07790503                0.08567668
               8.88093819                5.93834232               90.12967645                0.01000001               -0.10194694               -0.27587801                0.23060898                1.42215732               -0.04532997                0.02499069
               9.88077736                5.92753301               90.13518044                0.01000000               -0.01608211               -0.57557717                0.23335628                0.91398803                0.02236996                0.38532945
              -0.09490817                6.94413674               90.08846218                1.00000000               -0.01908215               -0.05054013                0.07144275                0.00390142                0.00884080               -0.05953071
               0.90490101                6.93614449               90.09369760                0.71042407               -0.01354607               -0.01374405                0.09147300                0.03486670                0.05800586                0.00093075
               1.90482091                6.92873182               90.09986809                0.01000000               -0.11640768               -0.17294823                0.05627124                0.46670355                0.06582699                0.02399206
               2.90257285                6.92765439               90.10550681                0.01000003               -0.17191858               -0.24508601                0.13225691                0.72144768                0.04497332                0.07353582
               3.90138254                6.92617787               90.11090309                0.01000000               -0.07548627               -0.41239023                0.16812217                0.88412013                0.01479687                0.09774465
               4.90106313                6.92715427               90.11594398                0.01000000               -0.04654393               -0.48071657                0.19345822                1.24408213               -0.01836470                0.02918482
               5.90045166                6.93071539               90.12074106                0.01000000               -0.09737476               -0.31006395                0.20074433                1.52405883               -0.02487833                0.00098285
               6.89911563                6.93515629               90.12563701                0.01000001               -0.14459526               -0.14719575                0.19242384                1.54474705               -0.02903821               -0.00473220
               7.89755975                6.93780438               90.13055112                0.01000001               -0.14070303               -0.11123050                0.19769428                1.35136358               -0.02301969                0.05698931
               8.89630157                6.93573910               90.13575604                0.01000001               -0.11712995               -0.10769403                0.22759549                0.81157331               -0.01186243                0.18055886
               9.89521715                6.92660066               90.14089675                0.01000000               -0.10844196                0.06282508                0.21712046                0.37210456               -0.00754231                0.25280300
              -0.08711011                7.94363954               90.09011373                1.00000000               -0.01691962               -0.04196777                0.06329996                0.00132837                0.00845842               -0.05921363
               0.91272069                7.93599885               90.09562267                0.99999999               -0.02497190               -0.01979160                0.08445138                0.01079570                0.01441168               -0.01063913
               1.91239045                7.92850832               90.10122990                0.01000000               -0.11322296               -0.02150443                0.10229079                0.21169220                0.07166084               -0.01055222
               2.91045623                7.92494030               90.10787495                0.01000001               -0.10980524               -0.30350538                0.12956799                0.52147441                0.13810196                0.05517054
               3.91019434                7.92132227               90.11427219                0.01000000                0.02838292               -0.54936786                0.16552742                0.72965705                0.03420924                0.07162032
               4.91102389                7.92111284               90.11933919                0.01000001                0.06242370               -0.84691865                0.25038606                1.30591741                0.00621815                0.18458192
               5.91144282                7.92713115               90.12503566                0.01000000               -0.04376650               -0.29111201                0.21450645                1.55196203                0.03306681               -0.01049176
               6.91014856                7.93354559               90.13018068                0.01000001               -0.10910274               -0.14398147                0.20532503                1.35914896                0.02439870                0.00577167
               7.90926076                7.93695850               90.13589960                0.01000001               -0.08875925               -0.08683994                0.19135623                1.09355389                0.03338613                0.06128774
               8.90837338                7.93618844               90.14170982                0.01000001               -0.13822182                0.10963055                0.19730781                0.70272829                0.03272064                0.16148707
               9.90649633                7.92878951               90.14750885                0.01000003               -0.18770480                0.36795714                0.21087903                0.40125977                0.03612829                0.28135459
              -0.07960023                8.94329738               90.09177098                0.98296646               -0.01516304               -0.02715587                0.05456624               -0.00463122               -0.00343330               -0.04811362
               0.92024814                8.93574865               90.09742482                1.00000000               -0.01432376               -0.02415833                0.07587085               -0.00129806                0.00231374               -0.01372492
               1.92011330                8.92830173               90.10314804                1.00000000               -0.00298784               -0.02310889                0.09734110                0.03787546                0.04398359                0.01303419
               2.92018839                8.92158428               90.10950995                1.00000000               -0.01550809               -0.18821125                0.12553557                0.16284763                0.09234994                0.02192823
               3.91980314                8.91519051               90.11572113                0.27065149                0.05921066               -0.33828325                0.20117695                0.24155727                0.33878955                0.09580708
               4.92137260                8.91021590               90.12628929                0.01000001               -0.03724933               -0.58983906                0.24130400                1.25002160                0.11865510                0.00091145
               5.91905815                8.92489315               90.12877393                0.01000003               -0.24506663               -0.12716238                0.24704100                1.36667256               -0.04992095                0.00653777
               6.91647127                8.93227666               90.13491051                0.01000000               -0.11350838               -0.11728738                0.24206108                0.83086125                0.12680607                0.00812770
               7.91678798                8.93606759               90.14122560                0.01000001                0.10269302               -0.13815375                0.20722457                0.70155406                0.13193035                0.05484214
               8.91852513                8.93793171               90.14924710                0.99999999                0.06261158                0.06205969                0.15702818                0.60342293                0.06768435                0.09155896
               9.91804021                8.93395980               90.15576710                0.99999924               -0.04849135                0.23158519                0.16863694                0.37770200               -0.00748581                0.11339831
              -0.07210527                9.94309642               90.09365937                0.97039674               -0.02043421               -0.02009641                0.04906766               -0.00857860               -0.03171258               -0.03720572
               0.92769038                9.93551568               90.09931408                1.00000000               -0.02911958               -0.02329705                0.07083373               -0.00829011               -0.03898345               -0.00882458
               1.92731233                9.92804614               90.10483972                0.99999999               -0.04329903               -0.02555925                0.09110376                0.00292326               -0.05088057                0.00536119
               2.92682440                9.92117608               90.11037563                1.00000000               -0.04592302               -0.04082004                0.11477040               -0.01087496               -0.05468782               -0.01627970
               3.92639387                9.91455661               90.11609214                1.00000000               -0.02513571               -0.06339058                0.16943252                0.06607286                0.10366808                0.03959663
               4.92632169                9.90931606               90.12500218                0.01000000               -0.48391815               -0.08998327                0.02461953                0.99647361                0.41613314               -0.31226883
               5.91671551                9.92458790               90.13335072                0.01000002               -0.53651699               -0.03052450                0.22861292                0.85992510                0.31247864                0.02040742
               6.91559135                9.93119985               90.13940883                0.01000000                0.04606420               -0.10768105                0.23078829                0.39238409                0.21306072                0.00257338
               7.91763679                9.93419542               90.14638762                0.01000002                0.34791338               -0.18721630                0.22318031                0.39637063                0.25275547                0.05243672
               8.92254962                9.93742963               90.15509675                1.00000000                0.21786910               -0.05020720                0.17791694                0.36373839                0.11671389                0.00727193
               9.92199418                9.93342121               90.16161293                1.00000000               -0.05554403               -0.05385902                0.19058475               -0.00544606                0.00693738               -0.00745442
              -0.15048491               -0.05644920               91.07111105                0.82525088               -0.00890456               -0.00990159                0.09037376               -0.00192892                0.00727326               -0.00404083
               0.84942605               -0.06086031               91.07429065                0.65723841                0.02166011               -0.03710347                0.08184177                0.01679346                0.02222242                0.00524962
               1.84994830               -0.06432689               91.07786280                0.79385651                0.03813273               -0.03231173                0.07768690                0.00324880                0.05466160                0.00217824
               2.85018870               -0.06630103               91.08144925                0.55344463                0.01857866               -0.01665430                0.08108956                0.05141130                0.05860031                0.00955850
               3.85031987               -0.06651367               91.08511368                0.36967333               -0.06263016                0.00388054                0.09235854                0.07997763                0.00756375                0.00783858
               4.84893610               -0.06452835               91.08789661                0.95627894               -0.08951972               -0.01439627                0.06461675                0.08632717               -0.02366864                0.01699433
               5.84852947               -0.06422937               91.09009961                1.00000000               -0.04458615               -0.02018876                0.07156091                0.00457495               -0.05933997                0.00011911
               6.84804438               -0.06426212               91.09207015                1.00000000               -0.04717654               -0.01784182                0.07091877                0.00356280               -0.07362829                0.00955180
               7.84758594               -0.06469127               91.09395717                1.00000000               -0.03945179               -0.01659924                0.06375198                0.00081028               -0.07891707                0.00747673
               8.84725534               -0.06533281               91.09580990                0.97966164               -0.02687417               -0.01279048                0.05584291               -0.00542469               -0.06521588               -0.00550803
               9.84704846               -0.06600385               91.09797834                0.95442395               -0.02068802               -0.02187238                0.04862799               -0.00794963               -0.04916061               -0.04092609
              -0.14609308                0.94345178               91.07374622                0.66312730               -0.03740895                0.01831552                0.08570603                0.01571721                0.00584801                0.00466405
               0.85353283                0.93876865               91.07697173                0.45552178               -0.06028861               -0.05894650                0.08059294                0.06738666                0.02224442                0.02093856
               1.85270114                0.93534999               91.08051343                0.01000001               -0.08683108               -0.04481181                0.08280049                0.15551675                0.04468321               -0.00389823
               2.85179620                0.93353242               91.08411710                0.01000001               -0.12339186               -0.02522237                0.09677064                0.25246513                0.08046407                0.09035236
               3.85023331                0.93352514               91.08819246                0.01000000               -0.15694912               -0.02718841                0.10955049                0.34277771                0.14445444                0.05845731
               4.84865722                0.93532768               91.09209341                0.01000000               -0.08955991               -0.09221979                0.08285979                0.35315462                0.08574130                0.02438822
               5.84844211                0.93556875               91.09453579                0.01000001               -0.01731329               -0.10627978                0.08428551                0.20457112                0.00936924                0.07232733
               6.84831096                0.93555946               91.09695536                0.89788605               -0.01563569               -0.02002416                0.08478819                0.02342226               -0.00043333                0.02624709
               7.84812939                0.93514274               91.09918143                1.00000000               -0.02267845               -0.02420289                0.07786845                0.00484049               -0.01649485                0.00883490
               8.84785739                0.93453928               91.10126834                0.99676268               -0.02446941               -0.00999135                0.06955193               -0.00133897               -0.01834458                0.00068347
               9.84764001                0.93377742               91.10345487                0.99714794               -0.02173813               -0.03415984                0.06385313               -0.00792435               -0.01109088               -0.04899221
              -0.14080430                1.94391711               91.07666002                0.81763518               -0.03201284                0.03138036                0.08042841                0.00143528                0.00192815                0.03817425
               0.85887557                1.93796076               91.07995227                0.01036973               -0.04504199               -0.08243210                0.08485853                0.14868716               -0.00753716                0.04557612
               1.85829486                1.93477687               91.08311287                0.01000001               -0.09063546               -0.06645664                0.05891078                0.36856345                0.09972651                0.10814941
               2.85706286                1.93319452               91.08849149                0.01000001               -0.14573468               -0.05924094                0.13105525                0.49643209                0.16420543                0.13706420
               3.85538016                1.93294257               91.09274779                0.01000000               -0.15536369               -0.08058907                0.11912401                0.60846426                0.10664093                0.10644153
               4.85395559                1.93362725               91.09654889                0.01000000               -0.14955221               -0.15346334                0.10287916                0.60872257                0.08668081                0.06741376
               5.85238912                1.93364504               91.10044813                0.01000000               -0.25083783               -0.13007025                0.18590444                0.55466369               -0.09320735                0.18920421
               6.84893883                1.93533740               91.10215939                0.01000000               -0.18430924               -0.10487686                0.09284020                0.43415902               -0.00141029                0.09331093
               7.84870293                1.93482467               91.10441287                0.01000000               -0.01724752               -0.09546872                0.09061181                0.22303621                0.03452178                0.08508653
               8.84859388                1.93446736               91.10683807                0.99999999               -0.01446201                0.01348212                0.08462292                0.05495829                0.02551544                0.04332504
               9.84841369                1.93331295               91.10880011                1.00000000               -0.01801843               -0.06002675                0.08501789                0.00596242                0.00848172               -0.06571090
              -0.13415168                2.94407939               91.07974581                0.61013040               -0.02015210                0.00762264                0.08758946                0.03647571                0.00645781                0.05638521
               0.86564680                2.93712001               91.08309718                0.01000000               -0.05048375               -0.10489825                0.10381772                0.24276494                0.07973171                0.08226524
               1.86483865                2.93402086               91.08797295                0.01000001               -0.10438234               -0.09887388                0.12871901                0.48436215                0.12594587                0.18431961
               2.86355915                2.93234761               91.09259332                0.01000000               -0.14343937               -0.10328118                0.13275489                0.60712106                0.11219640                0.11643154
               3.86196986                2.93191336               91.09705776                0.01000000               -0.17149768               -0.11675577                0.13190327                0.71067056                0.10493529                0.09596648
               4.86012920                2.93225842               91.10124281                0.01000000               -0.20723123               -0.13034354                0.13535342                0.74372399                0.07638374                0.09819602
               5.85782524                2.93296734               91.10494709                0.01000001               -0.21573500               -0.08961160                0.11951294                0.71337552                0.09682105                0.06544864
               6.85581450                2.93346193               91.10842818                0.01000000               -0.21825397               -0.14116966                0.12903737                0.67861942                0.08008902                0.10916577
               7.85346016                2.93323336               91.11115808                0.01000000               -0.26731116               -0.09247803                0.11519556                0.53234174                0.05887053                0.16502595
               8.85046828                2.93480892               91.11311576                1.00000000               -0.16960400                0.03561248                0.09642429                0.20549642                0.02691824                0.11488062
               9.85006808                2.93257689               91.11419042                0.99999999               -0.04002016               -0.06951236                0.11743830               -0.00150045               -0.01277122               -0.05751093
              -0.12615603                3.94406956               91.08301344                0.39984650               -0.00545735               -0.06422638                0.09481729                0.06579175                0.00634375                0.02540786
               0.87378939                3.93586279               91.08671594                0.01000000               -0.05447325               -0.13124986                0.11725912                0.32622235                0.06060063                0.14468147
               1.87275450                3.93279940               91.09185265                0.01000000               -0.12383058               -0.11970832                0.12254260                0.59193814                0.10558363                0.12699398
               2.87131278                3.93112890               91.09664638                0.01000000               -0.15358701               -0.13768113                0.13312002                0.70262697                0.09109981                0.11305616
               3.86968276                3.93060745               91.10125664                0.01000000               -0.17683503               -0.14751628                0.14078665                0.81122660                0.08471441                0.09437304
               4.86777608                3.93102038               91.10564323                0.01000001               -0.21148205               -0.13934287                0.14574196                0.88323340                0.08623257                0.07067238
               5.86545312                3.93185281               91.10981056                0.01000000               -0.27654440               -0.11167698                0.15150878                0.89446686                0.09524248                0.05308900
               6.86224519                3.93251400               91.11377774                0.01000003               -0.37251757               -0.05641408                0.15369055                0.80440819                0.12573422                0.04111514
               7.85800277                3.93297511               91.11745441                0.01000000               -0.44424546                0.03329410                0.12959517                0.71019735                0.14358044                0.10843247
               8.85336028                3.93517961               91.11999243                1.00000000               -0.25775048                0.05070518                0.13712051                0.28422979                0.12631235                0.23292959
               9.85284776                3.93192270               91.12026379                1.00000000               -0.05125241               -0.04473374                0.14907954                0.02860630                0.03189468                0.01423701
              -0.11642231                4.94279486               91.08567667                0.93334346               -0.01362833               -0.08518173                0.06379877                0.07291601                0.01520778               -0.00903511
               0.88344141                4.93449501               91.09043264                0.01000000               -0.10831952               -0.07869908                0.08325073                0.33713585                0.02063890                0.09308654
               1.88141130                4.93162669               91.09541112                0.01000000               -0.18188855               -0.14378159                0.11072388                0.60884744                0.05929242                0.10105728
               2.87980364                4.92959398               91.10040299                0.01000000               -0.15541980               -0.17589128                0.13188154                0.73768510                0.06834416                0.10023238
               3.87830291                4.92896303               91.10525839                0.01000001               -0.16275634               -0.18848564                0.14624435                0.87770557                0.06353374                0.08792181
               4.87654851                4.92947156               91.10991197                0.01000000               -0.20409795               -0.18422355                0.16103473                1.00279333                0.05572809                0.05919777
               5.87422095                4.93073380               91.11436241                0.01000000               -0.28840777               -0.13243048                0.17221153                1.08920792                0.05658404                0.02076579
               6.87078036                4.93233364               91.11860729                0.01000000               -0.46112253               -0.03485188                0.18128521                1.13297366                0.10045986               -0.01120338
               7.86499850                4.93389925               91.12326131                0.01000001               -0.67875364                0.07553496                0.22695443                1.19126603                0.22377635                0.00768864
               8.85720528                4.93582303               91.12807239                0.01000001               -0.39222404               -0.07311026               -0.01492392                1.02796861                0.30410706                0.04403081
               9.85715402                4.93168221               91.12779995                0.24305965               -0.00512676               -0.37515320                0.05860648                0.71179657                0.09090096                0.15547019
              -0.10809802                5.94236592               91.08752536                1.00000000               -0.02017068               -0.04640916                0.06994262                0.00590996               -0.00005776               -0.05499690
               0.89170028                5.93428881               91.09251042                0.01000001               -0.10347519               -0.01561335                0.08431593                0.18957626                0.04501845                0.00797885
               1.88983248                5.92992376               91.09842588                0.01000000               -0.14850654               -0.23192886                0.12385047                0.57150187                0.07552642                0.05999692
               2.88873015                5.92761107               91.10383282                0.01000000               -0.12365915               -0.19306818                0.12276547                0.72762689                0.05558181                0.08514313
               3.88735930                5.92683774               91.10902614                0.01000000               -0.13344833               -0.25391822                0.15081158                0.88472095                0.04002326                0.09227085
               4.88606118                5.92733591               91.11396267                0.01000000               -0.14920502               -0.26961902                0.17260978                1.08555180                0.01637394                0.05902495
               5.88437520                5.92920420               91.11862974                0.01000002               -0.21609785               -0.20054393                0.18653122                1.27536993                0.00038377                0.00681400
               6.88173922                5.93181697               91.12316017                0.01000000               -0.30182449               -0.09046899                0.19876317                1.41786349                0.00782033               -0.02961252
               7.87833871                5.93448581               91.12770877                0.01000001               -0.28012654               -0.03079957                0.17834748                1.45738079                0.03786442               -0.04822700
               8.87613669                5.93371740               91.13263556                0.01000001               -0.14866911               -0.21308085                0.28444952                1.18759854               -0.12694854                0.20454900
               9.87536532                5.92441964               91.13730380                0.03551492               -0.07713672               -0.41544177                0.04043885                0.70621961               -0.12719473                0.45114500
              -0.10014988                6.94186668               91.08916684                1.00000000               -0.01750283               -0.04916869                0.06960627                0.00400467                0.00952472               -0.06706205
               0.89967510                6.93418274               91.09457197                0.83418671               -0.01655225               -0.01276653                0.08453843                0.03036402                0.03575256               -0.00123427
               1.89951908                6.92698812               91.10048497                0.01000000               -0.11164456               -0.15709138                0.06800212                0.42935276                0.07356527                0.01393961
               2.89744220                6.92573262               91.10678614                0.01000000               -0.16232955               -0.20477487                0.12561398                0.66999477                0.08547724                0.06754419
               3.89627249                6.92388467               91.11255973                0.01000003               -0.07745573               -0.34621767                0.15356487                0.79037040                0.03952217                0.11066780
               4.89589309                6.92407918               91.11784111                0.01000000               -0.05125990               -0.43320783                0.18082646                1.11899533               -0.01284617                0.10391114
               5.89524729                6.92672292               91.12277922                0.01000000               -0.10185392               -0.28596572                0.19655380                1.41086744               -0.04085152                0.02549094
               6.89385601                6.93052426               91.12755522                0.01000002               -0.15008068               -0.13940395                0.19236218                1.48589187               -0.04598159               -0.02470752
               7.89224568                6.93328325               91.13259360                0.01000000               -0.14162907               -0.10572733                0.19494353                1.33127300               -0.01095893                0.02523153
               8.89102343                6.93156141               91.13819704                0.01000003               -0.11858670               -0.13883385                0.22704042                0.85093006                0.03213882                0.31522290
               9.88987394                6.92337338               91.14326613                0.01000002               -0.11494876               -0.00452216                0.28082692                0.46559693                0.07273553                0.27961670
              -0.09265006                7.94138255               91.09074529                1.00000000               -0.01638232               -0.04140865                0.06313013                0.00178893                0.00672768               -0.06884142
               0.90718612                7.93403348               91.09643321                0.99848584               -0.02401401               -0.02054321                0.07852748                0.00872554                0.00991992               -0.01811439
               1.90686966                7.92678194               91.10217718                0.01000000               -0.09763135               -0.01718116                0.09054965                0.21618504                0.07366404                0.00648636
               2.90523349                7.92351557               91.10912201                0.01000000               -0.10247577               -0.25707307                0.11762222                0.51725154                0.14304142                0.03728790
               3.90482014                7.91991338               91.11571903                0.01000003                0.01846705               -0.42075127                0.13278545                0.69196441                0.10131441                0.12169830
               4.90560283                7.91867175               91.12198181                0.01000001                0.06636583               -0.64691122                0.20356172                1.16071878                0.00952515                0.22948252
               5.90614746                7.92348488               91.12697310                0.01000001               -0.03530517               -0.26426721                0.17385534                1.43016272               -0.05542509                0.06664604
               6.90489673                7.92902889               91.13224137                0.01000000               -0.11102206               -0.13383171                0.19373233                1.32781578                0.00044244                0.02545019
               7.90392702                7.93237127               91.13780196                0.01000003               -0.09157780               -0.08465875                0.16697445                1.02398600               -0.01135193                0.02332970
               8.90306517                7.93094073               91.14384664                0.01000000               -0.14368439                0.02403275                0.26183825                0.64016299                0.05454680                0.29049701
               9.90105333                7.92432919               91.14993057                0.01000002               -0.20118395                0.22834512                0.32616470                0.41429025                0.15721064                0.27012528
              -0.08541595                8.94103850               91.09231547                0.97188826               -0.01338270               -0.02762660                0.05504491               -0.00514022               -0.00612365               -0.05580051
               0.91445022                8.93377188               91.09816125                0.99982785               -0.01116812               -0.02426535                0.07143223               -0.00097390               -0.00141918               -0.01947210
               1.91436068                8.92664449               91.10408300                0.99999999                0.01027841               -0.01691062                0.08910698                0.05255761                0.03440392                0.01151730
               2.91465579                8.92059116               91.11059950                1.00000000                0.02974562               -0.16710688                0.10386770                0.19894724                0.10420076                0.01332387
               3.91495560                8.91546964               91.11780046                1.00000000                0.04400897               -0.24894016                0.14717863                0.27453265                0.22633690                0.10533942
               4.91553597                8.91114096               91.12625186                0.01000001               -0.07310936               -0.37914780               -0.00820278                0.99521023                0.05417217                0.27271703
               5.91349341                8.92143758               91.13146300                0.01000001               -0.20050121               -0.14225038                0.27000895                1.16010995                0.19583331               -0.08433974
               6.91152594                8.92784763               91.13747533                0.01000001               -0.13399261               -0.11756461                0.22768417                0.84398744                0.27818175                0.08035620
               7.91081356                8.93159008               91.14345362                0.01000005                0.01714089               -0.13919956                0.26563774                0.63951023                0.26370894                0.08993528
               8.91186876                8.93204207               91.15082606                1.00000000                0.02846279                0.03029683                0.15782033                0.46658875                0.03040422                0.05482387
               9.91138281                8.92794028               91.15744768                0.99999999               -0.04859482                0.15313025                0.16804135                0.31150546               -0.00701244                0.06365119
              -0.07821962                9.94083002               91.09415055                0.95432314               -0.02197324               -0.02084845                0.04835499               -0.00855131               -0.03560367               -0.04266602
               0.92156065                9.93354817               91.10000295                0.99836992               -0.03394235               -0.02237091                0.06601883               -0.00827181               -0.04308039               -0.01191638
               1.92110153                9.92644372               91.10573435                0.99999997               -0.05866816               -0.02007686                0.08882156                0.00534819               -0.05881261                0.00496726
               2.92038729                9.92017344               91.11149617                0.99999999               -0.06702669               -0.04177224                0.12178922               -0.00230744               -0.04911815               -0.01080252
               3.91976100                9.91493458               91.11795723                1.00000000               -0.04240931               -0.05350615                0.15525810                0.02630840                0.02656492                0.02955129
               4.91953910                9.91108880               91.12587415                0.22173350               -0.35590072               -0.00521585                0.05455433                0.68557787                0.15004425                0.08083456
               5.91264299                9.92063987               91.13548081                0.01000002               -0.39575622               -0.07977041                0.05764780                0.69439757                0.40013379               -0.09002283
               6.91162398                9.92667760               91.14190344                0.01000000               -0.00600987               -0.11700340                0.31340592                0.45717316                0.26106079                0.10623379
               7.91252279                9.92958727               91.14895620                0.01000000                0.22113865               -0.20028056                0.35393694                0.41437650                0.25398264                0.18230272
               8.91604675                9.93154666               91.15687511                0.99999999                0.14821136               -0.04954021                0.17904328                0.30802492                0.07070360                0.00614591
               9.91548702                9.92739180               91.16351824                1.00000000               -0.05597323               -0.05484792                0.18840921               -0.00506618                0.00822126               -0.00559435
              -0.15356382               -0.05911358               92.07207993                0.81085372               -0.01542975               -0.01687321                0.10293879               -0.00255846                0.00380658               -0.00626757
               0.84628189               -0.06347348               92.07513918                0.56264360                0.02374675               -0.03679774                0.08979516                0.01952085                0.01640318                0.00561138
               1.84691112               -0.06695824               92.07860469                0.70812207                0.04204782               -0.03126687                0.06798595               -0.00484727                0.04636495                0.00475071
               2.84712284               -0.06888463               92.08228576                0.61655536                0.01128447               -0.02518362                0.09102420                0.03421331                0.06688105                0.01627414
               3.84713681               -0.06951412               92.08610720                0.42187883               -0.04391994               -0.02013831                0.09115037                0.06037775                0.00190346                0.00574082
               4.84624444               -0.06864925               92.08857133                0.93777678               -0.06467991               -0.02013360                0.07679308                0.05068835               -0.02776640                0.01289881
               5.84584321               -0.06870937               92.09080100                0.99999999               -0.04366604               -0.02462956                0.06851563                0.00249423               -0.05542657               -0.00009740
               6.84537112               -0.06911491               92.09275293                0.99999999               -0.04579948               -0.01738277                0.06587393                0.00021610               -0.07593537                0.01056486
               7.84492722               -0.06991972               92.09458120                0.99999999               -0.03857919               -0.01610413                0.06196277               -0.00271887               -0.08221796                0.00713963
               8.84459954               -0.07092590               92.09637074                0.94804830               -0.02635277               -0.01317114                0.05620454               -0.00808965               -0.06740315               -0.00706271
               9.84440016               -0.07196748               92.09844999                0.91163850               -0.01993745               -0.02331789                0.04399269               -0.00893699               -0.05124828               -0.03753434
              -0.14922950                0.94071769               92.07464099                0.56608799               -0.03710755                0.01933100                0.09480045                0.01878456                0.00501532               -0.00237782
               0.85039942                0.93615854               92.07776726                0.31116107               -0.06011391               -0.05950309                0.08231233                0.06756790                0.02591473                0.02431199
               1.84956822                0.93272909               92.08129837                0.01000002               -0.08282541               -0.04396741                0.07784285                0.14316345                0.05911125               -0.00317507
               2.84874292                0.93086353               92.08513710                0.01000000               -0.09726625               -0.04253956                0.12373117                0.21056380                0.10385832                0.09799545
               3.84762290                0.93028450               92.08942989                0.01000000               -0.11969814               -0.04852842                0.13564089                0.27546137                0.12398894                0.05573950
               4.84634895                0.93114941               92.09299188                0.01000001               -0.07609581               -0.09107097                0.09665179                0.25998449                0.06818161                0.01516622
               5.84610098                0.93104433               92.09539830                0.10324265               -0.01852483                0.00862652                0.09531334                0.03659984                0.00973238                0.13461324
               6.84597846                0.93071126               92.09780761                0.96887846               -0.01477273               -0.02079447                0.08535801                0.02292031               -0.00411140                0.02569400
               7.84580553                0.92991924               92.09995479                1.00000000               -0.02179666               -0.02353763                0.07515067                0.00079425               -0.02442216                0.00712184
               8.84554252                0.92894239               92.10194244                0.93256459               -0.02265755               -0.01046124                0.06718459               -0.00327427               -0.02464577               -0.00190421
               9.84535237                0.92779934               92.10406496                0.96850882               -0.01901487               -0.04269455                0.05898720               -0.00751212               -0.01503881               -0.04192361
              -0.14406983                1.94127304               92.07743574                0.72062715               -0.03083269                0.03495292                0.07243891               -0.00539494                0.00593482                0.02739010
               0.85562184                1.93533646               92.08075530                0.02296911               -0.04303846               -0.08059058                0.07965915                0.13791486               -0.00636555                0.06088834
               1.85506940                1.93216241               92.08373151                0.01000000               -0.09215630               -0.05965260                0.11861814                0.32901805                0.14397270                0.14742444
               2.85377871                1.93026458               92.08991107                0.01000000               -0.13546202               -0.07588636                0.16455373                0.43413294                0.22436322                0.13026701
               3.85236016                1.92951531               92.09392722                0.01000001               -0.15472079               -0.08744206                0.12112987                0.51371791                0.09271342                0.09186235
               4.85068430                1.92952933               92.09757204                0.01000000               -0.26734012               -0.11775743                0.11611943                0.61856415                0.12203858                0.07112011
               5.84701335                1.93146316               92.10263925                0.01000000               -0.18648390               -0.09649104                0.12766030                0.50957112               -0.09854547                0.19011358
               6.84695462                1.93046920               92.10315253                0.01000001               -0.01506887               -0.10230424                0.09855701                0.28304492               -0.07026907                0.09624106
               7.84671198                1.92960953               92.10532389                0.01000000               -0.01503337               -0.08280197                0.08669688                0.20908664                0.02516216                0.08469178
               8.84665395                1.92886488               92.10764604                1.00000000               -0.00879802                0.00758829                0.08054498                0.05892731                0.01892278                0.03631207
               9.84653602                1.92717863               92.10964758                0.99999999               -0.01179357               -0.08356775                0.08943175                0.00657220                0.00690235               -0.04810913
              -0.13746423                2.94141675               92.08064379                0.66978906               -0.02674169                0.00214658                0.09528936                0.02420831                0.01239115                0.05939918
               0.86226835                2.93454673               92.08417765                0.01000000               -0.06576514               -0.08695401                0.12574291                0.22085461                0.08189949                0.10834207
               1.86122046                2.93153604               92.08933971                0.01000000               -0.10978364               -0.09426136                0.16538341                0.42472719                0.13088844                0.22121965
               2.86007268                2.92934581               92.09391941                0.01000000               -0.12939790               -0.09894686                0.12116324                0.53404725                0.09767361                0.09395847
               3.85863250                2.92853566               92.09834478                0.01000001               -0.16501432               -0.10510552                0.12439554                0.65313001                0.10081212                0.09321034
               4.85677239                2.92879426               92.10257606                0.01000000               -0.16399879               -0.10762128                0.12418293                0.71214177                0.06820694                0.10520046
               5.85535253                2.92911451               92.10607825                0.01000000               -0.16397033               -0.19002152                0.12786495                0.75890127                0.08659407                0.03071899
               6.85349298                2.92866518               92.10965354                0.01000001               -0.18804734               -0.13029439                0.10999789                0.59858581                0.06606293                0.12961393
               7.85159158                2.92826320               92.11222480                0.01000000               -0.21705068               -0.08319752                0.11338430                0.50530691                0.03026201                0.14870561
               8.84915197                2.92909416               92.11403351                1.00000000               -0.13676356                0.02088000                0.08951231                0.20089691                0.01515874                0.07723192
               9.84885631                2.92612799               92.11547143                0.99999999               -0.02956582               -0.10850209                0.12963362                0.00648199                0.00351542               -0.04284061
              -0.12984564                3.94131597               92.08402258                0.47103435               -0.02347268               -0.04665331                0.09419962                0.04470740                0.00311522                0.01493366
               0.86991964                3.93359738               92.08801067                0.01000000               -0.06947492               -0.10098362                0.13714559                0.26832931                0.05086915                0.12691443
               1.86876487                3.93027719               92.09306754                0.01000001               -0.12297973               -0.11391367                0.12351308                0.52292971                0.08784603                0.10258918
               2.86746004                3.92828564               92.09792581                0.01000001               -0.13952830               -0.12065097                0.12224544                0.62986978                0.08864899                0.09839536
               3.86597430                3.92741320               92.10261410                0.01000000               -0.15558831               -0.13073175                0.12925386                0.73126220                0.08706756                0.08711470
               4.86434828                3.92737690               92.10706734                0.01000000               -0.18269181               -0.14537224                0.14011343                0.80041608                0.08689384                0.07532770
               5.86232046                3.92766273               92.11130089                0.01000001               -0.22853157               -0.12982559                0.14379175                0.78003063                0.08956492                0.07598059
               6.85977765                3.92786331               92.11520475                0.01000001               -0.29656637               -0.05950997                0.13603024                0.71362564                0.10654531                0.06593792
               7.85638914                3.92794558               92.11861783                0.01000001               -0.34852702                0.02017521                0.10205212                0.66018287                0.09900997                0.11640053
               8.85280711                3.92928248               92.12077082                0.90155592               -0.18955718                0.01999923                0.06829033                0.28314356                0.05266959                0.10181637
               9.85259799                3.92500859               92.12147709                0.99999998               -0.02091122               -0.09731989                0.13245829                0.01387867               -0.00575926               -0.03397078
              -0.12113290                4.94048368               92.08635433                0.92839340               -0.01933810               -0.06278717                0.07633121                0.03942355                0.01057833               -0.01605362
               0.87867372                4.93252706               92.09132988                0.01000001               -0.09381538               -0.06517021                0.09452677                0.27363692                0.01078688                0.07171917
               1.87699079                4.92925777               92.09640867                0.01000000               -0.15698326               -0.10919093                0.09671814                0.51976379                0.05692709                0.06960288
               2.87553406                4.92693279               92.10168033                0.01000000               -0.14121535               -0.15619530                0.12374573                0.65939597                0.09418104                0.07048593
               3.87416649                4.92592102               92.10666861                0.01000000               -0.15014358               -0.16495218                0.13766982                0.78310845                0.07536889                0.08399690
               4.87253118                4.92588682               92.11149488                0.01000001               -0.18498785               -0.16991843                0.15557005                0.88261722                0.06498713                0.06539104
               5.87046673                4.92651800               92.11604102                0.01000001               -0.25242701               -0.13054176                0.16533845                0.95207625                0.06591220                0.03281289
               6.86748264                4.92747498               92.12039545                0.01000001               -0.35453274               -0.04569910                0.16268006                0.98955281                0.10514809                0.00583235
               7.86337608                4.92866671               92.12470258                0.01000000               -0.48654061                0.04703469                0.11410536                0.98641148                0.18417269               -0.00201569
               8.85775183                4.92949414               92.12789321                0.55045579               -0.28472075                0.15130882               -0.00496461                0.57559790                0.18515720                0.13760772
               9.85768166                4.92418159               92.12801436                0.99999999               -0.00701709               -0.19594294                0.07727259                0.28369470                0.03039892               -0.02499205
              -0.11314392                5.94006023               92.08821880                1.00000000               -0.02377903               -0.04540527                0.06939315                0.00362269                0.00007769               -0.05200799
               0.88661829                5.93229397               92.09336808                0.01000003               -0.10508327               -0.01650233                0.09167808                0.18286750                0.06432433                0.00569606
               1.88475441                5.92809337               92.09976504                0.01000000               -0.13167903               -0.19992253                0.14898359                0.49775060                0.17757717               -0.08776250
               2.88398471                5.92516174               92.10494974                0.01000000               -0.10359882               -0.16083576                0.11096533                0.63471893                0.07474153                0.08128561
               3.88268244                5.92411416               92.11048071                0.01000001               -0.12905334               -0.21113434                0.14223043                0.78841606                0.06648482                0.08220441
               4.88140364                5.92397853               92.11564103                0.01000001               -0.14543050               -0.23367353                0.16444592                0.94966307                0.03152499                0.06213191
               5.87977383                5.92505189               92.12046392                0.01000000               -0.19918234               -0.18180767                0.17995303                1.12122948                0.01265469                0.01362582
               6.87742000                5.92694933               92.12508243                0.01000001               -0.28378120               -0.09470188                0.18140681                1.23666780                0.01225898               -0.04242883
               7.87409820                5.92888628               92.12935611                0.01000001               -0.43079078               -0.02254441                0.17046538                1.43410009                0.10986328               -0.07427331
               8.86880418                5.93230865               92.13536544                0.36606195               -0.26006077                0.06691682                0.09089382                1.03617271               -0.09224662                0.17048746
               9.86889699                5.92108973               92.13598922                1.00000000                0.00928089               -0.23076822                0.00392968                0.32070887               -0.30594009                0.40553935
              -0.10552793                6.93957558               92.08985431                0.99999999               -0.01741334               -0.04730733                0.06640701                0.00176951                0.00763259               -0.06959164
               0.89429793                6.93219701               92.09538837                0.87629498               -0.01970102               -0.01233443                0.08328079                0.02763267                0.02356642               -0.00727801
               1.89407805                6.92525932               92.10122813                0.01000003               -0.10451444               -0.15266776                0.08704797                0.39697855                0.08173628               -0.01593737
               2.89220764                6.92371607               92.10801909                0.01000001               -0.14800179               -0.16445189                0.11226460                0.61147575                0.11327619                0.04946457
               3.89111801                6.92169833               92.11397439                0.01000001               -0.08104668               -0.27993267                0.13527249                0.70878371                0.05952467                0.09189157
               4.89058671                6.92121335               92.11956051                0.01000001               -0.05987438               -0.33433923                0.15878810                0.98700979                0.00368547                0.09694576
               5.88992052                6.92288185               92.12467213                0.01000001               -0.11025454               -0.26357995                0.17884626                1.23342642               -0.04384623                0.01174475
               6.88838162                6.92558094               92.12948425                0.01000001               -0.16108836               -0.14074237                0.19768009                1.36212622               -0.05355453               -0.04813396
               7.88669875                6.92821582               92.13444999                0.01000001               -0.10548948               -0.11606021                0.18369946                1.42908941               -0.01138596               -0.04631795
               8.88627183                6.93083248               92.14029685                0.63508764               -0.00825350               -0.14696492                0.12319115                0.99409664                0.08006312                0.17303587
               9.88653368                6.91956623               92.14651329                0.99613329                0.02618554               -0.05396339                0.15250703                0.30215930                0.16492870                0.39546612
              -0.09835140                7.93911408               92.09137633                1.00000000               -0.01613955               -0.03997312                0.06248996               -0.00099578                0.00513271               -0.07443171
               0.90148720                7.93204729               92.09719322                1.00000000               -0.02368353               -0.02037718                0.07494535                0.00401129                0.00671198               -0.02550784
               1.90117493                7.92504001               92.10304089                0.01000000               -0.08559974               -0.01422039                0.08447029                0.20552436                0.07639441                0.01016303
               2.89977521                7.92187270               92.11022740                0.01000000               -0.09070450               -0.21197362                0.11627060                0.49113964                0.13229274                0.01209336
               3.89936084                7.91851551               92.11692790                0.01000001                0.00925593               -0.33196174                0.10652938                0.64892828                0.10842976                0.07751285
               4.89996032                7.91729175               92.12341043                0.01000000                0.03569630               -0.47177233                0.11401032                0.97357925               -0.00041568                0.16302659
               5.90007476                7.91978030               92.12851277                0.01000001               -0.03158887               -0.40916006                0.16368275                1.43367787               -0.07307932                0.11280993
               6.89932855                7.92413448               92.13405533                0.01000001               -0.13231533               -0.06796163                0.17832353                1.42237161               -0.05090013               -0.00435913
               7.89742846                7.92656507               92.13923909                0.01000001               -0.09964213               -0.07518818                0.18605667                1.36237732                0.01170022                0.02166369
               8.89733571                7.92936936               92.14694658                0.53803132                0.00221108               -0.24163838                0.18093407                0.61563623                0.11770862                0.16150194
               9.89747268                7.92001046               92.15403214                0.84994793                0.01369720                0.10394633                0.20499602               -0.02973676                0.19846421                0.09383954
              -0.09141426                8.93877611               92.09287188                0.94309872               -0.01335158               -0.02705724                0.05609637               -0.00720208               -0.00663360               -0.06018979
               0.90845223                8.93178947               92.09885346                0.94522893               -0.01113116               -0.02266717                0.06798349               -0.00217124               -0.00315208               -0.02576042
               1.90836312                8.92497491               92.10493018                1.00000000                0.00513577               -0.00986089                0.08275853                0.05775335                0.02859446                0.00845377
               2.90855494                8.91947660               92.11158730                1.00000000                0.01572012               -0.13530034                0.09508125                0.19640676                0.06936266                0.00295951
               3.90867752                8.91505910               92.11866470                0.90423737                0.01192806               -0.18407104                0.07589370                0.27438313                0.09986122                0.04044225
               4.90879350                8.91177790               92.12612524                0.50644523                0.15369105               -0.28017896                0.00239846                0.57391110                0.14815022                0.17081182
               5.91175134                8.91469865               92.13417411                0.33072773                0.06253853               -0.25142337                0.08371803                1.05289709                0.18139929               -0.08039171
               6.91004428                8.92422171               92.13946420                0.61036289               -0.15199574                0.01669086                0.11742749                1.00110184                0.16523851                0.11149218
               7.90871143                8.92671206               92.14653835                0.49608183               -0.24525571                0.01356307                0.18086683                0.60471604                0.15813179                0.14002762
               8.90513916                8.92599971               92.15240350                0.99999999               -0.20273473               -0.19574515                0.14351442                0.34995184               -0.03168340               -0.02619403
               9.90465673                8.92164515               92.15912792                1.00000000               -0.04824265                0.05788654                0.16121039                0.13452740               -0.00082375               -0.08629220
              -0.08452216                9.93857294               92.09462647                0.90399462               -0.02328639               -0.02031755                0.04435480               -0.00868953               -0.03285430               -0.04555020
               0.91524498                9.93159394               92.10063445                0.98025549               -0.04174905               -0.01955266                0.06088434               -0.00723194               -0.03690687               -0.01662455
               1.91464286                9.92484279               92.10661615                0.99999998               -0.08129145               -0.01321148                0.09242878                0.00661166               -0.04253342                0.00302350
               2.91361915                9.91916669               92.11281141                0.99999996               -0.10478332               -0.03099085                0.13241574                0.00598525               -0.03848126                0.00371290
               3.91254720                9.91483408               92.11919730                0.99999998               -0.09100754               -0.02250156                0.13460400                0.01304133               -0.03066404               -0.00568557
               4.91179900                9.91168817               92.12609327                0.99999999               -0.19291504               -0.00897308                0.07974296                0.29643674               -0.01489516                0.03055776
               5.90868890                9.91475183               92.13450368                1.00000000               -0.22309127                0.00531812                0.02685668                0.33276175                0.41413414               -0.29057002
               6.90733717                9.92446830               92.14567695                0.99271842               -0.04720607                0.02465926                0.17535856                0.33351521                0.39759888                0.21970773
               7.90774477                9.92683633               92.15346636                0.84944212                0.10322345                0.01242766                0.22870142               -0.04735788                0.06984246                0.23384848
               8.90940164                9.92545445               92.15867761                0.99999999                0.05637825               -0.05452575                0.17582721                0.14284140               -0.09628739                0.00247340
               9.90887234                9.92116819               92.16538111                1.00000000               -0.05293045               -0.04769592                0.17492993               -0.00706540                0.00372217               -0.00234690
              -0.15652727               -0.06169668               93.07316982                0.81025382               -0.02433819               -0.02549089                0.10951198               -0.00256174                0.00173928               -0.00641473
               0.84322935               -0.06600425               93.07608655                0.46624996                0.01281380               -0.03569864                0.09845133                0.02031150                0.00542861                0.00457304
               1.84372901               -0.06961923               93.07922252                0.52932891                0.03972316               -0.02210941                0.06945887               -0.00524638                0.03751861                0.01569645
               2.84402381               -0.07167822               93.08326974                0.70970082                0.01716823               -0.04547580                0.08077350                0.00055385                0.07268711                0.01672840
               3.84407237               -0.07304422               93.08693668                0.63235118               -0.01684236               -0.01358652                0.08272703                0.00692996                0.00775198                0.00690369
               4.84368697               -0.07311148               93.08943247                0.98911282               -0.04165182               -0.02582299                0.08790941                0.01746399               -0.02237984               -0.00241375
               5.84323934               -0.07342590               93.09146993                0.99999999               -0.04707480               -0.01513372                0.07024391                0.00573313               -0.05881794                0.01536699
               6.84274547               -0.07416018               93.09338763                0.99999999               -0.04577803               -0.01660789                0.06455360               -0.00081167               -0.07386133                0.01363050
               7.84232378               -0.07529566               93.09519642                1.00000000               -0.03534892               -0.01618517                0.05789919               -0.00462934               -0.07903163                0.00425240
               8.84203849               -0.07661746               93.09693399                0.80764797               -0.02293874               -0.01566351                0.05558693               -0.01286045               -0.06714385               -0.00431542
               9.84186500               -0.07798449               93.09885819                0.73377658               -0.01734907               -0.02741569                0.04710871               -0.01378411               -0.05614860               -0.02453909
              -0.15224531                0.93804842               93.07564222                0.47291860               -0.03609453                0.00793925                0.10339540                0.01916172                0.00265535               -0.01357637
               0.84739374                0.93363877               93.07861797                0.01000001               -0.06205794               -0.06138136                0.09232596                0.06672003                0.02833488                0.02633439
               1.84651353                0.93015968               93.08207028                0.20760073               -0.08259461               -0.03483760                0.07870543                0.12588967                0.10778494                0.04060414
               2.84574185                0.92786703               93.08659172                0.01000000               -0.08276130               -0.06521166                0.16462606                0.19954146                0.17546496                0.11038520
               3.84485830                0.92681991               93.09090528                0.01000000               -0.08447031               -0.05454254                0.12594281                0.21321772                0.13845185                0.00522918
               4.84405244                0.92663029               93.09402645                0.01000001               -0.05186415               -0.07115251                0.09326259                0.18001052                0.05208099                0.01545067
               5.84382102                0.92642276               93.09644206                0.78544226               -0.01901060                0.00966272                0.09293629                0.03209142                0.00587910                0.09881177
               6.84367223                0.92567374               93.09866252                0.99725007               -0.01574480               -0.02117648                0.08097451                0.01115362               -0.01624959                0.02422846
               7.84350612                0.92454249               93.10068444                1.00000000               -0.02089645               -0.02279214                0.07158311               -0.00294691               -0.03228194                0.00536085
               8.84325430                0.92322590               93.10261203                0.81972934               -0.02059693               -0.01400068                0.06772727               -0.00954946               -0.03062095                0.00083699
               9.84309419                0.92174136               93.10463462                0.92229082               -0.01601181               -0.05356077                0.06178240               -0.01427215               -0.02468254               -0.02793428
              -0.14732473                1.93846211               93.07810880                0.53546891               -0.02227771                0.03160565                0.07617805               -0.00571216                0.01766787                0.01589168
               0.85245249                1.93276812               93.08154546                0.21577529               -0.03283626               -0.08036407                0.08012354                0.12085179                0.03939973                0.10578707
               1.85201854                1.92968402               93.08548524                0.01000000               -0.05490401               -0.05252309                0.23166970                0.27252808                0.17202639                0.18374259
               2.85135441                1.92701755               93.09178256                0.01000001               -0.12225412               -0.08274960                0.14336015                0.34733091                0.16588875                0.11720523
               3.84957346                1.92586492               93.09517039                0.01000000               -0.18350428               -0.08646137                0.12111048                0.44595355                0.09115503                0.04149217
               4.84768432                1.92546547               93.09887128                0.01000002               -0.23678710               -0.08815813                0.11349587                0.53049246                0.16246439                0.06235131
               5.84483772                1.92676735               93.10300134                0.01000007               -0.14177552               -0.07513421                0.01274394                0.43047156                0.06312009                0.04716054
               6.84484881                1.92541629               93.10413053                0.01000000               -0.00625207               -0.08358759                0.08683097                0.23990627               -0.04866458                0.08237984
               7.84471268                1.92424850               93.10614681                0.01000000               -0.01000873               -0.08144818                0.08631664                0.19327656                0.01352308                0.09752618
               8.84464864                1.92310252               93.10844897                0.99999999               -0.00820124                0.00014383                0.08248154                0.04831586                0.01304984                0.03390308
               9.84454865                1.92094430               93.11058874                0.99999999               -0.00999876               -0.09253974                0.09471695               -0.00740407                0.00352301               -0.02212365
              -0.14097159                2.93868053               93.08165160                0.74443999               -0.04395456                0.00977928                0.08270357               -0.00216282                0.01454195                0.06252422
               0.85858887                2.93203148               93.08561204                0.01008517               -0.06568747               -0.07596375                0.15998482                0.18690056                0.10097660                0.17446686
               1.85771466                2.92910921               93.09128062                0.01000001               -0.10406530               -0.09508994                0.14726548                0.33791433                0.12374193                0.15434994
               2.85650756                2.92621203               93.09501658                0.01000001               -0.11926070               -0.08408337                0.12286036                0.40831317                0.07767126                0.06180813
               3.85532945                2.92509068               93.09954567                0.01000000               -0.13738497               -0.09195060                0.09720679                0.56821127                0.11430567                0.05499572
               4.85375986                2.92486713               93.10372646                0.01000000               -0.14249085               -0.09286820                0.10931373                0.64861193                0.08904835                0.07409799
               5.85247963                2.92492008               93.10750439                0.01000001               -0.13853261               -0.16788547                0.12946467                0.67020752                0.05034837                0.04549936
               6.85098921                2.92400199               93.11062814                0.01000000               -0.13971063               -0.11627216                0.10464796                0.51018985                0.02326756                0.12292849
               7.84968542                2.92291353               93.11342576                0.01000003               -0.17321936               -0.07115788                0.14248184                0.44655069               -0.10480625                0.22167549
               8.84752482                2.92322878               93.11490601                0.99976782               -0.12114321                0.01268557                0.08526456                0.19414052               -0.01605177                0.05245120
               9.84726256                2.91989056               93.11678309                0.99999999               -0.02622668               -0.11219724                0.12395967                0.00474702                0.00617510               -0.00082767
              -0.13406990                3.93865769               93.08489744                0.68566967               -0.01682847               -0.02014789                0.08712539               -0.00039798                0.00212031                0.01653993
               0.86576181                3.93124885               93.08945885                0.01000000               -0.06669101               -0.07297520                0.12436674                0.20692303                0.00328776                0.13908650
               1.86459628                3.92778222               93.09432291                0.01000000               -0.11113046               -0.13939825                0.11793060                0.42858861                0.04871418                0.06322925
               2.86353921                3.92533588               93.09909129                0.01000000               -0.11568458               -0.11161299                0.09527297                0.55817278                0.07052101                0.08988404
               3.86228259                3.92402591               93.10384172                0.01000000               -0.13560195               -0.11571632                0.11125444                0.64692528                0.09301680                0.07961082
               4.86082717                3.92360811               93.10844550                0.01000002               -0.15877890               -0.13307230                0.13485344                0.70498541                0.08379716                0.07718606
               5.85910701                3.92340965               93.11268640                0.01000001               -0.18840027               -0.13465247                0.14382404                0.68208622                0.06452885                0.07468210
               6.85705916                3.92309085               93.11649835                0.01000001               -0.23450548               -0.07146881                0.12584091                0.63241256                0.03179656                0.09274761
               7.85441690                3.92282534               93.11949545                0.01000000               -0.27523721                0.01035645                0.08828619                0.58820796                0.02058137                0.09613087
               8.85155442                3.92335624               93.12135824                0.76558521               -0.15484362                0.03758899                0.07075712                0.29734165                0.00811078                0.05508879
               9.85132003                3.91870035               93.12291295                0.99999999               -0.02343892               -0.16101575                0.15575599                0.04726911               -0.01050131                0.01682561
              -0.12616185                4.93827757               93.08720329                0.98910083               -0.02353416               -0.04159551                0.08636525                0.01318440               -0.00269953               -0.01404787
               0.87360280                4.93057198               93.09232317                0.01000001               -0.08193710               -0.04523028                0.08798325                0.18611908               -0.00265719                0.05211904
               1.87219940                4.92632125               93.09734548                0.01000001               -0.10877392               -0.22165832                0.10843055                0.53069403                0.05515251                0.12200110
               2.87142733                4.92397977               93.10287790                0.01000000               -0.11018367               -0.12189314                0.11271609                0.62126043                0.10229690                0.05058237
               3.86999573                4.92277636               93.10801179                0.01000002               -0.14757434               -0.14249357                0.13476511                0.69705116                0.08433152                0.07543501
               4.86847584                4.92220568               93.11302337                0.01000000               -0.16785550               -0.15475961                0.15587724                0.76659891                0.06996435                0.06269129
               5.86663862                4.92222703               93.11766917                0.01000002               -0.21270374               -0.12820210                0.16306968                0.82234088                0.04931443                0.04499225
               6.86422176                4.92257261               93.12186089                0.01000000               -0.27272140               -0.06056267                0.14674433                0.84633426                0.05066282                0.02159502
               7.86118419                4.92312066               93.12554342                0.01000001               -0.33125581                0.02137951                0.08857171                0.86220019                0.04258096                0.01861823
               8.85759665                4.92398056               93.12797310                0.68567983               -0.18322436                0.06836402                0.02227591                0.48269113                0.06166898                0.05691400
               9.85751970                4.91667025               93.12934540                0.99999999               -0.00769429               -0.23344291                0.16928079                0.10291601                0.00829895                0.06104173
              -0.11839503                5.93782578               93.08891323                0.99999999               -0.01644517               -0.04801310                0.07142485                0.00667105                0.01050967               -0.05655257
               0.88144052                5.93034424               93.09434398                0.69133096                0.00986989               -0.01799653                0.08989889                0.03465320                0.09610310                0.00193730
               1.88180237                5.92334905               93.10140555                0.01000001               -0.09656045               -0.14638635                0.07849863                0.44387293                0.14462065               -0.07119376
               2.87950931                5.92289802               93.10605212                0.01000001               -0.19023333               -0.12677602                0.12479388                0.66805663                0.06313931                0.04847954
               3.87799770                5.92117604               93.11187075                0.01000001               -0.14004181               -0.17505203                0.14303642                0.67703629                0.08703966                0.05319246
               4.87670847                5.92051292               93.11725159                0.01000002               -0.14054003               -0.19784922                0.16237351                0.82313906                0.04758988                0.04083144
               5.87518690                5.92084560               93.12222880                0.01000001               -0.18081266               -0.16590282                0.17576607                0.95873424                0.01442851                0.00768868
               6.87309222                5.92187959               93.12678831                0.01000000               -0.24669706               -0.09919662                0.17417296                1.05963147                0.00588412               -0.02620203
               7.87025296                5.92325293               93.13111807                0.01000005               -0.27167837               -0.03233712                0.14186828                1.14325437               -0.00641016               -0.05046254
               8.86765865                5.92472352               93.13445344                0.70763830               -0.11269923               -0.02697859               -0.05110874                0.68716538                0.07823870               -0.09819434
               9.86799897                5.91403150               93.13738240                1.00000000                0.03403224               -0.17152374                0.11079015                0.09179467                0.08216440                0.16304962
              -0.11106535                6.93731731               93.09049498                0.99999999               -0.01620491               -0.04747197                0.06547518                0.00016694                0.01245401               -0.07069690
               0.88877260                6.93021205               93.09623759                0.97085825               -0.02057809               -0.01430071                0.08052785                0.01457486                0.02555543               -0.01755914
               1.88852309                6.92339352               93.10222593                0.01000001               -0.09055642               -0.00329509                0.08578550                0.23966032                0.07567570               -0.05806124
               2.88696147                6.92144425               93.10903143                0.01000000               -0.13007636               -0.13543966                0.10773082                0.51824118                0.10762113                0.01889908
               3.88592156                6.91927532               93.11526517                0.01000001               -0.08462063               -0.22013550                0.12630202                0.63062289                0.08912715                0.01907655
               4.88526906                6.91824870               93.12101687                0.01000000               -0.07374655               -0.25726787                0.14660177                0.84674173                0.02213640                0.03629285
               5.88444663                6.91890897               93.12635615                0.01000000               -0.11309974               -0.23032497                0.17331656                1.05970276               -0.02178818               -0.00525929
               6.88300706                6.92058868               93.13150882                0.01000001               -0.16206353               -0.14589177                0.18950321                1.18125648               -0.03909345               -0.04932163
               7.88120536                6.92247392               93.13626759                0.01000001               -0.12228344               -0.12683797                0.19438143                1.19345612               -0.05404802               -0.08026496
               8.88056139                6.92344099               93.14066086                0.98903730               -0.02328582               -0.13297012                0.04252199                0.68667477               -0.04786395               -0.08353420
               9.88073964                6.91323977               93.14631627                0.99999999                0.01782466               -0.02200728               -0.01754040                0.12250454                0.01199311                0.15992723
              -0.10418118                7.93687635               93.09199509                1.00000000               -0.01630262               -0.03663679                0.05864907               -0.00413365                0.00451948               -0.07345967
               0.89565580                7.93005823               93.09793212                0.99926221               -0.02277283               -0.01983070                0.07170854               -0.00184566                0.00627468               -0.03443741
               1.89536337                7.92328315               93.10386658                0.01000001               -0.08317303               -0.00776069                0.08263752                0.19033222                0.09010505               -0.00156893
               2.89399234                7.92018923               93.11144743                0.01000003               -0.07788293               -0.16889595                0.14530407                0.44186143                0.20789658               -0.12104424
               3.89380571                7.91677333               93.11784962                0.01000000                0.00086551               -0.26331155                0.09149235                0.58358308                0.08875817                0.00356674
               4.89400965                7.91536756               93.12426202                0.01000001                0.01176320               -0.31871756                0.08963260                0.85931395                0.01791350                0.02603945
               5.89404097                7.91623910               93.13024676                0.01000001               -0.04286216               -0.25350715                0.14024051                1.14650039               -0.04711443               -0.02476245
               6.89315241                7.91896176               93.13580784                0.01000000               -0.13856003               -0.10664121                0.19258489                1.19682375               -0.07417232               -0.06939337
               7.89126977                7.92071617               93.14152310                0.01000000               -0.12630579               -0.11552793                0.21666482                1.14669430               -0.03584412               -0.05173859
               8.89062629                7.92206411               93.14746532                0.99999998               -0.02091392               -0.18269174                0.05223233                0.54796526               -0.01295466               -0.09259458
               9.89085149                7.91359135               93.15403049                0.99999999                0.02252054                0.08128468               -0.00757545                0.01161630                0.01728682                0.06420969
              -0.09751179                8.93658457               93.09343740                0.79592320               -0.01593270               -0.02332551                0.05574891               -0.01248890               -0.00407193               -0.06207678
               0.90232888                8.92981544               93.09952092                0.83873099               -0.01447363               -0.02022668                0.06779243               -0.00846162               -0.00016054               -0.03261107
               1.90219873                8.92323831               93.10573817                0.99999999               -0.00101797               -0.00754509                0.08225767                0.04807197                0.02820491                0.00365218
               2.90230852                8.91806633               93.11250113                0.99999999                0.01080773               -0.11948750                0.08820106                0.19074741                0.04819904               -0.02594350
               3.90241489                8.91400908               93.11931833                0.78886241                0.03405223               -0.15088310                0.07537885                0.29340836                0.05636144               -0.00199222
               4.90298956                8.91187435               93.12629982                0.70350894                0.06837744               -0.18018367                0.02691361                0.48774567                0.06128811                0.05664189
               5.90378244                8.91383883               93.13313736                0.71973213               -0.02615482               -0.10348874               -0.05712498                0.69412635               -0.09670723                0.07080769
               6.90246647                8.91845586               93.13982388                0.98975094               -0.13727743               -0.01577534                0.04328731                0.68926967               -0.06611020               -0.06889012
               7.90103689                8.92016336               93.14707096                0.99999997               -0.19104716               -0.01539726                0.05398163                0.54902470               -0.08792375               -0.02235017
               8.89864552                8.91978715               93.15369635                0.99999999               -0.15596961               -0.15081018                0.11139514                0.31410358               -0.00326567               -0.01322559
               9.89791750                8.91486547               93.16067188                0.99999999               -0.07280287                0.06235693                0.12048000                0.07297981                0.00651548               -0.03631296
              -0.09089268                9.93640983               93.09503765                0.73165828               -0.02744922               -0.01747376                0.04838822               -0.01370230               -0.02001983               -0.05295487
               0.90883283                9.92965370               93.10122064                0.93112920               -0.05167065               -0.01617390                0.06347546               -0.01348418               -0.02302058               -0.02657193
               1.90807391                9.92313225               93.10758292                0.99999998               -0.08981593               -0.01060593                0.09762119               -0.00519341               -0.01669758                0.00092558
               2.90703651                9.91779948               93.11414449                0.99999999               -0.11040236               -0.02668573                0.12673006                0.00397010                0.00105814                0.00519651
               3.90586586                9.91375567               93.12064931                0.99999999               -0.15508472               -0.02534156                0.15772005                0.04331786                0.01636749               -0.01102183
               4.90393482                9.91176389               93.12746901                0.99999999               -0.22619340               -0.01104631                0.16954099                0.11520824                0.06607569                0.01409844
               5.90134199                9.91416933               93.13601794                1.00000000               -0.16607722                0.03304991                0.11406396                0.10007398                0.17668015                0.09699614
               6.90061327                9.91864625               93.14541061                0.99999999               -0.02115113                0.01903951               -0.02131524                0.12662543                0.16001411                0.00704701
               7.90091897                9.92040823               93.15353023                0.99999999                0.07964902                0.02448724               -0.00486743                0.00829125                0.05790675                0.02243863
               8.90220625                9.91904791               93.16039165                0.99999999                0.06177470               -0.07392425                0.12989190                0.07758573               -0.05072817                0.00604967
               9.90215446                9.91483849               93.16701684                1.00000000               -0.00517872               -0.00269775                0.16515129                0.00275473               -0.03244661               -0.02428012
              -0.15936250               -0.06418668               94.07427017                0.81339690               -0.02997425               -0.03061347                0.10382154               -0.00235692                0.00192487               -0.00467100
               0.84033776               -0.06844486               94.07710820                0.40154048               -0.00795967               -0.03288157                0.10392874                0.01237225                0.00153776                0.00775869
               1.84047831               -0.07233984               94.07999387                0.34096558                0.02623297               -0.03817032                0.09997624               -0.01027226                0.01414159                0.00812673
               2.84086242               -0.07519403               94.08390123                0.66055084                0.03254027               -0.02475600                0.07383709                0.00681059                0.09418437                0.06406718
               3.84112912               -0.07731323               94.08776174                0.95237378                0.02005912               -0.05313937                0.07730694                0.04823612                0.04072688                0.00629365
               4.84126360               -0.07788549               94.09032952                1.00000000               -0.02087129               -0.00948978                0.07791201                0.00736550               -0.04144373               -0.01016532
               5.84071169               -0.07834629               94.09220588                1.00000000               -0.05481007               -0.01645457                0.07417346                0.01175108               -0.07680035                0.01037966
               6.84016740               -0.07939207               94.09404401                1.00000000               -0.04557312               -0.01549955                0.06347823                0.00114718               -0.08301841                0.01010873
               7.83980023               -0.08081071               94.09573919                0.90413798               -0.02862538               -0.01132199                0.05134992               -0.00779642               -0.07927898                0.00936357
               8.83959489               -0.08236829               94.09748248                0.51670380               -0.01857193               -0.01875605                0.05951375               -0.02151624               -0.06621499               -0.00282445
               9.83942879               -0.08401111               94.09939216                0.80424963               -0.01661051               -0.04787836                0.14035243               -0.02580566               -0.08561062               -0.02731716
              -0.15512789                0.93550719               94.07670890                0.41043181               -0.03340473               -0.01159113                0.10737135                0.01054944                0.00545682               -0.01645033
               0.84453806                0.93122633               94.07961378                0.01000003               -0.05609679               -0.05485048                0.10566335                0.02334536                0.02445788                0.02092904
               1.84375017                0.92727846               94.08287248                0.11363100               -0.05604201               -0.05166141                0.10286169                0.05632958                0.18170395                0.12393341
               2.84341722                0.92455841               94.08842962                0.97364027               -0.03964846               -0.03110758                0.12304925                0.07129161                0.18767585                0.06468484
               3.84295721                0.92215538               94.09194874                0.06504446               -0.07817164               -0.04910040                0.08437571                0.17133164                0.08730095               -0.00072040
               4.84185379                0.92201962               94.09485713                0.01607562               -0.06873558               -0.05190889                0.08186464                0.20864097                0.04650586                0.02241062
               5.84158249                0.92148916               94.09725702                0.82774801               -0.02213546               -0.01548318                0.08286349                0.03690649                0.00269202                0.04059168
               6.84141108                0.92045293               94.09942710                1.00000000               -0.01860611               -0.02283765                0.07287497                0.01276814               -0.02431899                0.01760362
               7.84121037                0.91907607               94.10138645                0.99374495               -0.02155747               -0.01852769                0.06313424               -0.00725053               -0.04097020                0.01286279
               8.84097993                0.91744415               94.10329698                0.61978794               -0.01984094               -0.01913750                0.07005629               -0.03439194               -0.03695869                0.00122832
               9.84081355                0.91551011               94.10530061                0.98979100               -0.01663786               -0.07006035                0.11537871               -0.04849724               -0.04161550               -0.03207101
              -0.15058979                1.93558150               94.07895930                0.34354723               -0.03768105                0.01857028                0.10769868               -0.01065522                0.00989260               -0.00969922
               0.84903340                1.93045814               94.08235777                0.11973893               -0.05686930               -0.05518295                0.10290735                0.05831196                0.12566328                0.17153060
               1.84827282                1.92662693               94.08836490                0.73932827               -0.08110299               -0.07465470                0.18598043                0.21331334                0.13184003                0.13956497
               2.84741134                1.92418382               94.09277827                0.21046108               -0.05891384               -0.06425863                0.06543607                0.25108252                0.01956167                0.04142553
               3.84709454                1.92170476               94.09634943                0.01000000               -0.06543487               -0.05955670                0.07790987                0.30720233                0.03596805                0.01430017
               4.84610264                1.92107634               94.09984196                0.01000000               -0.20390198               -0.06588081                0.11123283                0.41900650                0.02502751                0.11529135
               5.84301650                1.92134404               94.10289413                0.01000001               -0.16333923               -0.05748608                0.02876095                0.34750837                0.05858930                0.05265272
               6.84283585                1.92015117               94.10488915                0.01000000               -0.01762527               -0.08485011                0.08901922                0.20502871                0.00195031                0.09916169
               7.84266400                1.91881874               94.10705022                0.42608649               -0.01814175                0.01360027                0.10076117                0.05525010                0.00828591                0.14216367
               8.84247302                1.91724896               94.10929567                1.00000000               -0.01685334               -0.01051187                0.08705309                0.01313097                0.00043214                0.02604147
               9.84232693                1.91458768               94.11154192                0.99999999               -0.01460871               -0.08614403                0.08234540               -0.04552302               -0.00317481               -0.00340296
              -0.14509427                2.93587859               94.08229786                0.67467505               -0.02468649                0.02567913                0.07589530                0.00759436                0.06370535                0.08109949
               0.85465887                2.93012267               94.08737735                0.98305725               -0.03074872               -0.03950807                0.11989809                0.07166483                0.06351179                0.18212343
               1.85429076                2.92578536               94.09228502                0.20550322               -0.06489105               -0.05750130                0.06545427                0.24922305                0.03730502                0.02670693
               2.85336105                2.92327324               94.09637661                0.01000000               -0.10410109               -0.09809091                0.10227763                0.35595989                0.01796757                0.01107576
               3.85220874                2.92096424               94.10028891                0.01000000               -0.13832029               -0.05827286                0.06837303                0.44073240                0.05211080                0.02324992
               4.85059464                2.92070200               94.10476233                0.01000000               -0.13754565               -0.07263087                0.08633514                0.52260491                0.09517257                0.08413894
               5.84945782                2.92033944               94.10866754                0.01000001               -0.12788396               -0.11762286                0.12968344                0.52978096                0.01809554                0.07790261
               6.84803696                2.91875593               94.11174650                0.01000001               -0.21201176               -0.08328303                0.13412674                0.48886556               -0.09287649                0.22018871
               7.84521759                2.91934808               94.11507444                0.01000001               -0.12816781               -0.05340980                0.09130801                0.38774295               -0.15190460                0.19365482
               8.84547360                2.91723391               94.11573881                0.99926144                0.00040304                0.00341030                0.08518022                0.07589748               -0.08300232                0.03392959
               9.84522565                2.91378723               94.11795062                1.00000000               -0.02479560               -0.09024453                0.10298807                0.00291163                0.00465030                0.04361708
              -0.13892606                3.93609508               94.08576509                0.98630249               -0.05140172                0.01541708                0.08191804                0.04067024                0.00458139                0.04395974
               0.86055992                3.92966797               94.09049800                0.06882234               -0.04836117               -0.07191797                0.08455804                0.16006751               -0.00186376                0.08779206
               1.86010671                3.92547691               94.09542616                0.01000000               -0.06041312               -0.05851084                0.07371681                0.29011925                0.01934037                0.03030251
               2.85935166                3.92222200               94.09983127                0.01000000               -0.08131416               -0.11448173                0.06675231                0.43075193                0.03899722                0.03682292
               3.85848043                3.92053930               94.10483919                0.01000000               -0.10860583               -0.07817744                0.05392289                0.54503162                0.08030807                0.05806551
               4.85717954                3.91962372               94.10976441                0.01000001               -0.14611184               -0.11837215                0.14857123                0.60653614                0.07891089                0.08643295
               5.85555819                3.91899158               94.11417737                0.01000000               -0.17875065               -0.12319972                0.15214316                0.60097354                0.01772694                0.09571765
               6.85360453                3.91848551               94.11772157                0.01000003               -0.18086593               -0.05695065                0.13323439                0.56718252               -0.02841718                0.11410813
               7.85194087                3.91775054               94.12038356                0.01000000               -0.20263544               -0.09658145                0.11559103                0.58647779               -0.05839064                0.03803823
               8.84955182                3.91731717               94.12218596                0.88634018               -0.13311680                0.01516543                0.08534467                0.23709389               -0.01658676                0.01528138
               9.84927854                3.91278279               94.12459221                1.00000000               -0.02732799               -0.14271218                0.15165561                0.04043161                0.00954589                0.08089725
              -0.13142665                4.93618693               94.08808163                1.00000000               -0.00949603               -0.02287964                0.07721311                0.00627899               -0.01028623               -0.03577693
               0.86847839                4.92868431               94.09308955                0.01000001               -0.05171177               -0.06248339                0.07775084                0.19581608                0.02186984                0.04483481
               1.86753911                4.92461515               94.09857728                0.01000000               -0.07823510               -0.18439321                0.12291441                0.40656346                0.12322433                0.01156325
               2.86691369                4.92098360               94.10393465                0.01000000               -0.09157321               -0.11221021                0.09594835                0.51080949                0.09777658                0.07901066
               3.86570765                4.91940069               94.10936391                0.01000008               -0.13203029               -0.13073430                0.15004949                0.60471457                0.09491361                0.06435167
               4.86427308                4.91833456               94.11461243                0.01000000               -0.15460762               -0.14110289                0.16354676                0.66462983                0.06513484                0.05707479
               5.86261550                4.91787544               94.11930242                0.01000008               -0.18257135               -0.12364445                0.17284101                0.71249208                0.02511817                0.05079913
               6.86062165                4.91761692               94.12333034                0.01000001               -0.22500040               -0.08540745                0.16177170                0.72924405               -0.02147405                0.03873910
               7.85811549                4.91741645               94.12647401                0.01000001               -0.27192126               -0.02988452                0.11592109                0.71421519               -0.08781089                0.00985813
               8.85518323                4.91753722               94.12833873                0.42893607               -0.15062304                0.01699193                0.07415779                0.40346754               -0.05475263               -0.04836489
               9.85510303                4.91093298               94.13139998                1.00000000               -0.00802006               -0.27014667                0.17422422                0.10976723               -0.00982346                0.16257713
              -0.12379524                5.93563749               94.08964729                1.00000000               -0.01567351               -0.05535775                0.07457973                0.01121112                0.01030626               -0.07494121
               0.87604803                5.92841831               94.09516606                0.80412405               -0.01330360               -0.02133074                0.08229710                0.03756302                0.04391838                0.00085226
               1.87593869                5.92178904               94.10133502                0.01000001               -0.06328623               -0.14890423                0.02693217                0.34090457                0.04909787                0.05156311
               2.87478230                5.91997780               94.10744562                0.01000001               -0.13574606               -0.11424275                0.14233204                0.52713533                0.08498203                0.00194405
               3.87322377                5.91792462               94.11334144                0.01000000               -0.13924577               -0.16498493                0.15304545                0.60156628                0.10179569                0.00641115
               4.87199739                5.91680166               94.11888850                0.01000129               -0.13490467               -0.17028925                0.17307692                0.71297311                0.05777512                0.01391854
               5.87052567                5.91651870               94.12397924                0.01000001               -0.16744906               -0.15583678                0.18722245                0.81765094                0.01049531                0.00093963
               6.86864840                5.91677737               94.12856588                0.01000001               -0.21104005               -0.10209678                0.18043581                0.88504011               -0.04379740               -0.01731041
               7.86630487                5.91715285               94.13219347                0.01000001               -0.22718858               -0.06054738                0.14631380                0.96149522               -0.14776730               -0.01920536
               8.86410463                5.91765701               94.13434327                0.01000001               -0.08112558               -0.06936541                0.00512227                0.51548291               -0.18490998               -0.03772988
               9.86468236                5.90737986               94.13820502                1.00000000                0.05777284               -0.24081522                0.12211175               -0.00972950               -0.14079984                0.29618947
              -0.11676406                6.93507978               94.09116381                1.00000000               -0.01578417               -0.04675066                0.06448999                0.00080003                0.00971143               -0.08033614
               0.88307809                6.92825770               94.09699893                0.99270478               -0.02191107               -0.01715496                0.07252704                0.01252295                0.01800682               -0.02630876
               1.88279771                6.92163706               94.10294384                0.01000000               -0.08786374               -0.01463263                0.08087335                0.19820412                0.09294193               -0.01135815
               2.88132082                6.91869875               94.11017371                0.01000001               -0.09413013               -0.19978410                0.13680619                0.48158659                0.21606567               -0.10228104
               3.88091511                6.91610099               94.11650043                0.01000003               -0.06911766               -0.16954681                0.13471027                0.56638320                0.11300159               -0.04080818
               4.87993847                6.91492877               94.12249255                0.01000000               -0.09611497               -0.21360378                0.16264465                0.72908936                0.04246148               -0.03612369
               5.87899281                6.91475871               94.12813846                0.01000001               -0.11250819               -0.20074307                0.18080923                0.88535949               -0.00917969               -0.05874064
               6.87768830                6.91557498               94.13327431                0.01000001               -0.12635295               -0.11729042                0.18659153                0.96835739               -0.03333491               -0.04634643
               7.87646575                6.91620550               94.13833762                0.01000001               -0.12112120               -0.12129593                0.15818865                0.96620759               -0.09934777               -0.03259190
               8.87526588                6.91614991               94.14114729                0.01000001               -0.05015109               -0.15875158                0.26063291                0.51878823                0.02535590               -0.20067006
               9.87546273                6.90611668               94.14616248                0.90422768                0.01968533               -0.02204098                0.39174920               -0.00303800                0.06980874                0.09793127
              -0.11013507                7.93470247               94.09254931                0.89542563               -0.01237264               -0.02938793                0.05205198               -0.00766039                0.00965404               -0.07513089
               0.88974120                7.92807521               94.09862739                0.97928385               -0.02016039               -0.02044856                0.06310742               -0.00679678                0.01206325               -0.04256232
               1.88946172                7.92149639               94.10469364                0.26274895                0.01044511               -0.01527240                0.09578923                0.05281006                0.14066208               -0.00472293
               2.88995010                7.91598212               94.11313348                0.01000003               -0.05701551               -0.12190400                0.09914700                0.38276171                0.19319137               -0.17022794
               3.88832141                7.91453368               94.11875774                0.01000000               -0.10143214               -0.19407167                0.11669725                0.58192072                0.03418671               -0.07349254
               4.88792146                7.91252959               94.12520308                0.01000001               -0.03673768               -0.26125109                0.11734655                0.71159641                0.01111979               -0.10490909
               5.88758665                7.91250383               94.13131758                0.01000001               -0.06763490               -0.22075467                0.14868160                0.96011526               -0.01240175               -0.16765421
               6.88656876                7.91443156               94.13790703                0.01000001               -0.12662810               -0.11669232                0.15961637                0.96616317               -0.01960118               -0.11678981
               7.88505409                7.91472693               94.14357238                0.01000001               -0.09997712               -0.09737883                0.18909755                0.83325735               -0.10676601               -0.12102734
               8.88456922                7.91448197               94.14799123                0.79555908               -0.01830100               -0.16705256                0.06003900                0.42095778               -0.05813014               -0.15200581
               9.88468807                7.90693904               94.15388063                1.00000000                0.01188539                0.09079327                0.05796830                0.01436875               -0.02468169                0.15073376
              -0.10366274                8.93449202               94.09398686                0.51425390               -0.01890213               -0.01945670                0.05996106               -0.02200289               -0.00150240               -0.06219908
               0.89614824                8.92784872               94.10020931                0.64901720               -0.01951280               -0.02060753                0.07039404               -0.03311551                0.00139839               -0.03874803
               1.89594701                8.92133162               94.10657533                1.00000000               -0.01047399               -0.01622921                0.08922164                0.01676454                0.02417620               -0.00580499
               2.89593876                8.91626067               94.11335132                0.99893834                0.00295243                0.00008940                0.08985151                0.07558824                0.03313548               -0.09343136
               3.89600606                8.91221956               94.12017228                0.91560595                0.01307396               -0.12909979                0.08646055                0.23358504                0.01445664               -0.02536464
               4.89620024                8.90970375               94.12666351                0.44368383                0.01435453               -0.14489054                0.07152944                0.39772413               -0.04770122               -0.06320299
               5.89629315                8.91034361               94.13303161                0.01000000               -0.07058866               -0.07866243               -0.00221849                0.51158136               -0.02991454               -0.19271833
               6.89478847                8.91324114               94.14032994                0.01000002               -0.16063316               -0.04978888                0.26636975                0.51853601               -0.19607944                0.02160359
               7.89308048                8.91425792               94.14761799                0.82780309               -0.16577714               -0.01801771                0.05961364                0.42177496               -0.14144829               -0.06771534
               8.89147293                8.91280886               94.15463140                1.00000000               -0.11222540               -0.11485694                0.08770682                0.20029342               -0.05805743               -0.06641582
               9.89083597                8.90793254               94.16153752                1.00000000               -0.06369505                0.05268199                0.09651136                0.02661632               -0.04627861                0.04145102
              -0.09728854                9.93431334               94.09559423                0.80566365               -0.04721644               -0.01786788                0.14221928               -0.02760898               -0.02234743               -0.08144945
               0.90223929                9.92766306               94.10190396                0.99245365               -0.06631965               -0.01856682                0.11277897               -0.04797156               -0.02490669               -0.04332590
               1.90138506                9.92117181               94.10856857                0.99999999               -0.08326863               -0.01598085                0.08418212               -0.04015190                0.00241346               -0.00286521
               2.90057392                9.91598390               94.11534601                1.00000000               -0.09175189               -0.02767654                0.10535919                0.00250982                0.04505221                0.00600139
               3.89955003                9.91195169               94.12235170                0.99999996               -0.14110168               -0.02678748                0.15253869                0.03679070                0.07939503                0.01036190
               4.89775189                9.90963177               94.12948409                1.00000000               -0.26345652               -0.00719756                0.17003595                0.10410957                0.16348325               -0.00793994
               5.89428090                9.91093059               94.13678496                1.00000000               -0.23633572                0.05869711                0.10953772               -0.01102475                0.30398848               -0.12894058
               6.89302517                9.91343578               94.14525064                0.92370594               -0.01795163                0.01946441                0.38750979               -0.00452995                0.10353037                0.07737514
               7.89392186                9.91436658               94.15336901                1.00000000                0.09376465                0.01086547                0.05062403                0.02159090                0.14712978               -0.02142440
               8.89490047                9.91218484               94.16127545                1.00000000                0.05255864               -0.06240272                0.09386543                0.02405916                0.03103124               -0.04751367
               9.89497304                9.90799268               94.16868414                1.00000000                0.00725708                0.00601360                0.13122061               -0.00550940                0.00060971                0.00825572
              -0.16216484               -0.06666755               95.07524625                0.79787381               -0.02987560               -0.03021680                0.09060122                0.00262371                0.00517485               -0.00028853
               0.83753641               -0.07086022               95.07816513                0.38899084               -0.03081761               -0.03320022                0.10740471               -0.00902641                0.01242156                0.00818663
               1.83721881               -0.07521391               95.08122204                0.24165925                0.03016108               -0.05187757                0.14814527               -0.01837544                0.01019454                0.01604238
               2.83813963               -0.07945364               95.08474648                0.49206652                0.06199083               -0.02626766                0.12261430               -0.07597526                0.08246789                0.04532970
               3.83845863               -0.08129236               95.08848282                0.99383868                0.01371606               -0.04898280                0.06846188                0.02599983                0.02271594                0.02969456
               4.83841395               -0.08237001               95.09099071                0.99999999               -0.02348939               -0.00639283                0.06622726                0.02462177               -0.08063849                0.02869993
               5.83798884               -0.08332059               95.09295340                0.99999999               -0.04310759               -0.01330645                0.06861313                0.01389522               -0.10198314                0.01539091
               6.83755180               -0.08472420               95.09465719                0.91539929               -0.03445590               -0.00951356                0.05620180               -0.00365447               -0.10054437                0.00855909
               7.83729972               -0.08640292               95.09622342                0.48299943               -0.02452908               -0.01083631                0.04956946               -0.02722632               -0.07839089                0.00846785
               8.83706122               -0.08830296               95.09812426                0.62112194               -0.04831485               -0.02597586                0.11738143               -0.04326423               -0.03758639               -0.01094369
               9.83633343               -0.09034772               95.10166524                0.99999999               -0.07277922               -0.07020987                0.17596163               -0.01235624                0.03813389               -0.10860229
              -0.15794593                0.93303028               95.07778965                0.39282637               -0.03347463               -0.03266423                0.10856778               -0.01019970                0.00668951               -0.00313151
               0.84171932                0.92880778               95.08073124                0.01000001               -0.03611505               -0.03523088                0.12118577               -0.03696087                0.02781517                0.02149080
               1.84133177                0.92426731               95.08412752                0.01000003               -0.06501112               -0.08616579                0.14228232               -0.07540326                0.15390469                0.11459023
               2.84041910                0.92028368               95.08905270                0.74893500               -0.05774787               -0.03236465                0.05280183               -0.02140070                0.11297302                0.00179491
               3.84017681                0.91821781               95.09259279                0.75284122               -0.03724087               -0.04484407                0.06709191                0.10264434                0.04165368                0.04275965
               4.83967428                0.91756606               95.09566374                0.82777801               -0.04359616                0.01180537                0.07288535                0.07773784                0.03301474                0.06115525
               5.83930489                0.91654635               95.09809933                0.93358444               -0.03089308               -0.01347632                0.07741209                0.02940366               -0.01790195                0.03403097
               6.83905642                0.91518067               95.10012001                1.00000000               -0.02440243               -0.00978365                0.06560668                0.00611509               -0.04994978                0.02682988
               7.83881684                0.91348872               95.10194713                0.86299481               -0.02277225               -0.00966435                0.05826651               -0.02856112               -0.04980789                0.02651810
               8.83860098                0.91143728               95.10401316                0.55209328               -0.02811060               -0.02577547                0.08921260               -0.07170870               -0.00680316               -0.00596947
               9.83825463                0.90895018               95.10694219                0.99999999               -0.03463496               -0.07130261                0.17111077               -0.06574914                0.02188711               -0.09903403
              -0.15392383                1.93267916               95.08026277                0.24094829               -0.05160181                0.02332249                0.15353212               -0.01992648                0.01604632               -0.01535662
               0.84556016                1.92843516               95.08360360                0.01000002               -0.09206660               -0.06370271                0.14177362               -0.07318835                0.11860743                0.13948369
               1.84423484                1.92306277               95.08920484                0.78275071               -0.08995207               -0.08426081                0.05770863               -0.02031803                0.07188768                0.06802361
               2.84376111                1.91989906               95.09309128                0.65143372               -0.05028537               -0.04515653                0.03011703                0.15959559                0.00560303               -0.02131716
               3.84322913                1.91781076               95.09672859                0.02379859               -0.10604708               -0.05759471                0.06391996                0.28880854                0.01108569                0.04024826
               4.84164017                1.91786610               95.10109593                0.01000001               -0.11334123               -0.04692996                0.07708989                0.31047623               -0.02069360                0.08768731
               5.84096231                1.91640989               95.10357656                0.01000001               -0.04542200               -0.06757305                0.06620306                0.18832605                0.02190097                0.10066395
               6.84073173                1.91508013               95.10591091                0.87311257               -0.02452139                0.01963427                0.09483782                0.03311374                0.00756511                0.13265505
               7.84047188                1.91340379               95.10816204                0.99999999               -0.02830759               -0.00177149                0.09530914               -0.00302057               -0.01007869                0.09617884
               8.84016558                1.91118153               95.11019003                0.96959608               -0.02396161               -0.02101029                0.06967014               -0.03949752               -0.02121105                0.01092026
               9.83999265                1.90822623               95.11223565                1.00000000               -0.01729313               -0.06187843                0.05151438               -0.06166535               -0.01780754               -0.04260516
              -0.14985646                2.93349673               95.08316951                0.49769310               -0.02715966                0.05369781                0.12698220               -0.07231428                0.05025522                0.06762643
               0.84987194                2.92753372               95.08801000                0.75257306               -0.03410186               -0.05713346                0.05371942               -0.02056572                0.00586510                0.10706830
               1.84946150                2.92258210               95.09258970                0.63911043               -0.05044599               -0.04833822                0.03015091                0.16309020               -0.02292624                0.00441754
               2.84886302                2.91938055               95.09706213                0.17694097               -0.07377776               -0.06923795                0.05502814                0.28144124               -0.02878495               -0.02244097
               3.84798595                2.91706592               95.10091313                0.01000001               -0.07891717               -0.08492677                0.06182309                0.39866956                0.00761043                0.01398694
               4.84728468                2.91662746               95.10545317                0.01000001               -0.10642854               -0.11897122                0.10606469                0.47779975                0.06677555                0.08257900
               5.84585738                2.91519489               95.11009806                0.01000000               -0.22799455               -0.08603804                0.17819455                0.47439834               -0.02681385                0.20022615
               6.84272479                2.91557335               95.11331067                0.01000000               -0.16011774               -0.06454801                0.08674027                0.39056509               -0.10885533                0.19599454
               7.84265502                2.91345329               95.11525192                0.01000003                0.01319015               -0.06086307                0.01501494                0.18782691               -0.06488203                0.07144329
               8.84298859                2.91101708               95.11660961                0.95067049                0.01384546               -0.00597978                0.07726590                0.05538841               -0.06474184                0.01480169
               9.84293193                2.90771261               95.11884285                0.99999998               -0.00566609               -0.06786412                0.08476101                0.00484297               -0.01460717                0.06208633
              -0.14344410                3.93375312               95.08653580                1.00000000               -0.04924278                0.00915486                0.07436670                0.02758965                0.02983546                0.02279259
               0.85606347                3.92729249               95.09115002                0.74418472               -0.04530414               -0.03665523                0.06951353                0.10077482                0.04206974                0.04391421
               1.85564982                3.92209601               95.09579725                0.01954255               -0.05786782               -0.09692222                0.06331220                0.27895506                0.03709314                0.01829861
               2.85490612                3.91851431               95.10042634                0.01000003               -0.08471020               -0.07174551                0.06119881                0.38747116                0.00999052                0.02371496
               3.85395561                3.91611223               95.10492018                0.01000002               -0.09194581               -0.07523918                0.04981542                0.51013215                0.09691595                0.08122974
               4.85306720                3.91548667               95.11141692                0.01000002               -0.12256125               -0.12021895                0.17587524                0.55661237                0.11221669                0.12967340
               5.85150439                3.91468913               95.11572926                0.01000001               -0.13912823               -0.08768729                0.15651705                0.54340929               -0.00316115                0.12029247
               6.85028464                3.91378917               95.11916304                0.01000001               -0.13598476               -0.15351368                0.16713686                0.56966512               -0.03538239                0.08677390
               7.84878469                3.91218653               95.12180727                0.01000002               -0.16353048               -0.09726914                0.15227384                0.45186646               -0.12599309                0.05191463
               8.84701403                3.91106194               95.12306513                0.95631333               -0.10431254               -0.00805605                0.10150337                0.16347257               -0.06066580                0.00050846
               9.84669844                3.90686894               95.12594606                0.99999998               -0.03155832               -0.07018139                0.12246233               -0.00585843                0.01588781                0.09730962
              -0.13638341                4.93367983               95.08874755                0.99999999               -0.00720358               -0.02541681                0.06805823                0.02296231                0.02774671               -0.07595674
               0.86354455                4.92680062               95.09387819                0.80365530                0.01011026               -0.04202908                0.07362614                0.07657580                0.06190251                0.03236708
               1.86381879                4.92064365               95.09980377                0.01000001               -0.04741596               -0.10411264                0.07562532                0.29999856                0.09760940               -0.01336488
               2.86259623                4.91794564               95.10479687                0.01000001               -0.13012836               -0.09082313                0.11621425                0.46069453                0.09098192                0.06938752
               3.86121622                4.91556114               95.11101277                0.01000001               -0.13781018               -0.09722416                0.17429885                0.54562781                0.12779076                0.10424569
               4.85984003                4.91422308               95.11629431                0.01000000               -0.13965774               -0.12877532                0.18207947                0.60194891                0.06391076                0.05609234
               5.85842307                4.91344114               95.12112599                0.01000001               -0.16096701               -0.13303883                0.20202891                0.62475147                0.01222324                0.06527983
               6.85662069                4.91250308               95.12509633                0.01000001               -0.20017430               -0.10998776                0.18985067                0.58920843               -0.07269913                0.05115608
               7.85441958                4.91150790               95.12786184                0.01000001               -0.25225273               -0.05906553                0.16438546                0.55442083               -0.16321323                0.01960706
               8.85157563                4.91085596               95.12945625                0.34422913               -0.16094168                0.00492122                0.12992929                0.28679786               -0.10709749               -0.09355944
               9.85120075                4.90630898               95.13282989                1.00000000               -0.03748831               -0.08380820                0.12513162                0.08335407               -0.03235419                0.16263624
              -0.12922644                5.93324478               95.09040482                0.99999999               -0.01424010               -0.04356298                0.06892886                0.01281564                0.01426591               -0.09897035
               0.87063116                5.92645191               95.09598993                0.91082725               -0.01343980               -0.02880359                0.07715442                0.02885635                0.03420553               -0.01749206
               1.87050477                5.92001376               95.10194420                0.01000002               -0.07143191               -0.04179582                0.06085026                0.18171437                0.09754469                0.01341933
               2.86920252                5.91669784               95.10889876                0.01000000               -0.09570197               -0.21174348                0.17777847                0.46419753                0.19979181               -0.03487091
               3.86859073                5.91416774               95.11493166                0.01000001               -0.09881752               -0.12591430                0.15921204                0.54299243                0.12527570               -0.01195607
               4.86722617                5.91291117               95.12071312                0.01000001               -0.14356512               -0.15057163                0.20246647                0.62504176                0.07166433                0.00214324
               5.86571942                5.91202835               95.12597325                0.01000001               -0.16120654               -0.15226574                0.21873216                0.68682219                0.00199085               -0.00816650
               6.86400204                5.91158941               95.13039703                0.01000002               -0.20995969               -0.10912335                0.21343329                0.72486969               -0.07350717               -0.01581187
               7.86152023                5.91100522               95.13404435                0.01000001               -0.30265686               -0.05323689                0.20235370                0.82483958               -0.27267673               -0.04142296
               8.85794890                5.91116036               95.13455588                0.01207935               -0.20303799               -0.25381657                0.18021352                0.79277881               -0.25812961                0.14242751
               9.85745947                5.90519278               95.13982463                0.95553157               -0.04894338               -0.33930997                0.17187730                0.44847616               -0.07395597                0.64625900
              -0.12254136                6.93280857               95.09178478                0.90768304               -0.01059383               -0.03470502                0.05653071               -0.00429226                0.00915803               -0.09738687
               0.87735270                6.92622455               95.09768813                1.00000000               -0.01257477               -0.02276554                0.06471913                0.00603731                0.02422856               -0.04954450
               1.87720715                6.91980774               95.10384340                0.74376633                0.01867461               -0.02282758                0.09114338                0.03259890                0.13370066               -0.00063444
               2.87772620                6.91371077               95.11176755                0.01000000               -0.06721986               -0.15453968                0.09250070                0.39123266                0.20435310               -0.10909506
               3.87586275                6.91304285               95.11795938                0.01000001               -0.16229703               -0.12680539                0.16842602                0.56649982                0.08762547               -0.04812761
               4.87448025                6.91121165               95.12426976                0.01000001               -0.11907408               -0.19063754                0.19148060                0.58995081                0.05552336               -0.08572903
               5.87348127                6.91039583               95.12997233                0.01000001               -0.11695227               -0.20177376                0.21411342                0.72392633               -0.00694578               -0.08594872
               6.87214121                6.91032061               95.13524065                0.01000001               -0.10679207               -0.10095391                0.21396177                0.82754365               -0.09027034               -0.10359509
               7.87134543                6.91044317               95.13943137                0.01000001                0.05512203               -0.09949809                0.16242555                0.64945185               -0.04961320               -0.05271488
               8.87324365                6.90577963               95.14587352                0.05066288                0.03800046               -0.28102388                0.31232120                0.51430746                0.20031193               -0.09957682
               9.87210544                6.89952278               95.15415125                0.68438508               -0.11382149               -0.19808989                0.38840378                0.43029485                0.29507973                0.12770837
              -0.11614424                7.93255068               95.09303613                0.47289248               -0.01030203               -0.02564466                0.04970538               -0.02767787                0.01109666               -0.07388225
               0.88375274                7.92599660               95.09919427                0.86503584               -0.00926189               -0.02303234                0.05768196               -0.02889045                0.02735267               -0.05103082
               1.88367052                7.91955720               95.10578237                1.00000000                0.00196627               -0.02802298                0.09569777               -0.00282265                0.10508896               -0.01310779
               2.88379206                7.91360705               95.11343037                0.01000005               -0.06253381                0.01372010                0.01723731                0.18612590                0.07378310               -0.07621811
               3.88241984                7.91163163               95.12018356                0.01000002               -0.10599252               -0.15675075                0.15467558                0.45102265                0.04588294               -0.13973040
               4.88167221                7.90909842               95.12660895                0.01000000               -0.06654256               -0.24411856                0.16655660                0.55285967                0.02456121               -0.18174362
               5.88108899                7.90799287               95.13322039                0.01000001               -0.05833181               -0.29393732                0.20301378                0.82541817               -0.03402903               -0.29753691
               6.88050558                7.90957033               95.13900017                0.01000001               -0.10193696                0.06118523                0.16306619                0.64198378               -0.04247237               -0.05951968
               7.87905025                7.90901526               95.14530505                0.01000001               -0.06750693               -0.07153732                0.14824611                0.42652916               -0.15328052               -0.16630237
               8.87915544                7.90553988               95.14866610                0.59473599               -0.02356010               -0.03025060                0.16677380                0.12684557               -0.14624179               -0.30779414
               9.87857905                7.90123098               95.15518986                0.99999998               -0.05763864                0.06840998                0.21515329                0.12282241               -0.02660364               -0.23250546
              -0.10998675                8.93229567               95.09463662                0.61965513               -0.02448761               -0.04922940                0.11882529               -0.04391976               -0.00804698               -0.03375296
               0.88976837                8.92576390               95.10092880                0.57323421               -0.02365020               -0.02993637                0.08834322               -0.07203894               -0.00229474               -0.01211100
               1.88954024                8.91924728               95.10752260                0.98712782               -0.01970442               -0.02343719                0.07196939               -0.03845585                0.01312720               -0.02451823
               2.88937428                8.91398517               95.11429816                0.96988023               -0.00742040                0.01615390                0.08122789                0.05114620                0.01063656               -0.07755441
               3.88939184                8.90990784               95.12104754                0.97596068               -0.00990376               -0.10137877                0.10025865                0.16199745               -0.00564782               -0.06833912
               4.88917621                8.90632928               95.12773041                0.33091688                0.00629385               -0.15672446                0.12768361                0.28541281               -0.10024042               -0.11942064
               5.88951771                8.90451708               95.13309299                0.01000001               -0.26088538               -0.19545294                0.18809917                0.78906277                0.15849522               -0.27386058
               6.88395850                8.91154431               95.14515127                0.05865550               -0.28056263                0.03910121                0.31354367                0.50447947               -0.08109238                0.19789242
               7.88390646                8.90901242               95.14826323                0.60486337               -0.01968307               -0.02687849                0.16453401                0.12084013               -0.29963312               -0.15371817
               8.88356484                8.90517461               95.15545049                0.99999998               -0.03633869               -0.03651689                0.11298176                0.01174400               -0.04411891               -0.04970758
               9.88317969                8.90089098               95.16260211                1.00000000               -0.03851528               -0.02603015                0.10191833                0.01014895               -0.03176470                0.02030039
              -0.10395909                9.93156609               95.09788203                0.99999999               -0.06805554               -0.07295792                0.17535003               -0.01405594               -0.11001589                0.04310277
               0.89536035                9.92539787               95.10347622                0.99999999               -0.06803904               -0.03660267                0.16670064               -0.06468342               -0.09176582                0.01482372
               1.89468013                9.91908846               95.10926656                1.00000000               -0.06029631               -0.01588164                0.05097295               -0.05939873               -0.03430029               -0.02046225
               2.89415443                9.91393013               95.11625167                0.99999998               -0.06822217               -0.00550452                0.08427758                0.00379437                0.06450648               -0.01606323
               3.89331569                9.90960406               95.12370009                0.99999998               -0.06916025               -0.03037766                0.11992328               -0.00592506                0.09737860                0.01629842
               4.89277122                9.90596393               95.13086973                1.00000000               -0.08302365               -0.03653528                0.12281156                0.08348931                0.16071515               -0.03381976
               5.89165521                9.90408382               95.13820870                0.96115938               -0.33356984               -0.04332652                0.17042535                0.43317155                0.66351691               -0.06939881
               6.88609983                9.91035236               95.15316081                0.69906372               -0.19092277               -0.11919561                0.37772977                0.43382623                0.14226217                0.29195062
               7.88783676                9.90847769               95.15454271                0.99999998                0.07059643               -0.05347307                0.20242506                0.11588904               -0.23535420               -0.02554041
               8.88751175                9.90480955               95.16226896                1.00000000               -0.02437336               -0.03650674                0.09679542                0.00632600                0.01760535               -0.03444590
               9.88734929                9.90071038               95.16964125                0.87607282               -0.01624647               -0.01806040                0.05620190                0.00704368               -0.00442171               -0.00216517
              -0.16509675               -0.06927925               96.07608219                0.75557521               -0.02928454               -0.02927145                0.08064573                0.00853824                0.00928021                0.00449936
               0.83461040               -0.07341334               96.07925630                0.41613992               -0.04011966               -0.03689857                0.11288740               -0.01292454                0.03534208                0.00742279
               1.83410085               -0.07782994               96.08295677                0.21380176                0.03202994               -0.05826001                0.16854499               -0.03373211                0.04123712                0.01385466
               2.83525100               -0.08289989               96.08635352                0.46220275                0.06191754               -0.08506088                0.14534301               -0.15942594               -0.03534416                0.02648222
               3.83533920               -0.08493928               96.08913098                0.93959731               -0.00353708               -0.02959197                0.06119361               -0.00387926               -0.07768299                0.05694284
               4.83518026               -0.08665755               96.09165406                1.00000000               -0.01668313               -0.02049529                0.05802358                0.01317549               -0.11293256                0.03279095
               5.83500554               -0.08833034               96.09357815                0.91703309               -0.01468843               -0.01230388                0.05200631                0.00181470               -0.12851448                0.01847167
               6.83488649               -0.09014653               96.09516804                0.47333050               -0.01201014               -0.01176569                0.05342377               -0.02014166               -0.11886606                0.01437458
               7.83476534               -0.09208877               96.09673058                0.41003658               -0.07425714               -0.02434146                0.11491979               -0.05534739               -0.10165943                0.00692444
               8.83340135               -0.09436495               96.09983011                0.85166507               -0.08279116               -0.03760582                0.12066404                0.01233137               -0.03729489               -0.07806952
               9.83310952               -0.09673706               96.10291139                1.00000000               -0.02918318               -0.03039276                0.08657233               -0.00883975               -0.01062982               -0.04321285
              -0.16087728                0.93042804               96.07888025                0.41059025               -0.03662235               -0.04131210                0.11192701               -0.01372558                0.00715794                0.02203781
               0.83875650                0.92621767               96.08203749                0.01000000               -0.03079597               -0.03088038                0.14115434               -0.04937530                0.03051347                0.02293810
               1.83850680                0.92158746               96.08571812                0.01000000               -0.07725453               -0.13224199                0.17384570               -0.19230636                0.06149173                0.06368970
               2.83721141                0.91624950               96.08948565                0.01000000               -0.06637808               -0.06760336                0.08712333               -0.10370018                0.09073476                0.05414450
               3.83717924                0.91476480               96.09329058                0.81129448               -0.01019319               -0.04356691                0.07766026                0.04301979                0.04348795                0.07648315
               4.83700755                0.91313750               96.09631484                0.95850999               -0.02055317               -0.01508975                0.06758096                0.02211771               -0.00523628                0.04702152
               5.83676818                0.91154662               96.09880526                0.96505745               -0.02216299               -0.01555327                0.06105170                0.01161574               -0.04462669                0.02875623
               6.83656429                0.90973581               96.10073924                0.93437324               -0.02235539               -0.01199250                0.05418825               -0.01818076               -0.07173286                0.02778041
               7.83632107                0.90766782               96.10255178                0.20699418               -0.03577402               -0.02368566                0.08066847               -0.05294239               -0.04436869                0.02117035
               8.83584881                0.90525899               96.10508124                0.38739157               -0.04639223               -0.03820715                0.14168291               -0.00674839                0.00940488               -0.06256148
               9.83539323                0.90295902               96.10872282                0.99999999               -0.04555786               -0.07140127                0.13197634                0.00850348                0.06381211               -0.11629871
              -0.15695053                1.92989451               96.08202994                0.20637282               -0.05859971                0.02650277                0.17231689               -0.03718973                0.01313628                0.01827153
               0.84246347                1.92596905               96.08519324                0.01000000               -0.14132867               -0.07500237                0.17626316               -0.18849065                0.06851836                0.04622207
               1.84022289                1.91952522               96.08951907                0.01000001               -0.12319078               -0.11530749                0.13660742               -0.19738559                0.13502378                0.12175014
               2.83999965                1.91574804               96.09338061                0.01000002               -0.04556434               -0.03800700                0.14092733                0.09573343                0.09957944                0.10959203
               3.83931161                1.91418939               96.09762783                0.01042542               -0.05794288               -0.08562067                0.11268954                0.20416385                0.07074118                0.07035623
               4.83884080                1.91304065               96.10138376                0.01000001               -0.03360323               -0.05524534                0.04382094                0.14534435                0.06601113                0.05773076
               5.83863954                1.91135859               96.10421819                0.44995409               -0.02195602                0.03223175                0.08088698                0.04344111                0.02980050                0.17444815
               6.83840168                1.90961362               96.10678591                0.99999998               -0.02281181               -0.01560552                0.08603525                0.01103141               -0.00294095                0.08476066
               7.83818331                1.90743752               96.10895640                0.96650035               -0.02132471               -0.02680554                0.06258744               -0.02213862               -0.03955722                0.03387370
               8.83797518                1.90487091               96.11068907                0.43886770               -0.01518821               -0.03020733                0.04544462               -0.04317860               -0.04769229               -0.03177236
               9.83787954                1.90183492               96.11257221                0.87989190               -0.00956400               -0.08202381                0.05953532               -0.04990927               -0.02978313               -0.06543821
              -0.15377015                2.93095809               96.08483750                0.46791762               -0.08738760                0.05391879                0.15080387               -0.15440976                0.02984633               -0.04835266
               0.84535597                2.92471762               96.08845174                0.01000000               -0.07248769               -0.06454905                0.08840741               -0.10001932                0.06106225                0.08277268
               1.84478010                2.91928131               96.09288804                0.01000002               -0.04470296               -0.04482047                0.14201010                0.10605493                0.11568227                0.09380502
               2.84446192                2.91548936               96.09747718                0.01000000               -0.04050930               -0.03932396                0.14749078                0.20999811                0.08389346                0.07932470
               3.84396991                2.91305239               96.10152537                0.01000000               -0.08583452               -0.10625652                0.17659360                0.33298909                0.11489242                0.07679648
               4.84274522                2.91203259               96.10688363                0.01000001               -0.14529359               -0.08323023                0.24636718                0.44564274                0.14883607                0.24021406
               5.84106404                2.91219125               96.11223144                0.01000000               -0.10196185               -0.04945486                0.12769508                0.32502128               -0.01361940                0.23243899
               6.84070599                2.90942370               96.11348130                0.01000000               -0.02215163               -0.05891379                0.05807720                0.16788238               -0.04351560                0.12941031
               7.84062101                2.90713171               96.11537473                0.01000001               -0.00590761               -0.06293029                0.05918268                0.12833791               -0.02341075                0.10764250
               8.84058784                2.90465485               96.11728412                0.93583054               -0.00769906               -0.01951055                0.08731356                0.02056785               -0.03428216                0.02831143
               9.84046703                2.90131854               96.11964584                1.00000000               -0.01208105               -0.05464824                0.08009148               -0.03588654               -0.02276708                0.05204778
              -0.14755779                3.93097289               96.08725242                0.96215598               -0.03023461               -0.00796595                0.06572128                0.00237638                0.05689839               -0.07620541
               0.85213986                3.92467807               96.09188827                0.83519725               -0.04349787               -0.01129409                0.07957474                0.04800895                0.07618609                0.04407280
               1.85157225                3.91862881               96.09669240                0.01033360               -0.08556629               -0.05402057                0.11086906                0.20380112                0.07007002                0.07183502
               2.85042854                3.91496157               96.10105525                0.01000000               -0.10720448               -0.07952172                0.17954441                0.32489224                0.07385387                0.13048870
               3.84942816                3.91206426               96.10583550                0.01000002               -0.09068753               -0.07891322                0.24851559                0.46053013                0.21647127                0.22554520
               4.84861479                3.91137605               96.11328191                0.01000001               -0.08396525               -0.09361931                0.18383694                0.54990465                0.16369821                0.17821110
               5.84774886                3.91036950               96.11730771                0.01000001               -0.08979581               -0.16271013                0.18915054                0.50265973                0.00705799                0.10320991
               6.84681887                3.90843534               96.12106430                0.01000000               -0.11149709               -0.10088257                0.19245952                0.37676273               -0.12828555                0.21007702
               7.84551892                3.90617891               96.12342903                0.01000000               -0.13095821               -0.07801000                0.15921246                0.29578247               -0.21761582                0.17563397
               8.84419971                3.90448070               96.12421603                0.99999999               -0.08422442               -0.02397830                0.12812492                0.10242193               -0.09794411                0.01624254
               9.84383443                3.90074195               96.12704146                1.00000000               -0.03652794               -0.05056988                0.08873455               -0.01179196                0.01296680                0.07452208
              -0.14113299                4.93079877               96.08944280                1.00000000               -0.02067869               -0.01760162                0.06053178                0.01317989                0.03229724               -0.10984727
               0.85866023                4.92449174               96.09456207                0.97240214               -0.01471955               -0.02097709                0.06893392                0.02275124                0.04690283               -0.00367658
               1.85857262                4.91820090               96.10008979                0.01000000               -0.05679539               -0.03055055                0.04164117                0.14078398                0.06937017                0.06411397
               2.85752432                4.91389893               96.10625893                0.01000001               -0.09032960               -0.13259361                0.23525195                0.43176824                0.23807391                0.15651902
               3.85676603                4.91147413               96.11284989                0.01000001               -0.10431205               -0.06626819                0.18396713                0.53740157                0.17373918                0.16409005
               4.85543808                4.91016020               96.11825402                0.01000001               -0.13540437               -0.12534916                0.23602783                0.56186083                0.09136019                0.08473902
               5.85405794                4.90893705               96.12334299                0.01000000               -0.15031261               -0.14302335                0.24085664                0.51892879                0.00769315                0.11255756
               6.85243182                4.90740605               96.12712735                0.01000001               -0.17833219               -0.10592680                0.22586927                0.44613723               -0.08533865                0.09765645
               7.85049130                4.90557151               96.12976172                0.01000000               -0.21792948               -0.07120239                0.20794829                0.39713993               -0.17700578                0.05957557
               8.84807324                4.90417528               96.13093732                0.38303570               -0.13913107               -0.01962033                0.14954557                0.18488441               -0.10670796                0.01059901
               9.84770868                4.90030714               96.13390261                1.00000000               -0.03645583               -0.08791385                0.11209840                0.05475201               -0.02362170                0.10297730
              -0.13468013                5.93062085               96.09102587                0.90612681               -0.01271103               -0.01490190                0.05215743                0.00103693                0.01977210               -0.12492443
               0.86519276                5.92425853               96.09670915                0.95523473               -0.01695634               -0.02146383                0.06145540                0.01203873                0.02950332               -0.04395710
               1.86498074                5.91801780               96.10255202                0.37596802                0.02989580               -0.02073486                0.07887910                0.04354225                0.17431107                0.02595134
               2.86579068                5.91230969               96.11100119                0.01000000               -0.05329124               -0.09568426                0.13185386                0.32443336                0.24220443               -0.01894557
               3.86391492                5.91073889               96.11652568                0.01000001               -0.17007996               -0.07937959                0.18971707                0.49793771                0.10889948                0.00491782
               4.86238908                5.90886907               96.12293783                0.01000000               -0.15166657               -0.14209182                0.24196813                0.51840214                0.11746179                0.00093066
               5.86088159                5.90750903               96.12835389                0.01000001               -0.16409587               -0.15722277                0.27780194                0.56364049                0.01632552                0.00780351
               6.85910716                5.90631680               96.13283455                0.01000001               -0.20945537               -0.12530534                0.28161066                0.56189357               -0.08906267               -0.00403822
               7.85669248                5.90475487               96.13624055                0.01000001               -0.29727000               -0.08405007                0.25725864                0.60604046               -0.20759553               -0.02058068
               8.85316176                5.90408829               96.13794754                0.20430211               -0.20133671               -0.20635594                0.30077491                0.53539043               -0.14291305                0.10858884
               9.85266575                5.89898368               96.14164256                1.00000000               -0.04960136               -0.35007602                0.19266919                0.34454753               -0.03565825                0.34115503
              -0.12838760                6.93050074               96.09229442                0.45530307               -0.01083530               -0.01239298                0.05310313               -0.02129160                0.01533293               -0.11418869
               0.87150405                6.92406247               96.09829331                0.93034287               -0.01100523               -0.02223034                0.05299017               -0.01826405                0.02925285               -0.07165604
               1.87139230                6.91778620               96.10476671                0.99999998               -0.01060777               -0.02313881                0.09029583                0.01347150                0.09489419               -0.00533946
               2.87129190                6.91198524               96.11202372                0.01000000               -0.06134443               -0.01912723                0.05234145                0.16671102                0.12694386               -0.04711915
               3.87016541                6.90988653               96.11986895                0.01000000               -0.11279569               -0.10439907                0.19721731                0.37393433                0.20436708               -0.13458145
               4.86903598                6.90731837               96.12632216                0.01000002               -0.11411989               -0.17175009                0.22744670                0.44464219                0.10161912               -0.09603692
               5.86788301                6.90579260               96.13242073                0.01000001               -0.13060613               -0.20382951                0.28235298                0.56074219                0.00340152               -0.10193206
               6.86642386                6.90489994               96.13755355                0.01000000               -0.15211962               -0.14931332                0.28217381                0.63127013               -0.11615468               -0.12728392
               7.86484062                6.90389051               96.14158613                0.01000000               -0.09358129               -0.10929243                0.26415588                0.53891443               -0.13371096               -0.12502973
               8.86455223                6.90004816               96.14739371                0.44058654               -0.00158808               -0.26695844                0.12612331                0.40064643               -0.13092858                0.09075303
               9.86480886                6.89330562               96.15393056                0.99981264                0.02566255               -0.25728029               -0.00155036                0.24788282               -0.03796605                0.24064698
              -0.12222942                7.93037299               96.09354342                0.40215590               -0.02285683               -0.07648399                0.11954417               -0.05692946                0.00919986               -0.09832239
               0.87754201                7.92381392               96.09978103                0.22307643               -0.02215922               -0.03689573                0.07997820               -0.05528291                0.02264789               -0.04529204
               1.87732740                7.91755503               96.10660760                0.97645154               -0.02587226               -0.02145746                0.06507234               -0.02194402                0.03685980               -0.03998336
               2.87702457                7.91192715               96.11347823                0.01000001               -0.06334561               -0.00484838                0.05068745                0.12152707                0.10134938               -0.03324638
               3.87606048                7.90865091               96.12185126                0.01000000               -0.08243537               -0.12751399                0.16321025                0.29011744                0.16905056               -0.23457388
               4.87537586                7.90543406               96.12853421                0.01000000               -0.07728131               -0.21319026                0.21011467                0.39477676                0.05889694               -0.19500814
               5.87451486                7.90343244               96.13537785                0.01000000               -0.08706027               -0.29572507                0.25709037                0.60278260               -0.01331691               -0.21897698
               6.87363465                7.90333054               96.14116835                0.01000000               -0.10961547               -0.09307987                0.26519938                0.53545469               -0.11384271               -0.14537319
               7.87232255                7.90256902               96.14653731                0.01000000               -0.09375400               -0.09723027                0.19171339                0.36832858               -0.17147506               -0.18286710
               8.87175957                7.89874912               96.15132670                0.81519700               -0.06070313               -0.09181581                0.21476420                0.14842448               -0.13786443               -0.14904060
               9.87110849                7.89383807               96.15818370                1.00000000               -0.06510881                0.02907667                0.19647757                0.06332324               -0.01743071               -0.19019249
              -0.11640804                8.92897106               96.09636336                0.84842726               -0.03756022               -0.08442130                0.12158130                0.01295858               -0.07844908               -0.03343058
               0.88321636                8.92332455               96.10197618                0.37453398               -0.03758863               -0.04746169                0.14121834               -0.00682844               -0.06052501                0.00643530
               1.88284019                8.91735705               96.10801472                0.46049401               -0.02949036               -0.01401918                0.04450534               -0.04200315               -0.02997820               -0.04593056
               2.88262655                8.91188828               96.11497588                0.94517850               -0.01896727               -0.00857676                0.08740898                0.01925796                0.02382880               -0.04089426
               3.88246084                8.90733625               96.12217745                0.99999999               -0.02382824               -0.08391715                0.12913719                0.09926726                0.01081441               -0.10840098
               4.88214999                8.90305456               96.12921718                0.39219866               -0.02093267               -0.13786547                0.15305564                0.18117820                0.02018263               -0.11904834
               5.88204219                8.89987810               96.13679359                0.19763008               -0.20768067               -0.20606212                0.31467543                0.53645400                0.11858577               -0.15359970
               6.87799638                8.90303834               96.14660082                0.44213259               -0.26267915               -0.00374055                0.12159109                0.39847782                0.10039120               -0.14252720
               7.87678861                8.90194590               96.15090867                0.82352425               -0.08723522               -0.06360955                0.21414682                0.14787878               -0.14476942               -0.14176420
               8.87625167                8.89821185               96.15689104                0.99999999               -0.04455893               -0.04450805                0.13460952                0.01678533               -0.05078485               -0.05413900
               9.87589743                8.89388715               96.16357589                0.65366065               -0.03542408                0.00165120                0.07899673                0.01910776               -0.01466776               -0.07167383
              -0.11067724                9.92868457               96.09910123                1.00000000               -0.03033179               -0.02864883                0.08446528               -0.00890812               -0.04466951               -0.00962483
               0.88901944                9.92286469               96.10523798                1.00000000               -0.06995776               -0.04598644                0.13262436                0.00981219               -0.11029748                0.05938240
               1.88792361                9.91727464               96.10958803                0.86652442               -0.07944594               -0.00824120                0.05492468               -0.04711185               -0.06555398               -0.02975688
               2.88743053                9.91175561               96.11703156                1.00000000               -0.05220317               -0.01326624                0.07747978               -0.03470648                0.05507933               -0.02382522
               3.88687954                9.90697257               96.12475017                1.00000000               -0.04864716               -0.03636875                0.08564923               -0.01207298                0.07500781                0.01262768
               4.88645758                9.90267675               96.13194032                1.00000000               -0.08096943               -0.03778064                0.11281379                0.04769091                0.11208594               -0.02469764
               5.88526016                9.89931120               96.14019347                1.00000000               -0.34605887               -0.05668989                0.19535759                0.35074506                0.36087021               -0.05101288
               6.87953641                9.90325573               96.15280524                0.99966446               -0.25767670                0.02173838               -0.01058635                0.25328454                0.23952562               -0.04433833
               7.88010662                9.90129683               96.15741751                1.00000000                0.03088105               -0.06490743                0.18943974                0.06196304               -0.18860542               -0.01982018
               8.88015403                9.89785896               96.16321136                0.65641836                0.00167016               -0.03528845                0.07639173                0.01894899               -0.07039179               -0.01607876
               9.88014002                9.89387109               96.16980817                0.37480411               -0.00140019               -0.00160606                0.00205499                0.02547271               -0.01999014               -0.01876388
              -0.16832744               -0.07217369               97.07685917                0.70861225               -0.03038920               -0.03030273                0.08126572                0.01097221                0.01395960                0.00922423
               0.83136867               -0.07627415               97.08042288                0.46855439               -0.03631145               -0.03962551                0.11834620               -0.00198620                0.04130836                0.00928286
               1.83094633               -0.08045952               97.08459294                0.23154345               -0.00550642               -0.05616754                0.14635582               -0.02899496                0.01098077                0.01311747
               2.83125854               -0.08518827               97.08765334                0.57929388                0.03290466               -0.04722563                0.08072894               -0.06038013               -0.14579810                0.03740280
               3.83160443               -0.08847271               97.08970669                0.97884658                0.02247956               -0.02766643                0.04450928               -0.03107759               -0.15215119                0.06231764
               4.83170813               -0.09103574               97.09215118                0.84458093                0.01500719               -0.01874635                0.03996130               -0.01196000               -0.13830831                0.02750405
               5.83190457               -0.09340539               97.09399352                0.43902208                0.01569573               -0.01131812                0.05022750               -0.01882944               -0.15222096                0.02080144
               6.83202205               -0.09557910               97.09572567                0.32370824               -0.06500518               -0.03024989                0.11886083               -0.03975321               -0.13635725               -0.01418006
               7.83060447               -0.09790685               97.09852182                0.61334626               -0.09437732               -0.04068519                0.12581782                0.05892454               -0.13382035               -0.09951204
               8.83013450               -0.10036660               97.10053755                0.80014840               -0.03231050               -0.03063044                0.07244105                0.00195402               -0.07015342                0.00076961
               9.82995826               -0.10283484               97.10339669                0.84557042               -0.01762443               -0.02017701                0.04242096               -0.01787977               -0.02033811               -0.02174731
              -0.16411725                0.92752329               97.08002819                0.45669613               -0.03910292               -0.03694861                0.11678963               -0.00238298                0.00999066                0.03167793
               0.83549172                0.92332959               97.08355433                0.01000001               -0.03846558               -0.03902456                0.15424592               -0.02358778                0.03483563                0.02985171
               1.83511344                0.91897881               97.08760443                0.01000001               -0.04151934               -0.06063122                0.19570017               -0.05942501                0.01180561                0.08121507
               2.83466134                0.91433948               97.09079517                0.01000001               -0.04480267               -0.03561744                0.15720500               -0.06713873                0.02644020                0.15941116
               3.83421739                0.91125063               97.09414600                0.89328425               -0.03032309               -0.02720987                0.08702570               -0.02631461                0.00303260                0.08540292
               4.83405487                0.90877680               97.09701536                0.99999998               -0.01147169               -0.02561678                0.06168894               -0.00536509               -0.04489106                0.03515740
               5.83398795                0.90648143               97.09932036                0.81538197               -0.00898154               -0.00609648                0.04797221               -0.02033967               -0.08576858                0.03580300
               6.83387524                0.90411840               97.10120378                0.24898251               -0.02002441               -0.01938154                0.08144621               -0.04412352               -0.08055003                0.01740926
               7.83358746                0.90168630               97.10356050                0.01000001               -0.06286043               -0.04174171                0.17870706                0.01909002               -0.02743816               -0.06528586
               8.83261803                0.89932709               97.10684681                0.10510222               -0.06698861               -0.06451000                0.15786776                0.03692613               -0.00062140               -0.10033416
               9.83224769                0.89696339               97.10958172                0.68062392               -0.03703422               -0.05853596                0.10359067                0.04725281               -0.02571405               -0.13761951
              -0.15998771                1.92708734               97.08370911                0.22280572               -0.05709014               -0.01080462                0.14868666               -0.03273643                0.01098943               -0.00929150
               0.83944139                1.92294535               97.08712887                0.01000001               -0.06321729               -0.04177216                0.20042932               -0.06042753                0.08335011               -0.00093074
               1.83874795                1.91832786               97.09193699                0.01000000               -0.08987224               -0.08469694                0.24197154               -0.06048496                0.18461273                0.17143211
               2.83764395                1.91409938               97.09590983                0.01000000               -0.10535670               -0.05235323                0.28042873               -0.00512706                0.07050784                0.22690146
               3.83664081                1.91098309               97.09898238                0.01000000               -0.06369582               -0.04282241                0.12642938                0.05062499                0.04379641                0.14358707
               4.83637003                1.90845192               97.10197235                0.14124832               -0.02423235                0.03783971                0.09185718                0.04950245                0.05848303                0.21511239
               5.83615617                1.90647268               97.10519430                0.99999998               -0.02176633                0.01363587                0.09048981                0.02903537                0.02799476                0.14597038
               6.83593470                1.90403327               97.10763162                1.00000000               -0.01892943               -0.01176208                0.06934173               -0.01892134               -0.03914097                0.06808127
               7.83577758                1.90125832               97.10941378                0.61107470               -0.01693877               -0.02763970                0.05347588               -0.04467761               -0.07603636               -0.00825447
               8.83559593                1.89834320               97.11109892                0.01000000               -0.00734333               -0.06353728                0.02850253                0.00749678               -0.03405737               -0.11842978
               9.83563071                1.89599444               97.11342636                0.48795089                0.00347827               -0.13395392                0.11406862                0.04039777               -0.05131169                0.01402650
              -0.15648800                2.92730719               97.08618558                0.58960653               -0.04693433                0.02681882                0.08316542               -0.06081098                0.03846994               -0.15858537
               0.84304265                2.92249415               97.08977815                0.01000002               -0.03811425               -0.04408697                0.15846263               -0.06582499                0.16622110                0.01582818
               1.84274971                2.91728487               97.09542990                0.01000000               -0.05695473               -0.09984501                0.27827571               -0.00327208                0.23901049                0.06005372
               2.84190356                2.91329241               97.10001195                0.01000000               -0.09361830               -0.08785306                0.27599025                0.13527287                0.16320767                0.15641197
               3.84087735                2.91039418               97.10444500                0.01000001               -0.11741103               -0.08422390                0.30464412                0.28293695                0.19369024                0.23449719
               4.83955534                2.90953359               97.11038051                0.01000001               -0.09450179               -0.03857094                0.19952500                0.24294404                0.12536202                0.27380796
               5.83898731                2.90675414               97.11265196                0.01000001               -0.04220802               -0.04154567                0.04369389                0.10282810               -0.00965286                0.15468674
               6.83871118                2.90388316               97.11447222                0.75001920               -0.03016613                0.01556924                0.09641556                0.00211309               -0.02093212                0.17785639
               7.83838399                2.90113351               97.11643558                0.99999999               -0.03396677                0.00269536                0.10531540               -0.01618707               -0.02637496                0.12829339
               8.83803184                2.89805635               97.11835589                0.91727861               -0.03154169               -0.03048023                0.09713862               -0.05012008               -0.03182787                0.02660780
               9.83775315                2.89428431               97.12044468                0.90885429               -0.02786889               -0.09459129                0.07056365               -0.09339300               -0.03190350                0.00337940
              -0.15157783                3.92762372               97.08785022                0.99198463               -0.02749506                0.02011182                0.04667414               -0.03041122                0.06100866               -0.15036077
               0.84814722                3.92206362               97.09274151                0.91107005               -0.02689622               -0.02939688                0.08685561               -0.02498995                0.08360044                0.00231354
               1.84788424                3.91633096               97.09801463                0.01000000               -0.04535609               -0.06092804                0.12424527                0.05191636                0.14540091                0.03780574
               2.84724010                3.91234232               97.10401723                0.01000001               -0.09129344               -0.10811649                0.30557780                0.28308547                0.23406744                0.19352423
               3.84605837                3.90929862               97.10989049                0.01000001               -0.11855741               -0.11207139                0.38017450                0.35783801                0.20706623                0.21580529
               4.84486895                3.90768050               97.11509366                0.01000001               -0.10976094               -0.16358238                0.25077093                0.39809655                0.11712204                0.14086507
               5.84386316                3.90564177               97.11951227                0.01000000               -0.16356705               -0.10540118                0.21942223                0.36902180                0.02256475                0.21797764
               6.84159761                3.90434466               97.12301223                0.01000001               -0.12912515               -0.05986018                0.11654121                0.27272334               -0.07904270                0.21251980
               7.84128065                3.90131222               97.12499152                0.01000002               -0.00774440               -0.06228013                0.07661685                0.10372251               -0.16239303                0.16102845
               8.84144272                3.89773359               97.12562763                0.99999999                0.00131322               -0.03599596                0.11001865                0.00295690               -0.10085059                0.00071561
               9.84130692                3.89410262               97.12772076                1.00000000               -0.01358008               -0.02584458                0.06015601               -0.01086838               -0.02532139                0.04006892
              -0.14597602                4.92770943               97.08995819                0.83526811               -0.01883650                0.01354736                0.04117612               -0.01130793                0.02583142               -0.13486132
               0.85383561                4.92190621               97.09525687                1.00000000               -0.02573229               -0.01110424                0.06113000               -0.00476310                0.03328177               -0.04298650
               1.85350933                4.91606631               97.10063659                0.09824243                0.03809990               -0.02375489                0.08961869                0.05192885                0.21402030                0.05825160
               2.85459761                4.91113008               97.10950191                0.01000000               -0.04067044               -0.08940885                0.18781876                0.24596491                0.27869582                0.13033644
               3.85269592                4.90815275               97.11469212                0.01000000               -0.17117454               -0.10257918                0.25260646                0.39527780                0.14411355                0.11953833
               4.85117412                4.90626194               97.12101486                0.01000001               -0.14961655               -0.14094341                0.30098985                0.46858134                0.13503587                0.13329058
               5.84970359                4.90464612               97.12594313                0.01000001               -0.13394673               -0.12675410                0.28411377                0.43550395                0.01428482                0.16351976
               6.84849519                4.90268596               97.12961371                0.01000001               -0.13170451               -0.16311026                0.26294928                0.39891523               -0.07974115                0.14024255
               7.84706950                4.89988790               97.13202081                0.01000001               -0.15972999               -0.12715121                0.22545152                0.28125751               -0.18987835                0.11826334
               8.84530059                4.89733643               97.13244716                0.39954238               -0.11358840               -0.04289256                0.16738434                0.10627138               -0.10514341                0.05922348
               9.84479774                4.89376742               97.13507185                1.00000000               -0.05028518               -0.10573431                0.12431756                0.04556608               -0.00190563                0.12113449
              -0.14019755                5.92789467               97.09144797                0.41900017               -0.01073739                0.01489057                0.05121005               -0.01813606                0.02219388               -0.14870810
               0.85969508                5.92184153               97.09721903                0.79995646               -0.00517506               -0.00933320                0.04738820               -0.02044717                0.03678214               -0.08481657
               1.85969895                5.91585586               97.10352178                0.99999998                0.01889371               -0.02104678                0.09098764                0.02889504                0.15376051                0.03023397
               2.86007295                5.91055415               97.11153584                0.01000000               -0.04334398               -0.04193659                0.04377333                0.09781952                0.15776353               -0.01364645
               3.85883207                5.90724703               97.11872600                0.01000000               -0.11628731               -0.15635514                0.22075569                0.36316087                0.21641005                0.02515523
               4.85774720                5.90486164               97.12555249                0.01000001               -0.13414262               -0.12837041                0.28573585                0.43231926                0.16695892                0.00896422
               5.85614922                5.90310668               97.13152929                0.01000001               -0.17065378               -0.16564501                0.35869966                0.44175650                0.05556888                0.04975260
               6.85433413                5.90108245               97.13602924                0.01000002               -0.19469416               -0.16224140                0.37342428                0.39100238               -0.07467081                0.04953463
               7.85225533                5.89876920               97.13918952                0.01000000               -0.23227520               -0.11210447                0.32435995                0.37774139               -0.20212766                0.03989633
               8.84968863                5.89687574               97.14057138                0.22879994               -0.14495424               -0.15604549                0.28706099                0.30993983               -0.11303097                0.11205341
               9.84935625                5.89198793               97.14367801                1.00000000               -0.03323759               -0.29864168                0.19128631                0.18495381               -0.00379159                0.32578841
              -0.13423247                6.92800724               97.09284684                0.31301780               -0.03020536               -0.06896846                0.12601733               -0.04066502               -0.01388586               -0.12917615
               0.86546547                6.92171955               97.09874793                0.25105372               -0.01964541               -0.02168184                0.08382899               -0.04577127                0.01990526               -0.07987945
               1.86537462                6.91564537               97.10564931                1.00000000               -0.01513217               -0.01731670                0.07054115               -0.02083144                0.06676206               -0.03744679
               2.86516283                6.91029135               97.11281438                0.60037504                0.01385153               -0.02820927                0.08944101               -0.00586427                0.17773376               -0.03225780
               3.86565165                6.90502565               97.12190373                0.01000001               -0.06009873               -0.13076877                0.12842194                0.26579911                0.22475792               -0.08329252
               4.86396086                6.90369453               97.12881870                0.01000001               -0.16668716               -0.12792025                0.26403341                0.39419606                0.14097192               -0.08805536
               5.86231791                6.90133322               97.13561939                0.01000002               -0.16540693               -0.19331042                0.37418335                0.38929475                0.05513037               -0.08377710
               6.86065272                6.89944113               97.14088412                0.01000001               -0.17434327               -0.17334241                0.39116596                0.45238659               -0.12044702               -0.12857803
               7.85883104                6.89764581               97.14471448                0.01000001               -0.11860331               -0.13669102                0.33545167                0.39907257               -0.19115998               -0.13907218
               8.85828065                6.89421552               97.14839598                0.58796567               -0.02793059               -0.19069979                0.12748444                0.26059532               -0.12588908                0.05681659
               9.85827243                6.88779459               97.15412024                0.99999999               -0.00082213               -0.21030670                0.00662364                0.11591696               -0.02725189                0.24783689
              -0.12843546                7.92651530               97.09542701                0.60912198               -0.04230225               -0.09689960                0.13016385                0.06181522               -0.10612203               -0.12784184
               0.87114152                7.92140789               97.10079383                0.01000001               -0.04270124               -0.06419451                0.18164465                0.02176353               -0.06739849               -0.02528128
               1.87071052                7.91550953               97.10708381                0.60650536               -0.02830649               -0.01485721                0.05407624               -0.04257908               -0.00733129               -0.07611346
               2.87057539                7.90998996               97.11444412                0.99999999                0.00171750               -0.03387005                0.10306175               -0.01762866                0.13030707               -0.02983375
               3.87074487                7.90463166               97.12344777                0.01000001               -0.06259181               -0.00923718                0.08003045                0.10142225                0.16326973               -0.17591064
               4.86932355                7.90230323               97.13081124                0.01000001               -0.12781763               -0.15761652                0.22755400                0.28058397                0.11853352               -0.20231372
               5.86818851                7.89924048               97.13836219                0.01000000               -0.11271427               -0.23518740                0.32758535                0.37501294                0.04534691               -0.21081607
               6.86706927                7.89761560               97.14430415                0.01000001               -0.13630580               -0.11921233                0.33571709                0.39967178               -0.13149127               -0.19912065
               7.86546240                7.89603538               97.14913931                0.01000001               -0.11587566               -0.11744428                0.26642728                0.36679734               -0.21458990               -0.22273557
               8.86475176                7.89306175               97.15296138                0.89594901               -0.04729761               -0.10041706                0.16643429                0.16738429               -0.14848787               -0.07038530
               9.86451645                7.88778180               97.15911941                0.64944966               -0.02353088                0.00192209                0.07215095                0.03421528               -0.00670523               -0.06555629
              -0.12278136                8.92606925               97.09706824                0.79615839               -0.03121241               -0.03087208                0.07271655                0.00211500                0.00096079               -0.06963319
               0.87690651                8.92043566               97.10375316                0.08626743               -0.06388327               -0.06729879                0.15870151                0.04025316               -0.09869571               -0.00013809
               1.87594097                8.91534823               97.10841271                0.01000000               -0.06091929               -0.00814163                0.02935810                0.00216179               -0.11370877               -0.03673185
               2.87568813                8.90961395               97.11604634                0.93465878               -0.02870743               -0.03238504                0.09599704               -0.04944170                0.02587984               -0.03478147
               3.87536682                8.90484091               97.12363029                0.99999999               -0.03622047                0.00397607                0.11331680                0.00452362               -0.00226136               -0.10890815
               4.87496372                8.90054220               97.13079153                0.42378375               -0.04305153               -0.11397679                0.17225041                0.10173275                0.06332735               -0.11396957
               5.87450579                8.89662947               97.13938650                0.22918059               -0.15562349               -0.14883330                0.27960053                0.31669338                0.11769860               -0.11855472
               6.87185125                8.89705688               97.14758309                0.59500807               -0.18924730               -0.02794262                0.12509550                0.26322382                0.06063783               -0.13102628
               7.87072085                8.89529693               97.15254617                0.90445722               -0.09846649               -0.04858936                0.16585582                0.16732095               -0.06783533               -0.15086749
               8.86988192                8.89220718               97.15814268                0.86465521               -0.06021084               -0.06072065                0.12215686                0.07488036               -0.02712311               -0.02918981
               9.86951663                8.88783303               97.16418205                0.01463459               -0.03652881                0.00443683                0.05247024                0.02455595               -0.00601438               -0.04224763
              -0.11712597                9.92589785               97.09957134                0.84596837               -0.02064270               -0.01713955                0.04189833               -0.01805438               -0.02047799               -0.01945714
               0.88266760                9.92006192               97.10612871                0.66125458               -0.06492850               -0.03737380                0.10540357                0.04855103               -0.13537859               -0.02659457
               1.88157546                9.91534670               97.11036506                0.46622177               -0.12868618               -0.00015343                0.10871221                0.02746588                0.01636238               -0.05334472
               2.88009388                9.90934226               97.11780127                0.90584942               -0.08341881               -0.02716897                0.06635198               -0.09120059                0.00708732               -0.03383049
               3.87990708                9.90471118               97.12541307                1.00000000               -0.02621194               -0.01297264                0.05928858               -0.01190209                0.04046540               -0.02636299
               4.87956964                9.90002370               97.13312600                1.00000000               -0.09496919               -0.05185080                0.12356400                0.03822378                0.12339062               -0.00146594
               5.87800770                9.89626381               97.14211585                1.00000000               -0.29516755               -0.03656641                0.17999349                0.20184356                0.32334687               -0.00792644
               6.87366629                9.89705675               97.15294908                0.99999999               -0.21745877               -0.00001332                0.00269998                0.12149335                0.24756817               -0.02877261
               7.87365853                9.89506359               97.15833150                0.66113939                0.00234843               -0.02333351                0.06981107                0.03329684               -0.06582193               -0.00705856
               8.87371326                9.89184733               97.16379680                0.02010768                0.00486662               -0.03598446                0.05045169                0.02348113               -0.04215006               -0.00643113
               9.87375586                9.88787053               97.16968235                0.16847042                0.00425989                0.00375037               -0.01740027                0.02624293               -0.01490661               -0.01426546
              -0.17194498               -0.07543281               98.07770751                0.67374219               -0.03522260               -0.03555327                0.08885093                0.01574783                0.01498414                0.01135570
               0.82770279               -0.07949058               98.08162322                0.49304157               -0.04825046               -0.04006997                0.11647141                0.00953064                0.02561969                0.01022963
               1.82709001               -0.08359056               98.08588389                0.42385594               -0.02407523               -0.05417223                0.09518072               -0.00603921               -0.07490143                0.00978165
               2.82722129               -0.08843550               98.08796810                0.74705622                0.03541649               -0.03832685                0.02609252               -0.05131190               -0.17396958                0.07238997
               3.82779834               -0.09257153               98.09002116                0.79190151                0.04529883               -0.02312946                0.03229509               -0.04787979               -0.15394308                0.05603148
               4.82812726               -0.09583583               98.09245329                0.41794571                0.02941472               -0.01446991                0.04904036               -0.01901399               -0.14419135                0.00922408
               5.82838663               -0.09856799               98.09458270                0.35149406               -0.02481063               -0.03700999                0.13336347               -0.02975096               -0.13037006               -0.04085518
               6.82763105               -0.10138636               98.09754526                0.52738011               -0.05547888               -0.04355983                0.13682972                0.02879113               -0.15558644               -0.13147200
               7.82727705               -0.10415637               98.09924693                0.68833576               -0.02538210               -0.03734964                0.07649294                0.00613489               -0.12854040                0.02539800
               8.82712341               -0.10696810               98.10127893                0.67203007               -0.01462924               -0.03409727                0.07127001               -0.00010990               -0.07275795               -0.00096464
               9.82698447               -0.10954207               98.10375981                0.74759091               -0.01389387               -0.02809801                0.04900087               -0.01492994               -0.05124550               -0.01924804
              -0.16772973                0.92421165               98.08121605                0.48225534               -0.03932938               -0.05079500                0.11582164                0.00844227                0.01062425                0.01830712
               0.83187697                0.92010872               98.08512241                0.01303011               -0.03840972               -0.03914013                0.16630110               -0.00720723                0.04383299                0.04191693
               1.83150207                0.91586771               98.08963213                0.01000000               -0.03391622               -0.06405215                0.21148140               -0.04416525               -0.00963625                0.07631269
               2.83119865                0.91118123               98.09262975                0.55670902               -0.02411833               -0.02476043                0.14249299               -0.07636973               -0.08888989                0.17126305
               3.83101971                0.90719718               98.09503110                0.99999999               -0.01316460               -0.03331774                0.07479462               -0.04175437               -0.08205149                0.06268427
               4.83093536                0.90401947               98.09754861                0.82984065               -0.00776597               -0.00932108                0.04882820               -0.02319983               -0.08244048                0.02845028
               5.83086439                0.90106191               98.09976471                0.25195127               -0.01111031               -0.02428008                0.08555918               -0.03439443               -0.07747374               -0.00829223
               6.83071315                0.89817804               98.10236816                0.02216601               -0.03675568               -0.04534198                0.19496620                0.00882720                0.00442793               -0.11111924
               7.83012927                0.89547013               98.10612593                0.01000001               -0.04489965               -0.07231390                0.18696619                0.02155528               -0.00831438               -0.12674554
               8.82981516                0.89269093               98.10823859                0.02606989               -0.03600661               -0.10193305                0.14771398                0.04324367               -0.03435439               -0.20429413
               9.82940914                0.89017695               98.11079464                0.45108310               -0.04060168                0.03972737                0.15156250                0.00930084               -0.01370053               -0.18429561
              -0.16357026                1.92355129               98.08500367                0.42237889               -0.05271523               -0.02831922                0.09380405               -0.00527462                0.00932501               -0.09274583
               0.83590259                1.91972661               98.08920183                0.01000000               -0.06477773               -0.03435864                0.21213178               -0.04318944                0.07645930               -0.02106566
               1.83513419                1.91512839               98.09435850                0.01000001               -0.07690802               -0.07314814                0.27345515               -0.04164440                0.13922386                0.13167804
               2.83436443                1.91106929               98.09898919                0.01000001               -0.05045860               -0.03355142                0.19642985               -0.04269777               -0.01900786                0.15078363
               3.83412501                1.90676212               98.10015642                0.01000001               -0.02829439               -0.01814778                0.12779586               -0.03180483               -0.06042516                0.19998473
               4.83379854                1.90397775               98.10322090                0.99999999               -0.02924213                0.01839830                0.10366525                0.01472198                0.02245852                0.16399445
               5.83354017                1.90094641               98.10602799                0.99898826               -0.01995853               -0.00474475                0.06573826               -0.01780287               -0.01680397                0.06643995
               6.83339937                1.89770680               98.10817274                0.68565931               -0.01724486               -0.02889126                0.06353273               -0.03792380               -0.05694456               -0.01157963
               7.83319527                1.89439735               98.11002592                0.02815029               -0.00589534               -0.06751468                0.14554007               -0.03164965               -0.10870793               -0.14200705
               8.83328146                1.89099324               98.11125912                0.01000003               -0.04984158               -0.10163171                0.31695164                0.14910715               -0.01187105               -0.25414187
               9.83219844                1.89125248               98.11485358                0.35606319               -0.10830196               -0.15426128                0.35351979                0.33803475                0.09144940               -0.34680076
              -0.16018588                2.92364527               98.08650081                0.75893373               -0.03780444                0.03208892                0.02648790               -0.04986919                0.07246245               -0.18255702
               0.83943608                2.91942154               98.09162099                0.56244457               -0.02438094               -0.02404970                0.14332748               -0.07478194                0.17221868               -0.09807883
               1.83932650                2.91440475               98.09845355                0.01000003               -0.03625553               -0.04750767                0.19324790               -0.04204840                0.15824188               -0.02925291
               2.83871097                2.91051021               98.10299698                0.01000000               -0.09256747               -0.08636010                0.37634368                0.06495368                0.09087697                0.08196281
               3.83747515                2.90683422               98.10761826                0.01000000               -0.08327287               -0.03144363                0.26766295                0.11226351                0.07816504                0.30341168
               4.83704551                2.90438744               98.11087413                0.01000001               -0.03479397               -0.02093743                0.03857874                0.08348462                0.02582449                0.19207611
               5.83677928                2.90096701               98.11310531                0.84891197               -0.02708911                0.02457371                0.04227081               -0.00228995               -0.00231651                0.16838091
               6.83650373                2.89760022               98.11540962                0.99999999               -0.02847174               -0.00812797                0.07317507               -0.02438845               -0.01114983                0.10584082
               7.83620984                2.89411984               98.11748104                1.00000000               -0.02807786               -0.02915506                0.08150694               -0.02407719               -0.03037220                0.03637675
               8.83594217                2.89065830               98.11922690                0.70278557               -0.02792405               -0.02947557                0.09397981               -0.04280569               -0.03587922                0.00774821
               9.83565136                2.88709173               98.12105711                0.72565994               -0.02908116               -0.21681608                0.11387563               -0.00949158               -0.03878199               -0.08677156
              -0.15612019                3.92419307               98.08818591                0.79195208               -0.02323420                0.04292649                0.03354998               -0.04613655                0.05451624               -0.15104480
               0.84364747                3.91924562               98.09362538                0.99999999               -0.03376274               -0.01335275                0.07549046               -0.04017221                0.06138410               -0.08165557
               1.84320455                3.91417824               98.09917731                0.01000002               -0.02067199               -0.02729841                0.12889903               -0.03110221                0.20322545               -0.06343900
               2.84323403                3.90934209               98.10716680                0.01000001               -0.03557514               -0.07615810                0.26533750                0.11433733                0.31087012                0.07383211
               3.84249305                3.90613325               98.11343899                0.01000003               -0.09492923               -0.09024204                0.42028050                0.24385507                0.18709827                0.18397100
               4.84133544                3.90355900               98.11829733                0.01000003               -0.11057312               -0.10101238                0.33297419                0.25734536                0.04642104                0.22956627
               5.84028159                3.90143788               98.12169616                0.01000000               -0.07883359               -0.03882905                0.14937452                0.14753792               -0.05900522                0.26226601
               6.83975877                3.89754424               98.12339513                0.01000002               -0.03129688               -0.02031674                0.05580623                0.03159824               -0.03689722                0.18000948
               7.83965565                3.89381425               98.12496137                0.01000000               -0.01526562               -0.01905351                0.03262672                0.02549632               -0.03937585                0.12636367
               8.83945346                3.89040373               98.12641640                0.73521984               -0.02569518               -0.01211493                0.08143551                0.00395296               -0.04076681                0.01513196
               9.83914175                3.88691616               98.12824458                1.00000000               -0.03117107               -0.01595781                0.07519258               -0.01026599               -0.02703699                0.01945936
              -0.15121372                4.92450380               98.09026632                0.40362841               -0.01388246                0.02824855                0.04923442               -0.01784046                0.00795074               -0.14000228
               0.84864746                4.91915449               98.09578467                0.82198637               -0.00891488               -0.00872435                0.04846594               -0.02189441                0.02761029               -0.08012689
               1.84860799                4.91385878               98.10188216                0.99999999                0.01976238               -0.02842396                0.10451387                0.01835748                0.16610187                0.02538202
               2.84904271                4.90898704               98.11001531                0.01000001               -0.02363197               -0.03089014                0.03874212                0.08391507                0.19510748                0.02181928
               3.84813535                4.90502938               98.11790201                0.01000004               -0.10774615               -0.10514297                0.33493942                0.25567846                0.22821338                0.04792121
               4.84688778                4.90236719               98.12427381                0.01000001               -0.11952789               -0.11572435                0.34489968                0.33752852                0.11956519                0.12073199
               5.84574479                4.90019043               98.12902527                0.01000005               -0.10642313               -0.13050308                0.31398458                0.30306597                0.01668586                0.22492155
               6.84475932                4.89719388               98.13238634                0.01000000               -0.09422555               -0.07535801                0.24224834                0.18715389               -0.10016942                0.29600118
               7.84386028                4.89373877               98.13427075                0.01000002               -0.09200005               -0.04775677                0.18501638                0.08371244               -0.21784231                0.27317567
               8.84291932                4.89041600               98.13428500                1.00000000               -0.07195476               -0.00115958                0.15370992               -0.00035029               -0.11529591                0.13273827
               9.84242118                4.88677257               98.13638896                1.00000000               -0.04981374               -0.02325525                0.10388823               -0.00259758                0.00350601                0.11487029
              -0.14577838                5.92475804               98.09205007                0.34388429               -0.03670270               -0.02828134                0.14090623               -0.03137894               -0.04278571               -0.11963748
               0.85385460                5.91907113               98.09765691                0.24719432               -0.02412374               -0.01322043                0.08684344               -0.03480233               -0.00811861               -0.07252682
               1.85373915                5.91360976               98.10437178                0.99821474               -0.00564336               -0.01917752                0.06622464               -0.01468711                0.06695992               -0.01281412
               2.85374173                5.90872429               98.11187665                0.82773540                0.02436631               -0.02776158                0.03711669               -0.00149622                0.16579448               -0.00358135
               3.85422647                5.90403039               98.12094080                0.01000001               -0.04083819               -0.07652350                0.15346106                0.15205658                0.26407089               -0.05280468
               4.85292497                5.90124451               98.12865255                0.01000000               -0.13551304               -0.10343433                0.31591670                0.30247014                0.22354866                0.01471638
               5.85151621                5.89882782               98.13552788                0.01000001               -0.14857273               -0.14531409                0.44326490                0.29839880                0.12204736                0.12097459
               6.84995351                5.89603708               98.14030304                0.01000000               -0.17042138               -0.15702087                0.50546195                0.20959005               -0.05684045                0.07296328
               7.84810779                5.89285912               98.14272775                0.01000000               -0.17704300               -0.12897491                0.51019402                0.19943704               -0.19487559                0.00068288
               8.84641265                5.89038054               98.14368876                0.51631098               -0.08655684               -0.08107528                0.19120160                0.16506566               -0.12181659                0.06244719
               9.84637665                5.88645106               98.14546829                1.00000000               -0.00360009               -0.19758028                0.09992264                0.12675740               -0.06287484                0.21037650
              -0.14046749                6.92393817               98.09481477                0.52609968               -0.04328251               -0.05816395                0.14397299                0.02983453               -0.14019456               -0.14697072
               0.85909969                6.91889008               98.09996989                0.03026519               -0.04357131               -0.03840360                0.19952372                0.01098510               -0.11633552                0.01071884
               1.85866109                6.91347523               98.10617753                0.68524081               -0.02537662               -0.01702014                0.06237694               -0.03334657               -0.01145007               -0.05432059
               2.85859216                6.90843181               98.11381254                0.99999999               -0.00024164               -0.03128847                0.07772310               -0.02256475                0.12059737               -0.01198834
               3.85865625                6.90349891               98.12243739                0.01000000               -0.02262000               -0.03121257                0.05625438                0.02994842                0.18161668               -0.04115540
               4.85813976                6.90029850               98.13160283                0.01000001               -0.08680298               -0.09147756                0.24542855                0.18461879                0.28577623               -0.10578161
               5.85692020                6.89728415               98.13990440                0.01000000               -0.16099655               -0.16894035                0.50778022                0.20838184                0.07435796               -0.06265918
               6.85491983                6.89405347               98.14537687                0.01000003               -0.17073162               -0.16939644                0.44400872                0.20746604               -0.12106345               -0.12572774
               7.85350556                6.89115927               98.14829516                0.01000005               -0.11455655               -0.12882477                0.34414393                0.30033802               -0.27080899               -0.17103744
               8.85262869                6.88879449               98.14994340                0.81575714               -0.03451305               -0.13929082                0.15183715                0.20293849               -0.18084269               -0.04636996
               9.85281530                6.88282097               98.15406303                0.99999999                0.01866075               -0.19929567               -0.02587203                0.01673155               -0.04538606                0.22160102
              -0.13508550                7.92359476               98.09614670                0.68295110               -0.03772617               -0.02520538                0.07700036                0.00627139                0.02475489               -0.12531124
               0.86453724                7.91830306               98.10341392                0.01000001               -0.06920078               -0.04515841                0.18982549                0.02364454               -0.12740991               -0.00636816
               1.86353048                7.91326936               98.10768912                0.05321617               -0.06352426               -0.00670289                0.14447598               -0.02963936               -0.14046258               -0.10601668
               2.86326675                7.90809852               98.11553946                0.99999999               -0.02858664               -0.02981581                0.08437856               -0.02644026                0.04137500               -0.03317337
               3.86295875                7.90340614               98.12345186                0.01000000               -0.02173246               -0.01530623                0.03438697                0.01653087                0.12802547               -0.05170530
               4.86283210                7.89941496               98.13308529                0.01000002               -0.05149327               -0.09190462                0.18846919                0.07817226                0.27185183               -0.22691969
               5.86192889                7.89544901               98.14192956                0.01000000               -0.13021976               -0.17654002                0.50969416                0.19592963                0.00242278               -0.20718301
               6.86022771                7.89264916               98.14788269                0.01000005               -0.12776828               -0.11402875                0.34308276                0.29816210               -0.16810904               -0.27779780
               7.85937352                7.89028262               98.15186585                0.49549883               -0.07089922               -0.07114536                0.21068568                0.31561634               -0.24162466               -0.24665027
               8.85880972                7.88759472               98.15465539                1.00000000               -0.03575937               -0.10009293                0.14953113                0.18135806               -0.14933141               -0.08336316
               9.85865833                7.88246514               98.15962672                0.33141229               -0.01513914               -0.01708552                0.02843126                0.03119683               -0.02971859                0.02587110
              -0.12975866                8.92343407               98.09781769                0.67164176               -0.03433568               -0.01527600                0.07233491               -0.00051729               -0.00086890               -0.07089243
               0.86989798                8.91798691               98.10515021                0.01996293               -0.09842475               -0.03606755                0.14839139                0.04440118               -0.20098294               -0.03482356
               1.86827284                8.91334117               98.10860188                0.01000000               -0.09857030               -0.04831513                0.31331871                0.14481979               -0.25175401               -0.01470731
               2.86792657                8.90783550               98.11689582                0.71476009               -0.03012057               -0.02646862                0.09220849               -0.04454412                0.00476078               -0.03822952
               3.86767043                8.90319279               98.12444379                0.76533484               -0.01331234               -0.02631988                0.08277459                0.00151401                0.01321399               -0.04495298
               4.86766033                8.89846041               98.13266219                0.99999999               -0.00329172               -0.07182385                0.15444223               -0.00244614                0.12856342               -0.12112859
               5.86760459                8.89375335               98.14238560                0.51145723               -0.08054339               -0.08775213                0.18799250                0.16438059                0.06395431               -0.12731282
               6.86604946                8.89177289               98.14910273                0.82067766               -0.13661372               -0.03504232                0.15061290                0.20137107               -0.04075016               -0.18378897
               7.86487232                8.88973636               98.15422578                0.99999999               -0.09880623               -0.03488126                0.14913068                0.17943424               -0.08071466               -0.15134661
               8.86407333                8.88679263               98.15933418                0.15373384               -0.05869589               -0.05863144                0.10467242                0.09466708               -0.04186816               -0.04341097
               9.86369840                8.88247926               98.16462529                0.01000001               -0.03749308                0.00600151                0.04214605                0.03928473               -0.02286263               -0.01859028
              -0.12420154                9.92328924               98.09993920                0.75055458               -0.02803093               -0.01448283                0.04930256               -0.01504012               -0.01828697               -0.04975478
               0.87551815                9.91758171               98.10734605                0.44278371                0.03899167               -0.04052023                0.15086158                0.01270833               -0.18353522               -0.01321261
               1.87657830                9.91230306               98.11176228                0.33218613               -0.14969480               -0.10381193                0.34983531                0.32991742               -0.33760197                0.08436481
               2.87252426                9.90756915               98.11835860                0.70598602               -0.21070894               -0.02663488                0.10729794               -0.01139742               -0.08495195               -0.04042442
               3.87236412                9.90287974               98.12593594                0.99999999               -0.01508182               -0.03130502                0.07057872               -0.01016431                0.01865594               -0.02499721
               4.87222262                9.89797849               98.13441160                1.00000000               -0.02300503               -0.04819257                0.09992168               -0.00305902                0.11092211                0.00310336
               5.87190402                9.89369397               98.14379334                1.00000000               -0.19752527               -0.00593807                0.09515031                0.12843334                0.20254592               -0.05998076
               6.86827212                9.89194831               98.15285924                0.99999999               -0.19807766                0.01754162               -0.02900831                0.01681703                0.22456117               -0.04505837
               7.86794246                9.88958499               98.15881374                0.33143246               -0.01559706               -0.01513696                0.02670376                0.03070360                0.02520710               -0.02943223
               8.86796017                9.88642210               98.16422039                0.01000522                0.00641605               -0.03705396                0.04088385                0.03869291               -0.01869023               -0.02345426
               9.86807078                9.88258517               98.16946017                0.20525692                0.01106102                0.01059153                0.22349969                0.05354582                0.01559446                0.01515378
              -0.17585918               -0.07896365               99.07863619                0.60185874               -0.04361372               -0.04430897                0.09115281                0.00373994                0.00370704                0.00205580
               0.82370468               -0.08306794               99.08275231                0.46613433               -0.05186954               -0.03427414                0.12090497               -0.01507330               -0.01134061                0.04039556
               1.82310343               -0.08776035               99.08649656                0.59651814               -0.00314030               -0.02091954                0.06915416               -0.06879776               -0.07570024                0.07662840
               2.82364188               -0.09306378               99.08817519                0.67137363                0.04684734               -0.01925735                0.04173429               -0.09631011               -0.14033615                0.05852061
               3.82404037               -0.09737194               99.09035260                0.51145814                0.03104490               -0.02589959                0.06453743               -0.03719462               -0.10604991                0.02459057
               4.82426277               -0.10104192               99.09313199                0.45212359                0.00824112               -0.03798984                0.11860553               -0.01976119               -0.04344667               -0.03507138
               5.82420520               -0.10458652               99.09666079                0.52693466               -0.00083464               -0.05431880                0.15214396                0.00075226               -0.08364632               -0.13238827
               6.82424608               -0.10785434               99.09846226                0.55126842                0.00473946               -0.08771260                0.11012863                0.00713265               -0.13155596                0.02086667
               7.82429999               -0.11115688               99.10005168                0.58917228               -0.00398105               -0.04707214                0.08782777                0.00253211               -0.11414914                0.00979197
               8.82416646               -0.11430522               99.10196295                0.60830593               -0.01642046               -0.04337616                0.06962880                0.00294919               -0.07361194                0.00132818
               9.82397158               -0.11728944               99.10437670                0.77850922               -0.01948826               -0.05268404                0.06942606               -0.00942136               -0.04704768               -0.00042044
              -0.17171749                0.92059326               99.08234462                0.46140796               -0.03302072               -0.05443470                0.12104682               -0.01731115                0.04013935               -0.01745140
               0.82795230                0.91658932               99.08688035                0.50094690               -0.04345690               -0.04533008                0.16569854               -0.03258724                0.06606315                0.06444547
               1.82741337                0.91203045               99.09183406                0.66813805               -0.02338671               -0.00498259                0.13449218               -0.06020174               -0.00861375                0.11330809
               2.82748457                0.90674365               99.09364503                0.96674276                0.01220620               -0.00941951                0.06910585               -0.09186928               -0.13315684                0.08690689
               3.82765750                0.90236906               99.09564189                0.85797555                0.00939418               -0.01162139                0.05493969               -0.05026180               -0.09079792                0.02802444
               4.82767245                0.89857819               99.09799192                0.44620530               -0.00192815               -0.02758917                0.07534423               -0.04069584               -0.04017741               -0.01984584
               5.82761893                0.89487029               99.10103155                0.54755662               -0.00349336               -0.04763026                0.15966890               -0.03233031                0.04798760               -0.10009129
               6.82760258                0.89126853               99.10510310                0.45151793               -0.00340932               -0.06927170                0.16336945                0.00269572                0.02056395               -0.11053941
               7.82755075                0.88837240               99.10729982                0.16515894               -0.01701744               -0.08900325                0.13921391                0.01047726               -0.01712689               -0.09994056
               8.82726224                0.88526102               99.10980109                0.35980855               -0.03445785               -0.17113634                0.17883134                0.00878503                0.01464054               -0.01583247
               9.82686159                0.88218372               99.11261297                0.80066643               -0.04006464               -0.19573023                0.17836655                0.00722974                0.01649550               -0.01864355
              -0.16819752                1.91994766               99.08558519                0.59971955               -0.01867316               -0.00597196                0.06645630               -0.07030092                0.07542865               -0.08495249
               0.83161575                1.91602546               99.09137150                0.66774576               -0.00287070               -0.02401513                0.13190584               -0.06128401                0.11283229               -0.01444990
               1.83174507                1.91213999               99.09740610                0.01000000               -0.00749362               -0.00747201                0.13409199               -0.10762207                0.03435795                0.02824937
               2.83146588                1.90674783               99.09983843                0.52887014               -0.02722349                0.00052034                0.05922923               -0.13362672               -0.04703700                0.18143651
               3.83120060                1.90239563               99.10153829                0.99999999               -0.02591245                0.04053894                0.09928904               -0.07177603               -0.05637430                0.17962625
               4.83094763                1.89840630               99.10404566                0.95765523               -0.01661770               -0.01397517                0.06900085               -0.05112193               -0.02836429                0.05626334
               5.83086824                1.89446087               99.10650906                0.47944050               -0.00748730               -0.02083493                0.06557948               -0.04297591               -0.02681571               -0.03439344
               6.83079788                1.89076023               99.10890227                0.62105553               -0.01755997               -0.02454685                0.13428396               -0.04439729                0.01581422               -0.10869738
               7.83051704                1.88706306               99.11232459                0.60545431               -0.01335178               -0.07234069                0.18991573               -0.10398266                0.14004356               -0.13069960
               8.83053085                1.88227205               99.11743796                0.52599607               -0.01231319               -0.11034949                0.34466362               -0.08955781                0.10132631               -0.12202440
               9.83027078                1.87879595               99.12049675                0.78204721               -0.02600664               -0.15129160                0.35296050               -0.02483594                0.05177699               -0.32764821
              -0.16527911                2.92047382               99.08671534                0.68054594               -0.01866014                0.04448290                0.04243773               -0.09492804                0.05776158               -0.14388089
               0.83453429                2.91610902               99.09264470                0.98150383               -0.00911638                0.01206820                0.06996122               -0.09125325                0.08645767               -0.13762859
               1.83453856                2.91188101               99.09929486                0.52984839                0.00110548               -0.02532115                0.05847278               -0.13463496                0.18588361               -0.05432114
               2.83455640                2.90675405               99.10753882                0.66411433                0.00124706                0.00264040                0.22989386               -0.04856159                0.10796547                0.10110919
               3.83456350                2.90317984               99.10979826                0.01000003                0.00141866                0.01493235                0.08856974               -0.04930772               -0.10774395                0.29498476
               4.83458477                2.89829868               99.11115209                0.63546639               -0.00790059                0.02329204                0.03485247               -0.10668410               -0.04962563                0.24297518
               5.83440549                2.89445359               99.11349737                0.99999999               -0.02361588                0.02531279                0.05069272               -0.04020388               -0.00426028                0.10480637
               6.83411245                2.89077760               99.11593572                0.98195036               -0.02231137                0.01039486                0.04631077               -0.03657173               -0.01058664                0.03174797
               7.83395926                2.88692559               99.11806571                0.55124945               -0.01871328               -0.00066355                0.06759402               -0.03843739               -0.01157716               -0.04825997
               8.83373819                2.88305403               99.12023548                0.87293816               -0.03210930                0.03530339                0.10866398               -0.04771897                0.00577716               -0.20069874
               9.83331708                2.87915788               99.12272220                0.99124031               -0.04211099                0.01820046                0.11185147               -0.04766261                0.03890806               -0.27893532
              -0.16136647                3.92083732               99.08852122                0.50537374               -0.02500343                0.02856971                0.06415542               -0.03577938                0.02284485               -0.10145697
               0.83838350                3.91626682               99.09425132                0.86150977               -0.01130999                0.00815637                0.05548651               -0.04830290                0.02747899               -0.08925270
               1.83840733                3.91163357               99.10059261                0.99999999                0.04061578               -0.02507651                0.10106265               -0.07020071                0.18145555               -0.05638659
               2.83919581                3.90680064               99.10932398                0.01000000                0.01312397                0.00512822                0.08738497               -0.05078905                0.29979783               -0.11242384
               3.83866981                3.90269428               99.11829610                0.68410510               -0.08278093               -0.07852370                0.26180139                0.02548451                0.15881943                0.15730101
               4.83754020                3.89887214               99.12175315                0.77105942               -0.05422799                0.00113395                0.17096749                0.00651254               -0.11076475                0.27496940
               5.83758525                3.89496713               99.12249976                0.99999999                0.00271275                0.04296199                0.04787198               -0.01923634               -0.12106573                0.19206776
               6.83759445                3.89096812               99.12412835                0.99999998               -0.00566953                0.04602394                0.05374524               -0.03917386               -0.05611023                0.17486387
               7.83747186                3.88704979               99.12564405                0.65769467               -0.01251391                0.03297260                0.06871648               -0.05676353               -0.04845567                0.12704275
               8.83734417                3.88297812               99.12725634                0.70983103               -0.01810205               -0.01675959                0.08476294               -0.03757762               -0.01990027                0.02822883
               9.83710982                3.87915996               99.12922461                0.89603045               -0.02343512               -0.01583835                0.07365077               -0.01467274                0.01427663               -0.02019953
              -0.15685371                4.92104522               99.09094288                0.44976129               -0.03743110                0.00580736                0.12262787               -0.02233115               -0.03577991               -0.03364959
               0.84277198                4.91627214               99.09622619                0.44560407               -0.02727763               -0.00305237                0.07545550               -0.04191182               -0.02070518               -0.03593526
               1.84260073                4.91137948               99.10272687                0.96264684               -0.01460334               -0.01646805                0.07020298               -0.05022275                0.05645793               -0.02656078
               2.84247991                4.90685662               99.11027675                0.62502961                0.02004764               -0.00576752                0.03402699               -0.10730543                0.24580300               -0.05230022
               3.84300169                4.90160937               99.12139091                0.77771001               -0.00188699               -0.05193562                0.17335468                0.00662611                0.27913492               -0.10954652
               4.84244217                4.89832136               99.12791286                0.91276331               -0.05384517               -0.05225965                0.17802757                0.18971815                0.05451542                0.05864776
               5.84192478                4.89531283               99.13222282                0.54444329               -0.05979265               -0.01600409                0.14808220                0.13655691               -0.05540924                0.23857172
               6.84124632                4.89169807               99.13445868                0.01000000               -0.05553959               -0.07084666                0.10076290                0.03376068               -0.10389726                0.33070689
               7.84081399                4.88758504               99.13572114                0.01000001               -0.01849272               -0.11456703                0.07912302               -0.07394983               -0.15588469                0.39830041
               8.84087646                4.88271884               99.13552136                0.83370755               -0.00770228               -0.02559179                0.10844429               -0.07881744               -0.10081242                0.08611458
               9.84065995                4.87884112               99.13714962                0.99999999               -0.02165154               -0.03192842                0.06835200               -0.01627909                0.00332482                0.04523816
              -0.15226694                5.92095346               99.09426610                0.52885698               -0.05220552               -0.00370077                0.15773742                0.00058684               -0.14185636               -0.07484237
               0.84721100                5.91620578               99.09895590                0.55268412               -0.04573250               -0.00476148                0.16177639               -0.03226143               -0.10498744                0.05403285
               1.84681841                5.91130421               99.10484627                0.48123414               -0.01955914               -0.00689313                0.06454596               -0.04091284               -0.03486218               -0.02488217
               2.84681982                5.90668529               99.11227817                0.99999998                0.02595918               -0.02339205                0.05141573               -0.04068162                0.10976526               -0.00404705
               3.84733759                5.90165556               99.12179522                0.99999998                0.04056379                0.00410533                0.04920804               -0.01831641                0.19225245               -0.12228305
               4.84763109                5.89782695               99.13187082                0.53630660               -0.01989560               -0.05876008                0.14928681                0.13793425                0.23466102               -0.05328465
               5.84693968                5.89464705               99.14039459                0.99999999               -0.08168197               -0.08172366                0.24086746               -0.00847592                0.16449175                0.16464454
               6.84599746                5.88955119               99.14613848                0.95979529               -0.09837880               -0.11755772                0.29653160               -0.06471158                0.03902571                0.25126104
               7.84497210                5.88475845               99.14939340                0.57846204               -0.07428536               -0.12490409                0.35376181                0.04747169               -0.35313842                0.28935286
               8.84451175                5.88246629               99.14439541                0.99999997               -0.02162097               -0.01986762                0.06555199                0.08912071               -0.32858104                0.05208194
               9.84453968                5.87852139               99.14567647                0.99999999                0.00279352               -0.03864668                0.02044610                0.02878606               -0.03676624                0.06021936
              -0.14734660                6.92097120               99.09572630                0.54713334               -0.08773966                0.00263430                0.11115999                0.01017824                0.01970513               -0.12756583
               0.85177600                6.91617692               99.10273840                0.45387166               -0.06752154               -0.00527808                0.16372880                0.00551558               -0.11243152                0.02548481
               1.85130297                6.91124162               99.10689685                0.61919209               -0.02305404               -0.01696815                0.13382418               -0.04154100               -0.10967224                0.01755825
               2.85131492                6.90638878               99.11436885                0.97971870                0.00953642               -0.02210383                0.04848499               -0.03649079                0.03285393               -0.01013455
               3.85149370                6.90169147               99.12302881                0.99999999                0.04472253               -0.00322046                0.04540404               -0.04103306                0.16678113               -0.05937281
               4.85220937                6.89714616               99.13372727                0.01165947               -0.07313355               -0.05607367                0.10378087                0.03193430                0.32626316               -0.10521287
               5.85003103                6.89367836               99.14577500                0.95274759               -0.11843438               -0.10157180                0.29850676               -0.06496743                0.25030420                0.03445139
               6.84984068                6.88934692               99.14976430                0.22084326               -0.05913487               -0.06086990                0.22291639               -0.04090289               -0.15532338               -0.15697902
               7.84884833                6.88508696               99.15159736                0.80070450               -0.04723766                0.02066531                0.16917862                0.09298359               -0.23065613               -0.24681338
               8.84889593                6.88232149               99.15143273                1.00000000                0.01385647               -0.02312893                0.08088633                0.12368684               -0.16839786               -0.04231575
               9.84912546                6.87806818               99.15360280                0.67909996                0.02295260               -0.03922189               -0.03087096                0.04665649               -0.08246020                0.15062387
              -0.14247480                7.92100615               99.09696702                0.58693568               -0.04742971               -0.00561506                0.08979835                0.00354823                0.00985617               -0.11157204
               0.85705090                7.91610022               99.10459034                0.16981712               -0.08747350               -0.01849288                0.13973120                0.01426803               -0.10068021               -0.01586179
               1.85577573                7.91096485               99.10997333                0.61065907               -0.07053764               -0.01303445                0.18833059               -0.09998494               -0.13339773                0.13993597
               2.85564015                7.90624321               99.11613169                0.56230935               -0.00080905               -0.01792809                0.06767030               -0.03735868               -0.04849604               -0.01174557
               3.85575955                7.90159116               99.12413551                0.66554737                0.03213749               -0.01168504                0.06794805               -0.05833468                0.12476688               -0.05483234
               4.85628290                7.89670548               99.13458063                0.01000002               -0.11599877               -0.01764186                0.08099363               -0.07958732                0.39304928               -0.16291256
               5.85343957                7.89261561               99.14855608                0.58451794               -0.12560498               -0.07294590                0.35170888                0.04708167                0.28548020               -0.35794026
               6.85377080                7.88833379               99.15116581                0.80189406                0.02088196               -0.04711791                0.16811170                0.09557612               -0.24477490               -0.23274359
               7.85385721                7.88517175               99.15335303                0.98563430                0.01167321                0.01175759                0.07598931                0.18483462               -0.18403267               -0.18559627
               8.85400426                7.88200371               99.15595200                0.72870450                0.00611050               -0.02737659                0.08724107                0.11571568               -0.09283602               -0.08018218
               9.85397942                7.87773695               99.15968803                0.57269310               -0.00248420               -0.02202043                0.00960216                0.04090888               -0.04132153                0.06627290
              -0.13746377                8.92085890               99.09851494                0.60968310               -0.04335670               -0.01732021                0.07051780                0.00328550                0.00181734               -0.07199485
               0.86210267                8.91580706               99.10672099                0.35776794               -0.16879794               -0.03471170                0.17899525                0.01224746               -0.01731670                0.01447101
               1.85916027                8.91098093               99.11467908                0.52733925               -0.10806140               -0.01258234                0.33840311               -0.08708521               -0.12453226                0.10130987
               2.85994144                8.90603021               99.11789051                0.86696437                0.03522310               -0.03175006                0.10745215               -0.04710607               -0.19947273                0.00397096
               3.85986474                8.90145777               99.12528578                0.70834113               -0.01741341               -0.01821128                0.08468080               -0.03846148                0.02527088               -0.02496839
               4.85959317                8.89679332               99.13388037                0.83950141               -0.02601967               -0.00592674                0.10811807               -0.07952715                0.08474230               -0.10566339
               5.85934434                8.89221944               99.14314635                0.99999997               -0.01985530               -0.01834423                0.06824653                0.08913270                0.05449534               -0.33077148
               6.85919606                8.88840456               99.15059535                0.99999999               -0.02346201                0.01543870                0.08125065                0.12344944               -0.04063829               -0.16967658
               7.85887510                8.88532211               99.15552878                0.73774038               -0.02755101                0.00636453                0.08766855                0.11568469               -0.07924509               -0.09402251
               8.85864504                8.88177395               99.16023612                0.35550998               -0.01989800               -0.01989459                0.07058788                0.04972123               -0.03225291               -0.03233755
               9.85847714                8.87762777               99.16502497                0.95740507               -0.01679013                0.03834549                0.06600494                0.06582091               -0.01677037                0.21793751
              -0.13230541                9.92065975               99.10055739                0.77965706               -0.05207720               -0.01991555                0.06908404               -0.00954044               -0.00048539               -0.04563011
               0.86717382                9.91540598               99.10914594                0.79476331               -0.19418642               -0.04010764                0.17670701                0.00978820               -0.01961846                0.01594031
               1.86381087                9.91071320               99.11736176                0.76671475               -0.14763210               -0.02677283                0.35009298               -0.02482959               -0.32575636                0.05071602
               2.86422118                9.90560821               99.11994723                0.97360729                0.02081706               -0.04220058                0.10888264               -0.04633933               -0.27911589                0.03512391
               3.86422721                9.90122693               99.12682465                0.87317758               -0.01452470               -0.02308426                0.06948955               -0.01481639               -0.02074417                0.01076462
               4.86393069                9.89658694               99.13512444                0.99975933               -0.03081111               -0.02063820                0.06534473               -0.01515864                0.04409303                0.00325797
               5.86361098                9.89224873               99.14401885                0.99999999               -0.03967856                0.00292864                0.02144167                0.02944531                0.06054401               -0.03726078
               6.86313711                9.88864257               99.15236891                0.68143941               -0.04047369                0.02380030               -0.03246342                0.04662091                0.15295220               -0.08288259
               7.86280151                9.88529904               99.15886558                0.56502316               -0.02220465               -0.00230664                0.00888497                0.04080332                0.06671813               -0.04145370
               8.86269302                9.88160582               99.16461447                0.94744336                0.03933429               -0.01681377                0.06370087                0.06503872                0.21824142               -0.01603349
               9.86358820                9.87850386               99.17415235                0.99999997                0.08951749                0.08760896                0.39622843                0.20091010                0.32175185                0.32213321
              -0.18010308               -0.08280858              100.07953056                1.00000000               -0.02813113               -0.02778027                0.08943793               -0.00254967                0.02668551                0.02614901
               0.81961561               -0.08693876              100.08404132                1.00000000                0.01281015               -0.02828120                0.12890152               -0.08690171               -0.02208706                0.05242391
               1.82015312               -0.09273300              100.08726697                1.00000000                0.04714594               -0.00426642                0.07704155               -0.12210100               -0.05695758                0.00823527
               2.82055853               -0.09820477              100.08880278                1.00000000                0.02837100               -0.05390975                0.06275952               -0.07934926               -0.10608805                0.00680990
               3.82072054               -0.10265830              100.09131191                1.00000000                0.01958040               -0.07697319                0.09593164                0.01101338               -0.03085266               -0.04683793
               4.82095013               -0.10625713              100.09482540                1.00000000                0.03314442               -0.10339860                0.16934106                0.01425323               -0.01558091               -0.09851121
               5.82138343               -0.10995727              100.09762557                1.00000000                0.03294573               -0.08309203                0.09647821               -0.06672599               -0.03605511               -0.00382330
               6.82160905               -0.11425070              100.09974783                1.00000000                0.00549801               -0.02220483                0.12855673               -0.10026713               -0.09480760               -0.05086457
               7.82149339               -0.11845682              100.10100349                1.00000000               -0.01414533               -0.03447651                0.09518121               -0.05882083               -0.13447592                0.06067701
               8.82132614               -0.12261783              100.10267151                1.00000000               -0.01386953               -0.04828985                0.07085602               -0.03144095               -0.07678945                0.08310997
               9.82121600               -0.12602300              100.10514833                1.00000000               -0.01101426               -0.02929637                0.07716312               -0.05058657               -0.02787485                0.04800748
              -0.17599839                0.91691362              100.08363698                1.00000000               -0.02928044                0.01450472                0.12923583               -0.09008092                0.05184943               -0.02785227
               0.82370880                0.91277843              100.08843638                1.00000000                0.02817552                0.03060128                0.15560322               -0.14832828                0.00989926                0.00884221
               1.82456512                0.90722434              100.09232197                1.00000000                0.05094408                0.04827888                0.04879107               -0.21604987               -0.00605105                0.00805721
               2.82472768                0.90125613              100.09401187                1.00000000                0.01458693               -0.04955002                0.03668406               -0.09597025               -0.08529252                0.01979824
               3.82485685                0.89657197              100.09612989                1.00000000                0.00072335               -0.05717159                0.04880017               -0.02387461               -0.02788266               -0.03819508
               4.82474215                0.89270888              100.09905550                1.00000000               -0.00719487               -0.09000091                0.10635764               -0.00249019                0.04837969               -0.09815412
               5.82471296                0.88921181              100.10295809                1.00000000                0.00570023               -0.11250122                0.19265401               -0.02089137                0.03840497               -0.08014760
               6.82485615                0.88552725              100.10563555                1.00000000                0.01878934               -0.05245274                0.05324451               -0.08611601                0.02296288               -0.01859896
               7.82508874                0.88119841              100.10891020                1.00000000               -0.00306663               -0.02628555                0.16103826               -0.13304524                0.06278323               -0.07636173
               8.82479482                0.87689927              100.11181522                1.00000000               -0.04867198                0.03680997                0.20141229               -0.08523500                0.02584682               -0.06213059
               9.82411530                0.87368403              100.11436197                1.00000000               -0.06795173                0.03066457                0.17490003               -0.02650415               -0.01995342               -0.01174545
              -0.17363431                1.91748152              100.08633280                1.00000000               -0.00273611                0.04589980                0.07476116               -0.12537341                0.00703522               -0.06098470
               0.82633833                1.91367327              100.09183995                1.00000000                0.04943661                0.05053627                0.04684457               -0.21860143                0.00763468               -0.00602760
               1.82735442                1.90823258              100.09704034                1.00000000                0.14765811                0.14537388               -0.03657535               -0.46420515               -0.02237359               -0.02568948
               2.82929149                1.90080423              100.10017377                1.00000000                0.07179389                0.08953533                0.03353463               -0.31975586                0.03765373                0.08478948
               3.82879030                1.89619827              100.10214220                1.00000000               -0.05155009               -0.02979270                0.06039015               -0.10056096               -0.01967284                0.04325196
               4.82826049                1.89194285              100.10460092                1.00000000               -0.03215286               -0.05847166                0.05552614               -0.03969131               -0.00884516               -0.02056112
               5.82814724                1.88779271              100.10733958                1.00000000               -0.01801792               -0.10696880                0.08305165               -0.00225670                0.04077487               -0.10876239
               6.82790013                1.88470024              100.11085842                1.00000000               -0.03433896               -0.12590726                0.19561508                0.00461294                0.03445732               -0.07098441
               7.82746046                1.88101747              100.11382423                1.00000000               -0.03821541               -0.06816200                0.14996476                0.00039597                0.05904002               -0.10842327
               8.82713582                1.87811837              100.11815239                1.00000000               -0.01720358               -0.00366656                0.07144353                0.00896167                0.06492508                0.06387928
               9.82711639                1.87459029              100.12191279                1.00000000               -0.00194308               -0.04494332                0.14160360                0.01423140                0.06060052                0.02604259
              -0.17088936                2.91783162              100.08734957                1.00000000               -0.05249309                0.02274355                0.06342253               -0.07870514                0.00604038               -0.10740990
               0.82858571                2.91378915              100.09302022                1.00000000               -0.04802974                0.01029049                0.03755189               -0.09562344                0.01881463               -0.08722800
               1.82815005                2.91013181              100.09962301                1.00000000                0.08905810                0.06929607                0.03281483               -0.31678626                0.08988087                0.03299129
               2.83036688                2.90304684              100.10759486                1.00000000                0.17784819                0.17757290                0.00560338               -0.59603461                0.06937986                0.06631522
               3.83170701                2.89597612              100.10938965                1.00000000                0.09935050                0.07441766               -0.04086124               -0.35287074               -0.08683309                0.10626844
               4.83235389                2.89153945              100.11157117                1.00000000                0.01017113                0.01773834                0.04190886               -0.11238415                0.01338738                0.17986495
               5.83191044                2.88707244              100.11411917                1.00000000               -0.03151150               -0.06194591                0.06217934               -0.05962597               -0.01127271                0.02758560
               6.83172366                2.88300910              100.11633583                1.00000000               -0.01159503               -0.10908382                0.04001109                0.01774420               -0.00319199               -0.09626901
               7.83167854                2.87983517              100.11883292                1.00000000               -0.01612112               -0.11588908                0.07672087                0.09574630                0.02514442               -0.08346829
               8.83140123                2.87682594              100.12140018                1.00000000               -0.01112218               -0.12179703                0.11646942                0.06445376               -0.01063441               -0.12484569
               9.83145609                2.87278517              100.12329414                1.00000000                0.00548585               -0.12527715                0.05719480                0.01464068                0.00329823               -0.24703133
              -0.16712349                3.91793639              100.08946901                1.00000000               -0.07508525                0.01271586                0.09477907                0.01393978               -0.04909189               -0.02162720
               0.83212566                3.91387908              100.09473511                1.00000000               -0.05577525               -0.00289770                0.04837955               -0.02271188               -0.03930663               -0.02509651
               1.83176101                3.90961850              100.10119856                1.00000000               -0.02995826               -0.05289550                0.06059487               -0.09934284                0.04433685               -0.01834633
               2.83152650                3.90435569              100.10891450                1.00000000                0.07396310                0.09700011               -0.04094739               -0.35020119                0.10689095               -0.08944534
               3.83324027                3.89768662              100.11867502                1.00000000                0.16949934                0.16816079                0.03789176               -0.38415704                0.09715459                0.09820750
               4.83491648                3.89229762              100.12171668                1.00000000                0.11223999                0.09415095               -0.00364665               -0.31702691               -0.06344221                0.15570720
               5.83548507                3.88655379              100.12265360                1.00000000                0.02878971               -0.00026976                0.01538354               -0.17993543               -0.07235066                0.05205346
               6.83549228                3.88251856              100.12447003                1.00000000                0.00367392               -0.06056036                0.03416822               -0.01973501               -0.02611243                0.05833252
               7.83555855                3.87869969              100.12633570                1.00000000               -0.00086884               -0.09398725                0.06916460                0.05826149               -0.00925007                0.01600419
               8.83547490                3.87568243              100.12811166                1.00000000               -0.00339012               -0.09133613                0.08553197                0.07292086               -0.01783259                0.02311630
               9.83549075                3.87208475              100.12971759                1.00000000                0.00158465               -0.07798462                0.04929868                0.02898556               -0.00131411                0.01557136
              -0.16249593                4.91808594              100.09271888                1.00000000               -0.10547030                0.02706861                0.17759986                0.02094480               -0.10673125               -0.00913787
               0.83644937                4.91373120              100.09729378                1.00000000               -0.09087441               -0.01197529                0.10675957                0.00184896               -0.10389375                0.05377176
               1.83568658                4.90907390              100.10328622                1.00000000               -0.05773183               -0.03381830                0.05593541               -0.03928666               -0.02131209               -0.00735061
               2.83529473                4.90498684              100.11069585                1.00000000                0.01976803                0.00977826                0.04190971               -0.11364913                0.18562629                0.01254576
               3.83608194                4.89933933              100.12136911                1.00000000                0.09257253                0.11300976               -0.00217977               -0.31628826                0.16495121               -0.06450643
               4.83714618                4.89342247              100.12783436                1.00000000                0.10044206                0.10333934               -0.00784908               -0.40849774                0.00129132                0.00619119
               5.83809078                4.88706704              100.13198691                1.00000000                0.10184403                0.10073712               -0.02359048               -0.32856277               -0.05503847                0.06000254
               6.83918306                4.88179789              100.13440160                1.00000000                0.07945589                0.16190599               -0.00570796               -0.14343412               -0.01301069                0.09816372
               7.83967990                4.87795543              100.13585321                1.00000000                0.01457642                0.20351296                0.01320775                0.02154285               -0.01079455                0.21040278
               8.83947459                4.87499922              100.13645389                1.00000000               -0.02243672               -0.00858065                0.09325289                0.06765572               -0.04504800                0.07244466
               9.83923117                4.87122548              100.13775600                1.00000000               -0.02434228               -0.04412439                0.06063806                0.00204941               -0.01266722                0.04641681
              -0.15799512                5.91847776              100.09520482                1.00000000               -0.08302102                0.02999992                0.09387258               -0.06390200               -0.00405565               -0.03161542
               0.84117467                5.91363957              100.10089244                1.00000000               -0.11426239                0.00170694                0.19365376               -0.01522412               -0.08073939                0.04091355
               1.83971963                5.90894213              100.10566269                1.00000000               -0.10932921               -0.01872848                0.08164231                0.00311521               -0.10925096                0.04218223
               2.83898809                5.90455125              100.11290497                1.00000000               -0.06203783               -0.03056169                0.06267937               -0.05863871                0.02993995               -0.00908371
               3.83847888                5.89994682              100.12192496                1.00000000                0.00153653                0.03159180                0.01297388               -0.18176676                0.05079454               -0.07205656
               4.83901882                5.89436441              100.13163829                1.00000000                0.10297572                0.10309850               -0.02325347               -0.33028134                0.05978582               -0.05405026
               5.84053839                5.88856853              100.14034523                1.00000000                0.13581954                0.13723226               -0.00493581               -0.04046276                0.08964033                0.08652953
               6.84173521                5.88575668              100.14623367                1.00000000                0.11248461                0.20443319                0.00951893                0.05046704                0.04666290                0.39222937
               7.84278808                5.88276994              100.14980298                1.00000000                0.09113789                0.21539760                0.04095777               -0.13508777               -0.28009556                0.59242581
               8.84355797                5.87551082              100.14499980                1.00000000                0.01455670                0.06961849                0.06043823               -0.18934882               -0.29166664                0.05981477
               9.84307922                5.87120226              100.14587721                1.00000000               -0.04787489                0.02982021                0.02007453               -0.05111671               -0.05830494                0.05256718
              -0.15409759                6.91868593              100.09703797                1.00000000               -0.02219021                0.00484579                0.13116668               -0.09905465               -0.05444900               -0.09163462
               0.84568051                6.91376534              100.10324447                1.00000000               -0.05326059                0.01818333                0.05060607               -0.08219757               -0.01874679                0.02464756
               1.84483720                6.90869934              100.10885402                1.00000000               -0.12816202               -0.03281459                0.19571659                0.01059094               -0.06968791                0.03542375
               2.84311727                6.90437561              100.11478224                1.00000000               -0.11018743               -0.01046537                0.04133942                0.02092015               -0.09519232               -0.00192188
               3.84263345                6.89997117              100.12334547                1.00000000               -0.05992164                0.00528526                0.03166564               -0.01824472                0.05878594               -0.02773724
               4.84191884                6.89548444              100.13367845                1.00000000                0.16278984                0.08196019               -0.00488245               -0.14528886                0.09739978               -0.01282806
               5.84588925                6.88981169              100.14587453                1.00000000                0.20360755                0.11751605                0.00995386                0.04585181                0.39366004                0.04425823
               6.84599099                6.88588656              100.14983520                1.00000000                0.06673815                0.07032730                0.00708980                0.06258730               -0.09475946               -0.09547331
               7.84722401                6.88226338              100.15167874                1.00000000                0.06321543               -0.00653352                0.00813717               -0.06881921               -0.07613484               -0.10322516
               8.84725530                6.87639159              100.15156113                1.00000000               -0.01990342                0.08384335                0.01284039               -0.16907327               -0.07571960               -0.02296919
               9.84682594                6.87182188              100.15344561                1.00000000               -0.04293533                0.05830885               -0.01571924               -0.09293910               -0.04150326                0.07244705
              -0.15013502                7.91857468              100.09794267                1.00000000               -0.03476607               -0.01410682                0.09756479               -0.05898580                0.06056617               -0.13364327
               0.84951732                7.91400324              100.10620854                1.00000000               -0.02718981               -0.00223030                0.16182044               -0.12909228               -0.07770472                0.06458442
               1.84932118                7.90828584              100.11145573                1.00000000               -0.06913302               -0.03601964                0.14823989                0.00570935               -0.11123824                0.05789597
               2.84813466                7.90434195              100.11689287                1.00000000               -0.11580165               -0.01381155                0.07611788                0.09899165               -0.08279418                0.02300492
               3.84700515                7.90005252              100.12481083                1.00000000               -0.09310687                0.00165577                0.06753173                0.06070973                0.01517540               -0.01426668
               4.84627252                7.89600361              100.13470516                1.00000000                0.20240798                0.01594471                0.01245378                0.02210483                0.20660799               -0.01288129
               5.85105331                7.89091885              100.14896374                1.00000000                0.21313703                0.09317288                0.04076590               -0.13750552                0.58836208               -0.27587577
               6.85053526                7.88716323              100.15124493                1.00000000               -0.00733196                0.06448493                0.00791188               -0.07081569               -0.10245853               -0.07242906
               7.85090667                7.88263927              100.15338564                1.00000000                0.00413696                0.00399932                0.00326091               -0.17764564               -0.03728966               -0.03822700
               8.85061800                7.87718768              100.15640021                1.00000000               -0.02734105                0.05459136                0.04482055               -0.17970215               -0.01696985               -0.02236236
               9.85035985                7.87236844              100.15981876                1.00000000               -0.02581513                0.02759065                0.01307287               -0.13395631               -0.02010197                0.08813733
              -0.14613442                8.91840380              100.09922805                1.00000000               -0.04780791               -0.01414686                0.07131067               -0.03097281                0.08314095               -0.07659964
               0.85338750                8.91372073              100.10873011                1.00000000                0.03735496               -0.04763073                0.20091181               -0.08103824               -0.06442177                0.02494969
               1.85461268                8.90797894              100.11536994                1.00000000               -0.00285391               -0.01669120                0.06908580                0.01596718                0.06097828                0.06522164
               2.85333042                8.90409938              100.11904487                1.00000000               -0.12133480               -0.00918776                0.11543578                0.06848690               -0.12272857               -0.01091417
               3.85218598                8.90000428              100.12613740                1.00000000               -0.09179094               -0.00176135                0.08516219                0.07354158                0.02110899               -0.01960387
               4.85149460                8.89580333              100.13482455                1.00000000               -0.01032320               -0.02240468                0.09441803                0.06543081                0.07080000               -0.04833228
               5.85197952                8.89167514              100.14375053                1.00000000                0.06798254                0.01424436                0.06041859               -0.19049836                0.05867705               -0.29150795
               6.85285426                8.88717626              100.15072774                1.00000000                0.08335637               -0.02098453                0.01323864               -0.16913014               -0.02274983               -0.07457850
               7.85364665                8.88234337              100.15597915                1.00000000                0.05389189               -0.02784683                0.04503704               -0.17841250               -0.02193578               -0.01758457
               8.85393209                8.87748341              100.16074594                1.00000000                0.00693319                0.00785210                0.05098108               -0.17747205                0.02701685                0.02565596
               9.85378531                8.87237369              100.16594539                1.00000000               -0.01467819               -0.07976792                0.09204275               -0.25746058                0.05076270                0.35289065
              -0.14138835                9.91829174              100.10132088                1.00000000               -0.02902444               -0.01120565                0.07634915               -0.04950465                0.04763677               -0.02751731
               0.85832141                9.91305062              100.11088019                1.00000000                0.03251144               -0.06701104                0.17342492               -0.02359540               -0.01307848               -0.02052813
               1.85926188                9.90795202              100.11876414                1.00000000               -0.04211765               -0.00269237                0.14023729                0.02029865                0.02790512                0.06330127
               2.85747906                9.90415819              100.12053626                1.00000000               -0.12449291                0.00588136                0.05890314                0.01812714               -0.24613275                0.00413733
               3.85677202                9.90001730              100.12732573                1.00000000               -0.07843905                0.00130139                0.05010824                0.02847028                0.01359367               -0.00213062
               4.85591027                9.89555552              100.13571850                1.00000000               -0.04508019               -0.02478185                0.05940602                0.00088926                0.04278093               -0.01374807
               5.85587042                9.89120374              100.14422217                1.00000000                0.02870808               -0.04714034                0.02033163               -0.05150886                0.05051717               -0.05733492
               6.85648444                9.88674354              100.15220997                1.00000000                0.05804214               -0.04327181               -0.01589445               -0.09305206                0.07319546               -0.04167983
               7.85703126                9.88208234              100.15899143                1.00000000                0.02768981               -0.02610287                0.01258589               -0.13147917                0.08719738               -0.02044267
               8.85703823                9.87734472              100.16549441                1.00000000               -0.08005915               -0.01386898                0.08799353               -0.25484903                0.35418623                0.04873827
               9.85543008                9.87077308              100.17738474                1.00000000               -0.16081530               -0.16006154                0.32323911               -0.49268780                0.37322100                0.37085563
         1          2         13         12        122        123        134        133  
         2          3         14         13        123        124        135        134  
         3          4         15         14        124        125        136        135  
         4          5         16         15        125        126        137        136  
         5          6         17         16        126        127        138        137  
         6          7         18         17        127        128        139        138  
         7          8         19         18        128        129        140        139  
         8          9         20         19        129        130        141        140  
         9         10         21         20        130        131        142        141  
        10         11         22         21        131        132        143        142  
        12         13         24         23        133        134        145        144  
        13         14         25         24        134        135        146        145  
        14         15         26         25        135        136        147        146  
        15         16         27         26        136        137        148        147  
        16         17         28         27        137        138        149        148  
        17         18         29         28        138        139        150        149  
        18         19         30         29        139        140        151        150  
        19         20         31         30        140        141        152        151  
        20         21         32         31        141        142        153        152  
        21         22         33         32        142        143        154        153  
        23         24         35         34        144        145        156        155  
        24         25         36         35        145        146        157        156  
        25         26         37         36        146        147        158        157  
        26         27         38         37        147        148        159        158  
        27         28         39         38        148        149        160        159  
        28         29         40         39        149        150        161        160  
        29         30         41         40        150        151        162        161  
        30         31         42         41        151        152        163        162  
        31         32         43         42        152        153        164        163  
        32         33         44         43        153        154        165        164  
        34         35         46         45        155        156        167        166  
        35         36         47         46        156        157        168        167  
        36         37         48         47        157        158        169        168  
        37         38         49         48        158        159        170        169  
        38         39         50         49        159        160        171        170  
        39         40         51         50        160        161        172        171  
        40         41         52         51        161        162        173        172  
        41         42         53         52        162        163        174        173  
        42         43         54         53        163        164        175        174  
        43         44         55         54        164        165        176        175  
        45         46         57         56        166        167        178        177  
        46         47         58         57        167        168        179        178  
        47         48         59         58        168        169        180        179  
        48         49         60         59        169        170        181        180  
        49         50         61         60        170        171        182        181  
        50         51         62         61        171        172        183        182  
        51         52         63         62        172        173        184        183  
        52         53         64         63        173        174        185        184  
        53         54         65         64        174        175        186        185  
        54         55         66         65        175        176        187        186  
        56         57         68         67        177        178        189        188  
        57         58         69         68        178        179        190        189  
        58         59         70         69        179        180        191        190  
        59         60         71         70        180        181        192        191  
        60         61         72         71        181        182        193        192  
        61         62         73         72        182        183        194        193  
        62         63         74         73        183        184        195        194  
        63         64         75         74        184        185        196        195  
        64         65         76         75        185        186        197        196  
        65         66         77         76        186        187        198        197  
        67         68         79         78        188        189        200        199  
        68         69         80         79        189        190        201        200  
        69         70         81         80        190        191        202        201  
        70         71         82         81        191        192        203        202  
        71         72         83         82        192        193        204        203  
        72         73         84         83        193        194        205        204  
        73         74         85         84        194        195        206        205  
        74         75         86         85        195        196        207        206  
        75         76         87         86        196        197        208        207  
        76         77         88         87        197        198        209        208  
        78         79         90         89        199        200        211        210  
        79         80         91         90        200        201        212        211  
        80         81         92         91        201        202        213        212  
        81         82         93         92        202        203        214        213  
        82         83         94         93        203        204        215        214  
        83         84         95         94        204        205        216        215  
        84         85         96         95        205        206        217        216  
        85         86         97         96        206        207        218        217  
        86         87         98         97        207        208        219        218  
        87         88         99         98        208        209        220        219  
        89         90        101        100        210        211        222        221  
        90         91        102        101        211        212        223        222  
        91         92        103        102        212        213        224        223  
        92         93        104        103        213        214        225        224  
        93         94        105        104        214        215        226        225  
        94         95        106        105        215        216        227        226  
        95         96        107        106        216        217        228        227  
        96         97        108        107        217        218        229        228  
        97         98        109        108        218        219        230        229  
        98         99        110        109        219        220        231        230  
       100        101        112        111        221        222        233        232  
       101        102        113        112        222        223        234        233  
       102        103        114        113        223        224        235        234  
       103        104        115        114        224        225        236        235  
       104        105        116        115        225        226        237        236  
       105        106        117        116        226        227        238        237  
       106        107        118        117        227        228        239        238  
       107        108        119        118        228        229        240        239  
       108        109        120        119        229        230        241        240  
       109        110        121        120        230        231        242        241  
       122        123        134        133        243        244        255        254  
       123        124        135        134        244        245        256        255  
       124        125        136        135        245        246        257        256  
       125        126        137        136        246        247        258        257  
       126        127        138        137        247        248        259        258  
       127        128        139        138        248        249        260        259  
       128        129        140        139        249        250        261        260  
       129        130        141        140        250        251        262        261  
       130        131        142        141        251        252        263        262  
       131        132        143        142        252        253        264        263  
       133        134        145        144        254        255        266        265  
       134        135        146        145        255        256        267        266  
       135        136        147        146        256        257        268        267  
       136        137        148        147        257        258        269        268  
       137        138        149        148        258        259        270        269  
       138        139        150        149        259        260        271        270  
       139        140        151        150        260        261        272        271  
       140        141        152        151        261        262        273        272  
       141        142        153        152        262        263        274        273  
       142        143        154        153        263        264        275        274  
       144        145        156        155        265        266        277        276  
       145        146        157        156        266        267        278        277  
       146        147        158        157        267        268        279        278  
       147        148        159        158        268        269        280        279  
       148        149        160        159        269        270        281        280  
       149        150        161        160        270        271        282        281  
       150        151        162        161        271        272        283        282  
       151        152        163        162        272        273        284        283  
       152        153        164        163        273        274        285        284  
       153        154        165        164        274        275        286        285  
       155        156        167        166        276        277        288        287  
       156        157        168        167        277        278        289        288  
       157        158        169        168        278        279        290        289  
       158        159        170        169        279        280        291        290  
       159        160        171        170        280        281        292        291  
       160        161        172        171        281        282        293        292  
       161        162        173        172        282        283        294        293  
       162        163        174        173        283        284        295        294  
       163        164        175        174        284        285        296        295  
       164        165        176        175        285        286        297        296  
       166        167        178        177        287        288        299        298  
       167        168        179        178        288        289        300        299  
       168        169        180        179        289        290        301        300  
       169        170        181        180        290        291        302        301  
       170        171        182        181        291        292        303        302  
       171        172        183        182        292        293        304        303  
       172        173        184        183        293        294        305        304  
       173        174        185        184        294        295        306        305  
       174        175        186        185        295        296        307        306  
       175        176        187        186        296        297        308        307  
       177        178        189        188        298        299        310        309  
       178        179        190        189        299        300        311        310  
       179        180        191        190        300        301        312        311  
       180        181        192        191        301        302        313        312  
       181        182        193        192        302        303        314        313  
       182        183        194        193        303        304        315        314  
       183        184        195        194        304        305        316        315  
       184        185        196        195        305        306        317        316  
       185        186        197        196        306        307        318        317  
       186        187        198        197        307        308        319        318  
       188        189        200        199        309        310        321        320  
       189        190        201        200        310        311        322        321  
       190        191        202        201        311        312        323        322  
       191        192        203        202        312        313        324        323  
       192        193        204        203        313        314        325        324  
       193        194        205        204        314        315        326        325  
       194        195        206        205        315        316        327        326  
       195        196        207        206        316        317        328        327  
       196        197        208        207        317        318        329        328  
       197        198        209        208        318        319        330        329  
       199        200        211        210        320        321        332        331  
       200        201        212        211        321        322        333        332  
       201        202        213        212        322        323        334        333  
       202        203        214        213        323        324        335        334  
       203        204        215        214        324        325        336        335  
       204        205        216        215        325        326        337        336  
       205        206        217        216        326        327        338        337  
       206        207        218        217        327        328        339        338  
       207        208        219        218        328        329        340        339  
       208        209        220        219        329        330        341        340  
       210        211        222        221        331        332        343        342  
       211        212        223        222        332        333        344        343  
       212        213        224        223        333        334        345        344  
       213        214        225        224        334        335        346        345  
       214        215        226        225        335        336        347        346  
       215        216        227        226        336        337        348        347  
       216        217        228        227        337        338        349        348  
       217        218        229        228        338        339        350        349  
       218        219        230        229        339        340        351        350  
       219        220        231        230        340        341        352        351  
       221        222        233        232        342        343        354        353  
       222        223        234        233        343        344        355        354  
       223        224        235        234        344        345        356        355  
       224        225        236        235        345        346        357        356  
       225        226        237        236        346        347        358        357  
       226        227        238        237        347        348        359        358  
       227        228        239        238        348        349        360        359  
       228        229        240        239        349        350        361        360  
       229        230        241        240        350        351        362        361  
       230        231        242        241        351        352        363        362  
       243        244        255        254        364        365        376        375  
       244        245        256        255        365        366        377        376  
       245        246        257        256        366        367        378        377  
       246        247        258        257        367        368        379        378  
       247        248        259        258        368        369        380        379  
       248        249        260        259        369        370        381        380  
       249        250        261        260        370        371        382        381  
       250        251        262        261        371        372        383        382  
       251        252        263        262        372        373        384        383  
       252        253        264        263        373        374        385        384  
       254        255        266        265        375        376        387        386  
       255        256        267        266        376        377        388        387  
       256        257        268        267        377        378        389        388  
       257        258        269        268        378        379        390        389  
       258        259        270        269        379        380        391        390  
       259        260        271        270        380        381        392        391  
       260        261        272        271        381        382        393        392  
       261        262        273        272        382        383        394        393  
       262        263        274        273        383        384        395        394  
       263        264        275        274        384        385        396        395  
       265        266        277        276        386        387        398        397  
       266        267        278        277        387        388        399        398  
       267        268        279        278        388        389        400        399  
       268        269        280        279        389        390        401        400  
       269        270        281        280        390        391        402        401  
       270        271        282        281        391        392        403        402  
       271        272        283        282        392        393        404        403  
       272        273        284        283        393        394        405        404  
       273        274        285        284        394        395        406        405  
       274        275        286        285        395        396        407        406  
       276        277        288        287        397        398        409        408  
       277        278        289        288        398        399        410        409  
       278        279        290        289        399        400        411        410  
       279        280        291        290        400        401        412        411  
       280        281        292        291        401        402        413        412  
       281        282        293        292        402        403        414        413  
       282        283        294        293        403        404        415        414  
       283        284        295        294        404        405        416        415  
       284        285        296        295        405        406        417        416  
       285        286        297        296        406        407        418        417  
       287        288        299        298        408        409        420        419  
       288        289        300        299        409        410        421        420  
       289        290        301        300        410        411        422        421  
       290        291        302        301        411        412        423        422  
       291        292        303        302        412        413        424        423  
       292        293        304        303        413        414        425        424  
       293        294        305        304        414        415        426        425  
       294        295        306        305        415        416        427        426  
       295        296        307        306        416        417        428        427  
       296        297        308        307        417        418        429        428  
       298        299        310        309        419        420        431        430  
       299        300        311        310        420        421        432        431  
       300        301        312        311        421        422        433        432  
       301        302        313        312        422        423        434        433  
       302        303        314        313        423        424        435        434  
       303        304        315        314        424        425        436        435  
       304        305        316        315        425        426        437        436  
       305        306        317        316        426        427        438        437  
       306        307        318        317        427        428        439        438  
       307        308        319        318        428        429        440        439  
       309        310        321        320        430        431        442        441  
       310        311        322        321        431        432        443        442  
       311        312        323        322        432        433        444        443  
       312        313        324        323        433        434        445        444  
       313        314        325        324        434        435        446        445  
       314        315        326        325        435        436        447        446  
       315        316        327        326        436        437        448        447  
       316        317        328        327        437        438        449        448  
       317        318        329        328        438        439        450        449  
       318        319        330        329        439        440        451        450  
       320        321        332        331        441        442        453        452  
       321        322        333        332        442        443        454        453  
       322        323        334        333        443        444        455        454  
       323        324        335        334        444        445        456        455  
       324        325        336        335        445        446        457        456  
       325        326        337        336        446        447        458        457  
       326        327        338        337        447        448        459        458  
       327        328        339        338        448        449        460        459  
       328        329        340        339        449        450        461        460  
       329        330        341        340        450        451        462        461  
       331        332        343        342        452        453        464        463  
       332        333        344        343        453        454        465        464  
       333        334        345        344        454        455        466        465  
       334        335        346        345        455        456        467        466  
       335        336        347        346        456        457        468        467  
       336        337        348        347        457        458        469        468  
       337        338        349        348        458        459        470        469  
       338        339        350        349        459        460        471        470  
       339        340        351        350        460        461        472        471  
       340        341        352        351        461        462        473        472  
       342        343        354        353        463        464        475        474  
       343        344        355        354        464        465        476        475  
       344        345        356        355        465        466        477        476  
       345        346        357        356        466        467        478        477  
       346        347        358        357        467        468        479        478  
       347        348        359        358        468        469        480        479  
       348        349        360        359        469        470        481        480  
       349        350        361        360        470        471        482        481  
       350        351        362        361        471        472        483        482  
       351        352        363        362        472        473        484        483  
       364        365        376        375        485        486        497        496  
       365        366        377        376        486        487        498        497  
       366        367        378        377        487        488        499        498  
       367        368        379        378        488        489        500        499  
       368        369        380        379        489        490        501        500  
       369        370        381        380        490        491        502        501  
       370        371        382        381        491        492        503        502  
       371        372        383        382        492        493        504        503  
       372        373        384        383        493        494        505        504  
       373        374        385        384        494        495        506        505  
       375        376        387        386        496        497        508        507  
       376        377        388        387        497        498        509        508  
       377        378        389        388        498        499        510        509  
       378        379        390        389        499        500        511        510  
       379        380        391        390        500        501        512        511  
       380        381        392        391        501        502        513        512  
       381        382        393        392        502        503        514        513  
       382        383        394        393        503        504        515        514  
       383        384        395        394        504        505        516        515  
       384        385        396        395        505        506        517        516  
       386        387        398        397        507        508        519        518  
       387        388        399        398        508        509        520        519  
       388        389        400        399        509        510        521        520  
       389        390        401        400        510        511        522        521  
       390        391        402        401        511        512        523        522  
       391        392        403        402        512        513        524        523  
       392        393        404        403        513        514        525        524  
       393        394        405        404        514        515        526        525  
       394        395        406        405        515        516        527        526  
       395        396        407        406        516        517        528        527  
       397        398        409        408        518        519        530        529  
       398        399        410        409        519        520        531        530  
       399        400        411        410        520        521        532        531  
       400        401        412        411        521        522        533        532  
       401        402        413        412        522        523        534        533  
       402        403        414        413        523        524        535        534  
       403        404        415        414        524        525        536        535  
       404        405        416        415        525        526        537        536  
       405        406        417        416        526        527        538        537  
       406        407        418        417        527        528        539        538  
       408        409        420        419        529        530        541        540  
       409        410        421        420        530        531        542        541  
       410        411        422        421        531        532        543        542  
       411        412        423        422        532        533        544        543  
       412        413        424        423        533        534        545        544  
       413        414        425        424        534        535        546        545  
       414        415        426        425        535        536        547        546  
       415        416        427        426        536        537        548        547  
       416        417        428        427        537        538        549        548  
       417        418        429        428        538        539        550        549  
       419        420        431        430        540        541        552        551  
       420        421        432        431        541        542        553        552  
       421        422        433        432        542        543        554        553  
       422        423        434        433        543        544        555        554  
       423        424        435        434        544        545        556        555  
       424        425        436        435        545        546        557        556  
       425        426        437        436        546        547        558        557  
       426        427        438        437        547        548        559        558  
       427        428        439        438        548        549        560        559  
       428        429        440        439        549        550        561        560  
       430        431        442        441        551        552        563        562  
       431        432        443        442        552        553        564        563  
       432        433        444        443        553        554        565        564  
       433        434        445        444        554        555        566        565  
       434        435        446        445        555        556        567        566  
       435        436        447        446        556        557        568        567  
       436        437        448        447        557        558        569        568  
       437        438        449        448        558        559        570        569  
       438        439        450        449        559        560        571        570  
       439        440        451        450        560        561        572        571  
       441        442        453        452        562        563        574        573  
       442        443        454        453        563        564        575        574  
       443        444        455        454        564        565        576        575  
       444        445        456        455        565        566        577        576  
       445        446        457        456        566        567        578        577  
       446        447        458        457        567        568        579        578  
       447        448        459        458        568        569        580        579  
       448        449        460        459        569        570        581        580  
       449        450        461        460        570        571        582        581  
       450        451        462        461        571        572        583        582  
       452        453        464        463        573        574        585        584  
       453        454        465        464        574        575        586        585  
       454        455        466        465        575        576        587        586  
       455        456        467        466        576        577        588        587  
       456        457        468        467        577        578        589        588  
       457        458        469        468        578        579        590        589  
       458        459        470        469        579        580        591        590  
       459        460        471        470        580        581        592        591  
       460        461        472        471        581        582        593        592  
       461        462        473        472        582        583        594        593  
       463        464        475        474        584        585        596        595  
       464        465        476        475        585        586        597        596  
       465        466        477        476        586        587        598        597  
       466        467        478        477        587        588        599        598  
       467        468        479        478        588        589        600        599  
       468        469        480        479        589        590        601        600  
       469        470        481        480        590        591        602        601  
       470        471        482        481        591        592        603        602  
       471        472        483        482        592        593        604        603  
       472        473        484        483        593        594        605        604  
       485        486        497        496        606        607        618        617  
       486        487        498        497        607        608        619        618  
       487        488        499        498        608        609        620        619  
       488        489        500        499        609        610        621        620  
       489        490        501        500        610        611        622        621  
       490        491        502        501        611        612        623        622  
       491        492        503        502        612        613        624        623  
       492        493        504        503        613        614        625        624  
       493        494        505        504        614        615        626        625  
       494        495        506        505        615        616        627        626  
       496        497        508        507        617        618        629        628  
       497        498        509        508        618        619        630        629  
       498        499        510        509        619        620        631        630  
       499        500        511        510        620        621        632        631  
       500        501        512        511        621        622        633        632  
       501        502        513        512        622        623        634        633  
       502        503        514        513        623        624        635        634  
       503        504        515        514        624        625        636        635  
       504        505        516        515        625        626        637        636  
       505        506        517        516        626        627        638        637  
       507        508        519        518        628        629        640        639  
       508        509        520        519        629        630        641        640  
       509        510        521        520        630        631        642        641  
       510        511        522        521        631        632        643        642  
       511        512        523        522        632        633        644        643  
       512        513        524        523        633        634        645        644  
       513        514        525        524        634        635        646        645  
       514        515        526        525        635        636        647        646  
       515        516        527        526        636        637        648        647  
       516        517        528        527        637        638        649        648  
       518        519        530        529        639        640        651        650  
       519        520        531        530        640        641        652        651  
       520        521        532        531        641        642        653        652  
       521        522        533        532        642        643        654        653  
       522        523        534        533        643        644        655        654  
       523        524        535        534        644        645        656        655  
       524        525        536        535        645        646        657        656  
       525        526        537        536        646        647        658        657  
       526        527        538        537        647        648        659        658  
       527        528        539        538        648        649        660        659  
       529        530        541        540        650        651        662        661  
       530        531        542        541        651        652        663        662  
       531        532        543        542        652        653        664        663  
       532        533        544        543        653        654        665        664  
       533        534        545        544        654        655        666        665  
       534        535        546        545        655        656        667        666  
       535        536        547        546        656        657        668        667  
       536        537        548        547        657        658        669        668  
       537        538        549        548        658        659        670        669  
       538        539        550        549        659        660        671        670  
       540        541        552        551        661        662        673        672  
       541        542        553        552        662        663        674        673  
       542        543        554        553        663        664        675        674  
       543        544        555        554        664        665        676        675  
       544        545        556        555        665        666        677        676  
       545        546        557        556        666        667        678        677  
       546        547        558        557        667        668        679        678  
       547        548        559        558        668        669        680        679  
       548        549        560        559        669        670        681        680  
       549        550        561        560        670        671        682        681  
       551        552        563        562        672        673        684        683  
       552        553        564        563        673        674        685        684  
       553        554        565        564        674        675        686        685  
       554        555        566        565        675        676        687        686  
       555        556        567        566        676        677        688        687  
       556        557        568        567        677        678        689        688  
       557        558        569        568        678        679        690        689  
       558        559        570        569        679        680        691        690  
       559        560        571        570        680        681        692        691  
       560        561        572        571        681        682        693        692  
       562        563        574        573        683        684        695        694  
       563        564        575        574        684        685        696        695  
       564        565        576        575        685        686        697        696  
       565        566        577        576        686        687        698        697  
       566        567        578        577        687        688        699        698  
       567        568        579        578        688        689        700        699  
       568        569        580        579        689        690        701        700  
       569        570        581        580        690        691        702        701  
       570        571        582        581        691        692        703        702  
       571        572        583        582        692        693        704        703  
       573        574        585        584        694        695        706        705  
       574        575        586        585        695        696        707        706  
       575        576        587        586        696        697        708        707  
       576        577        588        587        697        698        709        708  
       577        578        589        588        698        699        710        709  
       578        579        590        589        699        700        711        710  
       579        580        591        590        700        701        712        711  
       580        581        592        591        701        702        713        712  
       581        582        593        592        702        703        714        713  
       582        583        594        593        703        704        715        714  
       584        585        596        595        705        706        717        716  
       585        586        597        596        706        707        718        717  
       586        587        598        597        707        708        719        718  
       587        588        599        598        708        709        720        719  
       588        589        600        599        709        710        721        720  
       589        590        601        600        710        711        722        721  
       590        591        602        601        711        712        723        722  
       591        592        603        602        712        713        724        723  
       592        593        604        603        713        714        725        724  
       593        594        605        604        714        715        726        725  
       606        607        618        617        727        728        739        738  
       607        608        619        618        728        729        740        739  
       608        609        620        619        729        730        741        740  
       609        610        621        620        730        731        742        741  
       610        611        622        621        731        732        743        742  
       611        612        623        622        732        733        744        743  
       612        613        624        623        733        734        745        744  
       613        614        625        624        734        735        746        745  
       614        615        626        625        735        736        747        746  
       615        616        627        626        736        737        748        747  
       617        618        629        628        738        739        750        749  
       618        619        630        629        739        740        751        750  
       619        620        631        630        740        741        752        751  
       620        621        632        631        741        742        753        752  
       621        622        633        632        742        743        754        753  
       622        623        634        633        743        744        755        754  
       623        624        635        634        744        745        756        755  
       624        625        636        635        745        746        757        756  
       625        626        637        636        746        747        758        757  
       626        627        638        637        747        748        759        758  
       628        629        640        639        749        750        761        760  
       629        630        641        640        750        751        762        761  
       630        631        642        641        751        752        763        762  
       631        632        643        642        752        753        764        763  
       632        633        644        643        753        754        765        764  
       633        634        645        644        754        755        766        765  
       634        635        646        645        755        756        767        766  
       635        636        647        646        756        757        768        767  
       636        637        648        647        757        758        769        768  
       637        638        649        648        758        759        770        769  
       639        640        651        650        760        761        772        771  
       640        641        652        651        761        762        773        772  
       641        642        653        652        762        763        774        773  
       642        643        654        653        763        764        775        774  
       643        644        655        654        764        765        776        775  
       644        645        656        655        765        766        777        776  
       645        646        657        656        766        767        778        777  
       646        647        658        657        767        768        779        778  
       647        648        659        658        768        769        780        779  
       648        649        660        659        769        770        781        780  
       650        651        662        661        771        772        783        782  
       651        652        663        662        772        773        784        783  
       652        653        664        663        773        774        785        784  
       653        654        665        664        774        775        786        785  
       654        655        666        665        775        776        787        786  
       655        656        667        666        776        777        788        787  
       656        657        668        667        777        778        789        788  
       657        658        669        668        778        779        790        789  
       658        659        670        669        779        780        791        790  
       659        660        671        670        780        781        792        791  
       661        662        673        672        782        783        794        793  
       662        663        674        673        783        784        795        794  
       663        664        675        674        784        785        796        795  
       664        665        676        675        785        786        797        796  
       665        666        677        676        786        787        798        797  
       666        667        678        677        787        788        799        798  
       667        668        679        678        788        789        800        799  
       668        669        680        679        789        790        801        800  
       669        670        681        680        790        791        802        801  
       670        671        682        681        791        792        803        802  
       672        673        684        683        793        794        805        804  
       673        674        685        684        794        795        806        805  
       674        675        686        685        795        796        807        806  
       675        676        687        686        796        797        808        807  
       676        677        688        687        797        798        809        808  
       677        678        689        688        798        799        810        809  
       678        679        690        689        799        800        811        810  
       679        680        691        690        800        801        812        811  
       680        681        692        691        801        802        813        812  
       681        682        693        692        802        803        814        813  
       683        684        695        694        804        805        816        815  
       684        685        696        695        805        806        817        816  
       685        686        697        696        806        807        818        817  
       686        687        698        697        807        808        819        818  
       687        688        699        698        808        809        820        819  
       688        689        700        699        809        810        821        820  
       689        690        701        700        810        811        822        821  
       690        691        702        701        811        812        823        822  
       691        692        703        702        812        813        824        823  
       692        693        704        703        813        814        825        824  
       694        695        706        705        815        816        827        826  
       695        696        707        706        816        817        828        827  
       696        697        708        707        817        818        829        828  
       697        698        709        708        818        819        830        829  
       698        699        710        709        819        820        831        830  
       699        700        711        710        820        821        832        831  
       700        701        712        711        821        822        833        832  
       701        702        713        712        822        823        834        833  
       702        703        714        713        823        824        835        834  
       703        704        715        714        824        825        836        835  
       705        706        717        716        826        827        838        837  
       706        707        718        717        827        828        839        838  
       707        708        719        718        828        829        840        839  
       708        709        720        719        829        830        841        840  
       709        710        721        720        830        831        842        841  
       710        711        722        721        831        832        843        842  
       711        712        723        722        832        833        844        843  
       712        713        724        723        833        834        845        844  
       713        714        725        724        834        835        846        845  
       714        715        726        725        835        836        847        846  
       727        728        739        738        848        849        860        859  
       728        729        740        739        849        850        861        860  
       729        730        741        740        850        851        862        861  
       730        731        742        741        851        852        863        862  
       731        732        743        742        852        853        864        863  
       732        733        744        743        853        854        865        864  
       733        734        745        744        854        855        866        865  
       734        735        746        745        855        856        867        866  
       735        736        747        746        856        857        868        867  
       736        737        748        747        857        858        869        868  
       738        739        750        749        859        860        871        870  
       739        740        751        750        860        861        872        871  
       740        741        752        751        861        862        873        872  
       741        742        753        752        862        863        874        873  
       742        743        754        753        863        864        875        874  
       743        744        755        754        864        865        876        875  
       744        745        756        755        865        866        877        876  
       745        746        757        756        866        867        878        877  
       746        747        758        757        867        868        879        878  
       747        748        759        758        868        869        880        879  
       749        750        761        760        870        871        882        881  
       750        751        762        761        871        872        883        882  
       751        752        763        762        872        873        884        883  
       752        753        764        763        873        874        885        884  
       753        754        765        764        874        875        886        885  
       754        755        766        765        875        876        887        886  
       755        756        767        766        876        877        888        887  
       756        757        768        767        877        878        889        888  
       757        758        769        768        878        879        890        889  
       758        759        770        769        879        880        891        890  
       760        761        772        771        881        882        893        892  
       761        762        773        772        882        883        894        893  
       762        763        774        773        883        884        895        894  
       763        764        775        774        884        885        896        895  
       764        765        776        775        885        886        897        896  
       765        766        777        776        886        887        898        897  
       766        767        778        777        887        888        899        898  
       767        768        779        778        888        889        900        899  
       768        769        780        779        889        890        901        900  
       769        770        781        780        890        891        902        901  
       771        772        783        782        892        893        904        903  
       772        773        784        783        893        894        905        904  
       773        774        785        784        894        895        906        905  
       774        775        786        785        895        896        907        906  
       775        776        787        786        896        897        908        907  
       776        777        788        787        897        898        909        908  
       777        778        789        788        898        899        910        909  
       778        779        790        789        899        900        911        910  
       779        780        791        790        900        901        912        911  
       780        781        792        791        901        902        913        912  
       782        783        794        793        903        904        915        914  
       783        784        795        794        904        905        916        915  
       784        785        796        795        905        906        917        916  
       785        786        797        796        906        907        918        917  
       786        787        798        797        907        908        919        918  
       787        788        799        798        908        909        920        919  
       788        789        800        799        909        910        921        920  
       789        790        801        800        910        911        922        921  
       790        791        802        801        911        912        923        922  
       791        792        803        802        912        913        924        923  
       793        794        805        804        914        915        926        925  
       794        795        806        805        915        916        927        926  
       795        796        807        806        916        917        928        927  
       796        797        808        807        917        918        929        928  
       797        798        809        808        918        919        930        929  
       798        799        810        809        919        920        931        930  
       799        800        811        810        920        921        932        931  
       800        801        812        811        921        922        933        932  
       801        802        813        812        922        923        934        933  
       802        803        814        813        923        924        935        934  
       804        805        816        815        925        926        937        936  
       805        806        817        816        926        927        938        937  
       806        807        818        817        927        928        939        938  
       807        808        819        818        928        929        940        939  
       808        809        820        819        929        930        941        940  
       809        810        821        820        930        931        942        941  
       810        811        822        821        931        932        943        942  
       811        812        823        822        932        933        944        943  
       812        813        824        823        933        934        945        944  
       813        814        825        824        934        935        946        945  
       815        816        827        826        936        937        948        947  
       816        817        828        827        937        938        949        948  
       817        818        829        828        938        939        950        949  
       818        819        830        829        939        940        951        950  
       819        820        831        830        940        941        952        951  
       820        821        832        831        941        942        953        952  
       821        822        833        832        942        943        954        953  
       822        823        834        833        943        944        955        954  
       823        824        835        834        944        945        956        955  
       824        825        836        835        945        946        957        956  
       826        827        838        837        947        948        959        958  
       827        828        839        838        948        949        960        959  
       828        829        840        839        949        950        961        960  
       829        830        841        840        950        951        962        961  
       830        831        842        841        951        952        963        962  
       831        832        843        842        952        953        964        963  
       832        833        844        843        953        954        965        964  
       833        834        845        844        954        955        966        965  
       834        835        846        845        955        956        967        966  
       835        836        847        846        956        957        968        967  
       848        849        860        859        969        970        981        980  
       849        850        861        860        970        971        982        981  
       850        851        862        861        971        972        983        982  
       851        852        863        862        972        973        984        983  
       852        853        864        863        973        974        985        984  
       853        854        865        864        974        975        986        985  
       854        855        866        865        975        976        987        986  
       855        856        867        866        976        977        988        987  
       856        857        868        867        977        978        989        988  
       857        858        869        868        978        979        990        989  
       859        860        871        870        980        981        992        991  
       860        861        872        871        981        982        993        992  
       861        862        873        872        982        983        994        993  
       862        863        874        873        983        984        995        994  
       863        864        875        874        984        985        996        995  
       864        865        876        875        985        986        997        996  
       865        866        877        876        986        987        998        997  
       866        867        878        877        987        988        999        998  
       867        868        879        878        988        989       1000        999  
       868        869        880        879        989        990       1001       1000  
       870        871        882        881        991        992       1003       1002  
       871        872        883        882        992        993       1004       1003  
       872        873        884        883        993        994       1005       1004  
       873        874        885        884        994        995       1006       1005  
       874        875        886        885        995        996       1007       1006  
       875        876        887        886        996        997       1008       1007  
       876        877        888        887        997        998       1009       1008  
       877        878        889        888        998        999       1010       1009  
       878        879        890        889        999       1000       1011       1010  
       879        880        891        890       1000       1001       1012       1011  
       881        882        893        892       1002       1003       1014       1013  
       882        883        894        893       1003       1004       1015       1014  
       883        884        895        894       1004       1005       1016       1015  
       884        885        896        895       1005       1006       1017       1016  
       885        886        897        896       1006       1007       1018       1017  
       886        887        898        897       1007       1008       1019       1018  
       887        888        899        898       1008       1009       1020       1019  
       888        889        900        899       1009       1010       1021       1020  
       889        890        901        900       1010       1011       1022       1021  
       890        891        902        901       1011       1012       1023       1022  
       892        893        904        903       1013       1014       1025       1024  
       893        894        905        904       1014       1015       1026       1025  
       894        895        906        905       1015       1016       1027       1026  
       895        896        907        906       1016       1017       1028       1027  
       896        897        908        907       1017       1018       1029       1028  
       897        898        909        908       1018       1019       1030       1029  
       898        899        910        909       1019       1020       1031       1030  
       899        900        911        910       1020       1021       1032       1031  
       900        901        912        911       1021       1022       1033       1032  
       901        902        913        912       1022       1023       1034       1033  
       903        904        915        914       1024       1025       1036       1035  
       904        905        916        915       1025       1026       1037       1036  
       905        906        917        916       1026       1027       1038       1037  
       906        907        918        917       1027       1028       1039       1038  
       907        908        919        918       1028       1029       1040       1039  
       908        909        920        919       1029       1030       1041       1040  
       909        910        921        920       1030       1031       1042       1041  
       910        911        922        921       1031       1032       1043       1042  
       911        912        923        922       1032       1033       1044       1043  
       912        913        924        923       1033       1034       1045       1044  
       914        915        926        925       1035       1036       1047       1046  
       915        916        927        926       1036       1037       1048       1047  
       916        917        928        927       1037       1038       1049       1048  
       917        918        929        928       1038       1039       1050       1049  
       918        919        930        929       1039       1040       1051       1050  
       919        920        931        930       1040       1041       1052       1051  
       920        921        932        931       1041       1042       1053       1052  
       921        922        933        932       1042       1043       1054       1053  
       922        923        934        933       1043       1044       1055       1054  
       923        924        935        934       1044       1045       1056       1055  
       925        926        937        936       1046       1047       1058       1057  
       926        927        938        937       1047       1048       1059       1058  
       927        928        939        938       1048       1049       1060       1059  
       928        929        940        939       1049       1050       1061       1060  
       929        930        941        940       1050       1051       1062       1061  
       930        931        942        941       1051       1052       1063       1062  
       931        932        943        942       1052       1053       1064       1063  
       932        933        944        943       1053       1054       1065       1064  
       933        934        945        944       1054       1055       1066       1065  
       934        935        946        945       1055       1056       1067       1066  
       936        937        948        947       1057       1058       1069       1068  
       937        938        949        948       1058       1059       1070       1069  
       938        939        950        949       1059       1060       1071       1070  
       939        940        951        950       1060       1061       1072       1071  
       940        941        952        951       1061       1062       1073       1072  
       941        942        953        952       1062       1063       1074       1073  
       942        943        954        953       1063       1064       1075       1074  
       943        944        955        954       1064       1065       1076       1075  
       944        945        956        955       1065       1066       1077       1076  
       945        946        957        956       1066       1067       1078       1077  
       947        948        959        958       1068       1069       1080       1079  
       948        949        960        959       1069       1070       1081       1080  
       949        950        961        960       1070       1071       1082       1081  
       950        951        962        961       1071       1072       1083       1082  
       951        952        963        962       1072       1073       1084       1083  
       952        953        964        963       1073       1074       1085       1084  
       953        954        965        964       1074       1075       1086       1085  
       954        955        966        965       1075       1076       1087       1086  
       955        956        967        966       1076       1077       1088       1087  
       956        957        968        967       1077       1078       1089       1088  
       969        970        981        980       1090       1091       1102       1101  
       970        971        982        981       1091       1092       1103       1102  
       971        972        983        982       1092       1093       1104       1103  
       972        973        984        983       1093       1094       1105       1104  
       973        974        985        984       1094       1095       1106       1105  
       974        975        986        985       1095       1096       1107       1106  
       975        976        987        986       1096       1097       1108       1107  
       976        977        988        987       1097       1098       1109       1108  
       977        978        989        988       1098       1099       1110       1109  
       978        979        990        989       1099       1100       1111       1110  
       980        981        992        991       1101       1102       1113       1112  
       981        982        993        992       1102       1103       1114       1113  
       982        983        994        993       1103       1104       1115       1114  
       983        984        995        994       1104       1105       1116       1115  
       984        985        996        995       1105       1106       1117       1116  
       985        986        997        996       1106       1107       1118       1117  
       986        987        998        997       1107       1108       1119       1118  
       987        988        999        998       1108       1109       1120       1119  
       988        989       1000        999       1109       1110       1121       1120  
       989        990       1001       1000       1110       1111       1122       1121  
       991        992       1003       1002       1112       1113       1124       1123  
       992        993       1004       1003       1113       1114       1125       1124  
       993        994       1005       1004       1114       1115       1126       1125  
       994        995       1006       1005       1115       1116       1127       1126  
       995        996       1007       1006       1116       1117       1128       1127  
       996        997       1008       1007       1117       1118       1129       1128  
       997        998       1009       1008       1118       1119       1130       1129  
       998        999       1010       1009       1119       1120       1131       1130  
       999       1000       1011       1010       1120       1121       1132       1131  
      1000       1001       1012       1011       1121       1122       1133       1132  
      1002       1003       1014       1013       1123       1124       1135       1134  
      1003       1004       1015       1014       1124       1125       1136       1135  
      1004       1005       1016       1015       1125       1126       1137       1136  
      1005       1006       1017       1016       1126       1127       1138       1137  
      1006       1007       1018       1017       1127       1128       1139       1138  
      1007       1008       1019       1018       1128       1129       1140       1139  
      1008       1009       1020       1019       1129       1130       1141       1140  
      1009       1010       1021       1020       1130       1131       1142       1141  
      1010       1011       1022       1021       1131       1132       1143       1142  
      1011       1012       1023       1022       1132       1133       1144       1143  
      1013       1014       1025       1024       1134       1135       1146       1145  
      1014       1015       1026       1025       1135       1136       1147       1146  
      1015       1016       1027       1026       1136       1137       1148       1147  
      1016       1017       1028       1027       1137       1138       1149       1148  
      1017       1018       1029       1028       1138       1139       1150       1149  
      1018       1019       1030       1029       1139       1140       1151       1150  
      1019       1020       1031       1030       1140       1141       1152       1151  
      1020       1021       1032       1031       1141       1142       1153       1152  
      1021       1022       1033       1032       1142       1143       1154       1153  
      1022       1023       1034       1033       1143       1144       1155       1154  
      1024       1025       1036       1035       1145       1146       1157       1156  
      1025       1026       1037       1036       1146       1147       1158       1157  
      1026       1027       1038       1037       1147       1148       1159       1158  
      1027       1028       1039       1038       1148       1149       1160       1159  
      1028       1029       1040       1039       1149       1150       1161       1160  
      1029       1030       1041       1040       1150       1151       1162       1161  
      1030       1031       1042       1041       1151       1152       1163       1162  
      1031       1032       1043       1042       1152       1153       1164       1163  
      1032       1033       1044       1043       1153       1154       1165       1164  
      1033       1034       1045       1044       1154       1155       1166       1165  
      1035       1036       1047       1046       1156       1157       1168       1167  
      1036       1037       1048       1047       1157       1158       1169       1168  
      1037       1038       1049       1048       1158       1159       1170       1169  
      1038       1039       1050       1049       1159       1160       1171       1170  
      1039       1040       1051       1050       1160       1161       1172       1171  
      1040       1041       1052       1051       1161       1162       1173       1172  
      1041       1042       1053       1052       1162       1163       1174       1173  
      1042       1043       1054       1053       1163       1164       1175       1174  
      1043       1044       1055       1054       1164       1165       1176       1175  
      1044       1045       1056       1055       1165       1166       1177       1176  
      1046       1047       1058       1057       1167       1168       1179       1178  
      1047       1048       1059       1058       1168       1169       1180       1179  
      1048       1049       1060       1059       1169       1170       1181       1180  
      1049       1050       1061       1060       1170       1171       1182       1181  
      1050       1051       1062       1061       1171       1172       1183       1182  
      1051       1052       1063       1062       1172       1173       1184       1183  
      1052       1053       1064       1063       1173       1174       1185       1184  
      1053       1054       1065       1064       1174       1175       1186       1185  
      1054       1055       1066       1065       1175       1176       1187       1186  
      1055       1056       1067       1066       1176       1177       1188       1187  
      1057       1058       1069       1068       1178       1179       1190       1189  
      1058       1059       1070       1069       1179       1180       1191       1190  
      1059       1060       1071       1070       1180       1181       1192       1191  
      1060       1061       1072       1071       1181       1182       1193       1192  
      1061       1062       1073       1072       1182       1183       1194       1193  
      1062       1063       1074       1073       1183       1184       1195       1194  
      1063       1064       1075       1074       1184       1185       1196       1195  
      1064       1065       1076       1075       1185       1186       1197       1196  
      1065       1066       1077       1076       1186       1187       1198       1197  
      1066       1067       1078       1077       1187       1188       1199       1198  
      1068       1069       1080       1079       1189       1190       1201       1200  
      1069       1070       1081       1080       1190       1191       1202       1201  
      1070       1071       1082       1081       1191       1192       1203       1202  
      1071       1072       1083       1082       1192       1193       1204       1203  
      1072       1073       1084       1083       1193       1194       1205       1204  
      1073       1074       1085       1084       1194       1195       1206       1205  
      1074       1075       1086       1085       1195       1196       1207       1206  
      1075       1076       1087       1086       1196       1197       1208       1207  
      1076       1077       1088       1087       1197       1198       1209       1208  
      1077       1078       1089       1088       1198       1199       1210       1209  
      1090       1091       1102       1101       1211       1212       1223       1222  
      1091       1092       1103       1102       1212       1213       1224       1223  
      1092       1093       1104       1103       1213       1214       1225       1224  
      1093       1094       1105       1104       1214       1215       1226       1225  
      1094       1095       1106       1105       1215       1216       1227       1226  
      1095       1096       1107       1106       1216       1217       1228       1227  
      1096       1097       1108       1107       1217       1218       1229       1228  
      1097       1098       1109       1108       1218       1219       1230       1229  
      1098       1099       1110       1109       1219       1220       1231       1230  
      1099       1100       1111       1110       1220       1221       1232       1231  
      1101       1102       1113       1112       1222       1223       1234       1233  
      1102       1103       1114       1113       1223       1224       1235       1234  
      1103       1104       1115       1114       1224       1225       1236       1235  
      1104       1105       1116       1115       1225       1226       1237       1236  
      1105       1106       1117       1116       1226       1227       1238       1237  
      1106       1107       1118       1117       1227       1228       1239       1238  
      1107       1108       1119       1118       1228       1229       1240       1239  
      1108       1109       1120       1119       1229       1230       1241       1240  
      1109       1110       1121       1120       1230       1231       1242       1241  
      1110       1111       1122       1121       1231       1232       1243       1242  
      1112       1113       1124       1123       1233       1234       1245       1244  
      1113       1114       1125       1124       1234       1235       1246       1245  
      1114       1115       1126       1125       1235       1236       1247       1246  
      1115       1116       1127       1126       1236       1237       1248       1247  
      1116       1117       1128       1127       1237       1238       1249       1248  
      1117       1118       1129       1128       1238       1239       1250       1249  
      1118       1119       1130       1129       1239       1240       1251       1250  
      1119       1120       1131       1130       1240       1241       1252       1251  
      1120       1121       1132       1131       1241       1242       1253       1252  
      1121       1122       1133       1132       1242       1243       1254       1253  
      1123       1124       1135       1134       1244       1245       1256       1255  
      1124       1125       1136       1135       1245       1246       1257       1256  
      1125       1126       1137       1136       1246       1247       1258       1257  
      1126       1127       1138       1137       1247       1248       1259       1258  
      1127       1128       1139       1138       1248       1249       1260       1259  
      1128       1129       1140       1139       1249       1250       1261       1260  
      1129       1130       1141       1140       1250       1251       1262       1261  
      1130       1131       1142       1141       1251       1252       1263       1262  
      1131       1132       1143       1142       1252       1253       1264       1263  
      1132       1133       1144       1143       1253       1254       1265       1264  
      1134       1135       1146       1145       1255       1256       1267       1266  
      1135       1136       1147       1146       1256       1257       1268       1267  
      1136       1137       1148       1147       1257       1258       1269       1268  
      1137       1138       1149       1148       1258       1259       1270       1269  
      1138       1139       1150       1149       1259       1260       1271       1270  
      1139       1140       1151       1150       1260       1261       1272       1271  
      1140       1141       1152       1151       1261       1262       1273       1272  
      1141       1142       1153       1152       1262       1263       1274       1273  
      1142       1143       1154       1153       1263       1264       1275       1274  
      1143       1144       1155       1154       1264       1265       1276       1275  
      1145       1146       1157       1156       1266       1267       1278       1277  
      1146       1147       1158       1157       1267       1268       1279       1278  
      1147       1148       1159       1158       1268       1269       1280       1279  
      1148       1149       1160       1159       1269       1270       1281       1280  
      1149       1150       1161       1160       1270       1271       1282       1281  
      1150       1151       1162       1161       1271       1272       1283       1282  
      1151       1152       1163       1162       1272       1273       1284       1283  
      1152       1153       1164       1163       1273       1274       1285       1284  
      1153       1154       1165       1164       1274       1275       1286       1285  
      1154       1155       1166       1165       1275       1276       1287       1286  
      1156       1157       1168       1167       1277       1278       1289       1288  
      1157       1158       1169       1168       1278       1279       1290       1289  
      1158       1159       1170       1169       1279       1280       1291       1290  
      1159       1160       1171       1170       1280       1281       1292       1291  
      1160       1161       1172       1171       1281       1282       1293       1292  
      1161       1162       1173       1172       1282       1283       1294       1293  
      1162       1163       1174       1173       1283       1284       1295       1294  
      1163       1164       1175       1174       1284       1285       1296       1295  
      1164       1165       1176       1175       1285       1286       1297       1296  
      1165       1166       1177       1176       1286       1287       1298       1297  
      1167       1168       1179       1178       1288       1289       1300       1299  
      1168       1169       1180       1179       1289       1290       1301       1300  
      1169       1170       1181       1180       1290       1291       1302       1301  
      1170       1171       1182       1181       1291       1292       1303       1302  
      1171       1172       1183       1182       1292       1293       1304       1303  
      1172       1173       1184       1183       1293       1294       1305       1304  
      1173       1174       1185       1184       1294       1295       1306       1305  
      1174       1175       1186       1185       1295       1296       1307       1306  
      1175       1176       1187       1186       1296       1297       1308       1307  
      1176       1177       1188       1187       1297       1298       1309       1308  
      1178       1179       1190       1189       1299       1300       1311       1310  
      1179       1180       1191       1190       1300       1301       1312       1311  
      1180       1181       1192       1191       1301       1302       1313       1312  
      1181       1182       1193       1192       1302       1303       1314       1313  
      1182       1183       1194       1193       1303       1304       1315       1314  
      1183       1184       1195       1194       1304       1305       1316       1315  
      1184       1185       1196       1195       1305       1306       1317       1316  
      1185       1186       1197       1196       1306       1307       1318       1317  
      1186       1187       1198       1197       1307       1308       1319       1318  
      1187       1188       1199       1198       1308       1309       1320       1319  
      1189       1190       1201       1200       1310       1311       1322       1321  
      1190       1191       1202       1201       1311       1312       1323       1322  
      1191       1192       1203       1202       1312       1313       1324       1323  
      1192       1193       1204       1203       1313       1314       1325       1324  
      1193       1194       1205       1204       1314       1315       1326       1325  
      1194       1195       1206       1205       1315       1316       1327       1326  
      1195       1196       1207       1206       1316       1317       1328       1327  
      1196       1197       1208       1207       1317       1318       1329       1328  
      1197       1198       1209       1208       1318       1319       1330       1329  
      1198       1199       1210       1209       1319       1320       1331       1330  
      1211       1212       1223       1222       1332       1333       1344       1343  
      1212       1213       1224       1223       1333       1334       1345       1344  
      1213       1214       1225       1224       1334       1335       1346       1345  
      1214       1215       1226       1225       1335       1336       1347       1346  
      1215       1216       1227       1226       1336       1337       1348       1347  
      1216       1217       1228       1227       1337       1338       1349       1348  
      1217       1218       1229       1228       1338       1339       1350       1349  
      1218       1219       1230       1229       1339       1340       1351       1350  
      1219       1220       1231       1230       1340       1341       1352       1351  
      1220       1221       1232       1231       1341       1342       1353       1352  
      1222       1223       1234       1233       1343       1344       1355       1354  
      1223       1224       1235       1234       1344       1345       1356       1355  
      1224       1225       1236       1235       1345       1346       1357       1356  
      1225       1226       1237       1236       1346       1347       1358       1357  
      1226       1227       1238       1237       1347       1348       1359       1358  
      1227       1228       1239       1238       1348       1349       1360       1359  
      1228       1229       1240       1239       1349       1350       1361       1360  
      1229       1230       1241       1240       1350       1351       1362       1361  
      1230       1231       1242       1241       1351       1352       1363       1362  
      1231       1232       1243       1242       1352       1353       1364       1363  
      1233       1234       1245       1244       1354       1355       1366       1365  
      1234       1235       1246       1245       1355       1356       1367       1366  
      1235       1236       1247       1246       1356       1357       1368       1367  
      1236       1237       1248       1247       1357       1358       1369       1368  
      1237       1238       1249       1248       1358       1359       1370       1369  
      1238       1239       1250       1249       1359       1360       1371       1370  
      1239       1240       1251       1250       1360       1361       1372       1371  
      1240       1241       1252       1251       1361       1362       1373       1372  
      1241       1242       1253       1252       1362       1363       1374       1373  
      1242       1243       1254       1253       1363       1364       1375       1374  
      1244       1245       1256       1255       1365       1366       1377       1376  
      1245       1246       1257       1256       1366       1367       1378       1377  
      1246       1247       1258       1257       1367       1368       1379       1378  
      1247       1248       1259       1258       1368       1369       1380       1379  
      1248       1249       1260       1259       1369       1370       1381       1380  
      1249       1250       1261       1260       1370       1371       1382       1381  
      1250       1251       1262       1261       1371       1372       1383       1382  
      1251       1252       1263       1262       1372       1373       1384       1383  
      1252       1253       1264       1263       1373       1374       1385       1384  
      1253       1254       1265       1264       1374       1375       1386       1385  
      1255       1256       1267       1266       1376       1377       1388       1387  
      1256       1257       1268       1267       1377       1378       1389       1388  
      1257       1258       1269       1268       1378       1379       1390       1389  
      1258       1259       1270       1269       1379       1380       1391       1390  
      1259       1260       1271       1270       1380       1381       1392       1391  
      1260       1261       1272       1271       1381       1382       1393       1392  
      1261       1262       1273       1272       1382       1383       1394       1393  
      1262       1263       1274       1273       1383       1384       1395       1394  
      1263       1264       1275       1274       1384       1385       1396       1395  
      1264       1265       1276       1275       1385       1386       1397       1396  
      1266       1267       1278       1277       1387       1388       1399       1398  
      1267       1268       1279       1278       1388       1389       1400       1399  
      1268       1269       1280       1279       1389       1390       1401       1400  
      1269       1270       1281       1280       1390       1391       1402       1401  
      1270       1271       1282       1281       1391       1392       1403       1402  
      1271       1272       1283       1282       1392       1393       1404       1403  
      1272       1273       1284       1283       1393       1394       1405       1404  
      1273       1274       1285       1284       1394       1395       1406       1405  
      1274       1275       1286       1285       1395       1396       1407       1406  
      1275       1276       1287       1286       1396       1397       1408       1407  
      1277       1278       1289       1288       1398       1399       1410       1409  
      1278       1279       1290       1289       1399       1400       1411       1410  
      1279       1280       1291       1290       1400       1401       1412       1411  
      1280       1281       1292       1291       1401       1402       1413       1412  
      1281       1282       1293       1292       1402       1403       1414       1413  
      1282       1283       1294       1293       1403       1404       1415       1414  
      1283       1284       1295       1294       1404       1405       1416       1415  
      1284       1285       1296       1295       1405       1406       1417       1416  
      1285       1286       1297       1296       1406       1407       1418       1417  
      1286       1287       1298       1297       1407       1408       1419       1418  
      1288       1289       1300       1299       1409       1410       1421       1420  
      1289       1290       1301       1300       1410       1411       1422       1421  
      1290       1291       1302       1301       1411       1412       1423       1422  
      1291       1292       1303       1302       1412       1413       1424       1423  
      1292       1293       1304       1303       1413       1414       1425       1424  
      1293       1294       1305       1304       1414       1415       1426       1425  
      1294       1295       1306       1305       1415       1416       1427       1426  
      1295       1296       1307       1306       1416       1417       1428       1427  
      1296       1297       1308       1307       1417       1418       1429       1428  
      1297       1298       1309       1308       1418       1419       1430       1429  
      1299       1300       1311       1310       1420       1421       1432       1431  
      1300       1301       1312       1311       1421       1422       1433       1432  
      1301       1302       1313       1312       1422       1423       1434       1433  
      1302       1303       1314       1313       1423       1424       1435       1434  
      1303       1304       1315       1314       1424       1425       1436       1435  
      1304       1305       1316       1315       1425       1426       1437       1436  
      1305       1306       1317       1316       1426       1427       1438       1437  
      1306       1307       1318       1317       1427       1428       1439       1438  
      1307       1308       1319       1318       1428       1429       1440       1439  
      1308       1309       1320       1319       1429       1430       1441       1440  
      1310       1311       1322       1321       1431       1432       1443       1442  
      1311       1312       1323       1322       1432       1433       1444       1443  
      1312       1313       1324       1323       1433       1434       1445       1444  
      1313       1314       1325       1324       1434       1435       1446       1445  
      1314       1315       1326       1325       1435       1436       1447       1446  
      1315       1316       1327       1326       1436       1437       1448       1447  
      1316       1317       1328       1327       1437       1438       1449       1448  
      1317       1318       1329       1328       1438       1439       1450       1449  
      1318       1319       1330       1329       1439       1440       1451       1450  
      1319       1320       1331       1330       1440       1441       1452       1451  
      1332       1333       1344       1343       1453       1454       1465       1464  
      1333       1334       1345       1344       1454       1455       1466       1465  
      1334       1335       1346       1345       1455       1456       1467       1466  
      1335       1336       1347       1346       1456       1457       1468       1467  
      1336       1337       1348       1347       1457       1458       1469       1468  
      1337       1338       1349       1348       1458       1459       1470       1469  
      1338       1339       1350       1349       1459       1460       1471       1470  
      1339       1340       1351       1350       1460       1461       1472       1471  
      1340       1341       1352       1351       1461       1462       1473       1472  
      1341       1342       1353       1352       1462       1463       1474       1473  
      1343       1344       1355       1354       1464       1465       1476       1475  
      1344       1345       1356       1355       1465       1466       1477       1476  
      1345       1346       1357       1356       1466       1467       1478       1477  
      1346       1347       1358       1357       1467       1468       1479       1478  
      1347       1348       1359       1358       1468       1469       1480       1479  
      1348       1349       1360       1359       1469       1470       1481       1480  
      1349       1350       1361       1360       1470       1471       1482       1481  
      1350       1351       1362       1361       1471       1472       1483       1482  
      1351       1352       1363       1362       1472       1473       1484       1483  
      1352       1353       1364       1363       1473       1474       1485       1484  
      1354       1355       1366       1365       1475       1476       1487       1486  
      1355       1356       1367       1366       1476       1477       1488       1487  
      1356       1357       1368       1367       1477       1478       1489       1488  
      1357       1358       1369       1368       1478       1479       1490       1489  
      1358       1359       1370       1369       1479       1480       1491       1490  
      1359       1360       1371       1370       1480       1481       1492       1491  
      1360       1361       1372       1371       1481       1482       1493       1492  
      1361       1362       1373       1372       1482       1483       1494       1493  
      1362       1363       1374       1373       1483       1484       1495       1494  
      1363       1364       1375       1374       1484       1485       1496       1495  
      1365       1366       1377       1376       1486       1487       1498       1497  
      1366       1367       1378       1377       1487       1488       1499       1498  
      1367       1368       1379       1378       1488       1489       1500       1499  
      1368       1369       1380       1379       1489       1490       1501       1500  
      1369       1370       1381       1380       1490       1491       1502       1501  
      1370       1371       1382       1381       1491       1492       1503       1502  
      1371       1372       1383       1382       1492       1493       1504       1503  
      1372       1373       1384       1383       1493       1494       1505       1504  
      1373       1374       1385       1384       1494       1495       1506       1505  
      1374       1375       1386       1385       1495       1496       1507       1506  
      1376       1377       1388       1387       1497       1498       1509       1508  
      1377       1378       1389       1388       1498       1499       1510       1509  
      1378       1379       1390       1389       1499       1500       1511       1510  
      1379       1380       1391       1390       1500       1501       1512       1511  
      1380       1381       1392       1391       1501       1502       1513       1512  
      1381       1382       1393       1392       1502       1503       1514       1513  
      1382       1383       1394       1393       1503       1504       1515       1514  
      1383       1384       1395       1394       1504       1505       1516       1515  
      1384       1385       1396       1395       1505       1506       1517       1516  
      1385       1386       1397       1396       1506       1507       1518       1517  
      1387       1388       1399       1398       1508       1509       1520       1519  
      1388       1389       1400       1399       1509       1510       1521       1520  
      1389       1390       1401       1400       1510       1511       1522       1521  
      1390       1391       1402       1401       1511       1512       1523       1522  
      1391       1392       1403       1402       1512       1513       1524       1523  
      1392       1393       1404       1403       1513       1514       1525       1524  
      1393       1394       1405       1404       1514       1515       1526       1525  
      1394       1395       1406       1405       1515       1516       1527       1526  
      1395       1396       1407       1406       1516       1517       1528       1527  
      1396       1397       1408       1407       1517       1518       1529       1528  
      1398       1399       1410       1409       1519       1520       1531       1530  
      1399       1400       1411       1410       1520       1521       1532       1531  
      1400       1401       1412       1411       1521       1522       1533       1532  
      1401       1402       1413       1412       1522       1523       1534       1533  
      1402       1403       1414       1413       1523       1524       1535       1534  
      1403       1404       1415       1414       1524       1525       1536       1535  
      1404       1405       1416       1415       1525       1526       1537       1536  
      1405       1406       1417       1416       1526       1527       1538       1537  
      1406       1407       1418       1417       1527       1528       1539       1538  
      1407       1408       1419       1418       1528       1529       1540       1539  
      1409       1410       1421       1420       1530       1531       1542       1541  
      1410       1411       1422       1421       1531       1532       1543       1542  
      1411       1412       1423       1422       1532       1533       1544       1543  
      1412       1413       1424       1423       1533       1534       1545       1544  
      1413       1414       1425       1424       1534       1535       1546       1545  
      1414       1415       1426       1425       1535       1536       1547       1546  
      1415       1416       1427       1426       1536       1537       1548       1547  
      1416       1417       1428       1427       1537       1538       1549       1548  
      1417       1418       1429       1428       1538       1539       1550       1549  
      1418       1419       1430       1429       1539       1540       1551       1550  
      1420       1421       1432       1431       1541       1542       1553       1552  
      1421       1422       1433       1432       1542       1543       1554       1553  
      1422       1423       1434       1433       1543       1544       1555       1554  
      1423       1424       1435       1434       1544       1545       1556       1555  
      1424       1425       1436       1435       1545       1546       1557       1556  
      1425       1426       1437       1436       1546       1547       1558       1557  
      1426       1427       1438       1437       1547       1548       1559       1558  
      1427       1428       1439       1438       1548       1549       1560       1559  
      1428       1429       1440       1439       1549       1550       1561       1560  
      1429       1430       1441       1440       1550       1551       1562       1561  
      1431       1432       1443       1442       1552       1553       1564       1563  
      1432       1433       1444       1443       1553       1554       1565       1564  
      1433       1434       1445       1444       1554       1555       1566       1565  
      1434       1435       1446       1445       1555       1556       1567       1566  
      1435       1436       1447       1446       1556       1557       1568       1567  
      1436       1437       1448       1447       1557       1558       1569       1568  
      1437       1438       1449       1448       1558       1559       1570       1569  
      1438       1439       1450       1449       1559       1560       1571       1570  
      1439       1440       1451       1450       1560       1561       1572       1571  
      1440       1441       1452       1451       1561       1562       1573       1572  
      1453       1454       1465       1464       1574       1575       1586       1585  
      1454       1455       1466       1465       1575       1576       1587       1586  
      1455       1456       1467       1466       1576       1577       1588       1587  
      1456       1457       1468       1467       1577       1578       1589       1588  
      1457       1458       1469       1468       1578       1579       1590       1589  
      1458       1459       1470       1469       1579       1580       1591       1590  
      1459       1460       1471       1470       1580       1581       1592       1591  
      1460       1461       1472       1471       1581       1582       1593       1592  
      1461       1462       1473       1472       1582       1583       1594       1593  
      1462       1463       1474       1473       1583       1584       1595       1594  
      1464       1465       1476       1475       1585       1586       1597       1596  
      1465       1466       1477       1476       1586       1587       1598       1597  
      1466       1467       1478       1477       1587       1588       1599       1598  
      1467       1468       1479       1478       1588       1589       1600       1599  
      1468       1469       1480       1479       1589       1590       1601       1600  
      1469       1470       1481       1480       1590       1591       1602       1601  
      1470       1471       1482       1481       1591       1592       1603       1602  
      1471       1472       1483       1482       1592       1593       1604       1603  
      1472       1473       1484       1483       1593       1594       1605       1604  
      1473       1474       1485       1484       1594       1595       1606       1605  
      1475       1476       1487       1486       1596       1597       1608       1607  
      1476       1477       1488       1487       1597       1598       1609       1608  
      1477       1478       1489       1488       1598       1599       1610       1609  
      1478       1479       1490       1489       1599       1600       1611       1610  
      1479       1480       1491       1490       1600       1601       1612       1611  
      1480       1481       1492       1491       1601       1602       1613       1612  
      1481       1482       1493       1492       1602       1603       1614       1613  
      1482       1483       1494       1493       1603       1604       1615       1614  
      1483       1484       1495       1494       1604       1605       1616       1615  
      1484       1485       1496       1495       1605       1606       1617       1616  
      1486       1487       1498       1497       1607       1608       1619       1618  
      1487       1488       1499       1498       1608       1609       1620       1619  
      1488       1489       1500       1499       1609       1610       1621       1620  
      1489       1490       1501       1500       1610       1611       1622       1621  
      1490       1491       1502       1501       1611       1612       1623       1622  
      1491       1492       1503       1502       1612       1613       1624       1623  
      1492       1493       1504       1503       1613       1614       1625       1624  
      1493       1494       1505       1504       1614       1615       1626       1625  
      1494       1495       1506       1505       1615       1616       1627       1626  
      1495       1496       1507       1506       1616       1617       1628       1627  
      1497       1498       1509       1508       1618       1619       1630       1629  
      1498       1499       1510       1509       1619       1620       1631       1630  
      1499       1500       1511       1510       1620       1621       1632       1631  
      1500       1501       1512       1511       1621       1622       1633       1632  
      1501       1502       1513       1512       1622       1623       1634       1633  
      1502       1503       1514       1513       1623       1624       1635       1634  
      1503       1504       1515       1514       1624       1625       1636       1635  
      1504       1505       1516       1515       1625       1626       1637       1636  
      1505       1506       1517       1516       1626       1627       1638       1637  
      1506       1507       1518       1517       1627       1628       1639       1638  
      1508       1509       1520       1519       1629       1630       1641       1640  
      1509       1510       1521       1520       1630       1631       1642       1641  
      1510       1511       1522       1521       1631       1632       1643       1642  
      1511       1512       1523       1522       1632       1633       1644       1643  
      1512       1513       1524       1523       1633       1634       1645       1644  
      1513       1514       1525       1524       1634       1635       1646       1645  
      1514       1515       1526       1525       1635       1636       1647       1646  
      1515       1516       1527       1526       1636       1637       1648       1647  
      1516       1517       1528       1527       1637       1638       1649       1648  
      1517       1518       1529       1528       1638       1639       1650       1649  
      1519       1520       1531       1530       1640       1641       1652       1651  
      1520       1521       1532       1531       1641       1642       1653       1652  
      1521       1522       1533       1532       1642       1643       1654       1653  
      1522       1523       1534       1533       1643       1644       1655       1654  
      1523       1524       1535       1534       1644       1645       1656       1655  
      1524       1525       1536       1535       1645       1646       1657       1656  
      1525       1526       1537       1536       1646       1647       1658       1657  
      1526       1527       1538       1537       1647       1648       1659       1658  
      1527       1528       1539       1538       1648       1649       1660       1659  
      1528       1529       1540       1539       1649       1650       1661       1660  
      1530       1531       1542       1541       1651       1652       1663       1662  
      1531       1532       1543       1542       1652       1653       1664       1663  
      1532       1533       1544       1543       1653       1654       1665       1664  
      1533       1534       1545       1544       1654       1655       1666       1665  
      1534       1535       1546       1545       1655       1656       1667       1666  
      1535       1536       1547       1546       1656       1657       1668       1667  
      1536       1537       1548       1547       1657       1658       1669       1668  
      1537       1538       1549       1548       1658       1659       1670       1669  
      1538       1539       1550       1549       1659       1660       1671       1670  
      1539       1540       1551       1550       1660       1661       1672       1671  
      1541       1542       1553       1552       1662       1663       1674       1673  
      1542       1543       1554       1553       1663       1664       1675       1674  
      1543       1544       1555       1554       1664       1665       1676       1675  
      1544       1545       1556       1555       1665       1666       1677       1676  
      1545       1546       1557       1556       1666       1667       1678       1677  
      1546       1547       1558       1557       1667       1668       1679       1678  
      1547       1548       1559       1558       1668       1669       1680       1679  
      1548       1549       1560       1559       1669       1670       1681       1680  
      1549       1550       1561       1560       1670       1671       1682       1681  
      1550       1551       1562       1561       1671       1672       1683       1682  
      1552       1553       1564       1563       1673       1674       1685       1684  
      1553       1554       1565       1564       1674       1675       1686       1685  
      1554       1555       1566       1565       1675       1676       1687       1686  
      1555       1556       1567       1566       1676       1677       1688       1687  
      1556       1557       1568       1567       1677       1678       1689       1688  
      1557       1558       1569       1568       1678       1679       1690       1689  
      1558       1559       1570       1569       1679       1680       1691       1690  
      1559       1560       1571       1570       1680       1681       1692       1691  
      1560       1561       1572       1571       1681       1682       1693       1692  
      1561       1562       1573       1572       1682       1683       1694       1693  
      1574       1575       1586       1585       1695       1696       1707       1706  
      1575       1576       1587       1586       1696       1697       1708       1707  
      1576       1577       1588       1587       1697       1698       1709       1708  
      1577       1578       1589       1588       1698       1699       1710       1709  
      1578       1579       1590       1589       1699       1700       1711       1710  
      1579       1580       1591       1590       1700       1701       1712       1711  
      1580       1581       1592       1591       1701       1702       1713       1712  
      1581       1582       1593       1592       1702       1703       1714       1713  
      1582       1583       1594       1593       1703       1704       1715       1714  
      1583       1584       1595       1594       1704       1705       1716       1715  
      1585       1586       1597       1596       1706       1707       1718       1717  
      1586       1587       1598       1597       1707       1708       1719       1718  
      1587       1588       1599       1598       1708       1709       1720       1719  
      1588       1589       1600       1599       1709       1710       1721       1720  
      1589       1590       1601       1600       1710       1711       1722       1721  
      1590       1591       1602       1601       1711       1712       1723       1722  
      1591       1592       1603       1602       1712       1713       1724       1723  
      1592       1593       1604       1603       1713       1714       1725       1724  
      1593       1594       1605       1604       1714       1715       1726       1725  
      1594       1595       1606       1605       1715       1716       1727       1726  
      1596       1597       1608       1607       1717       1718       1729       1728  
      1597       1598       1609       1608       1718       1719       1730       1729  
      1598       1599       1610       1609       1719       1720       1731       1730  
      1599       1600       1611       1610       1720       1721       1732       1731  
      1600       1601       1612       1611       1721       1722       1733       1732  
      1601       1602       1613       1612       1722       1723       1734       1733  
      1602       1603       1614       1613       1723       1724       1735       1734  
      1603       1604       1615       1614       1724       1725       1736       1735  
      1604       1605       1616       1615       1725       1726       1737       1736  
      1605       1606       1617       1616       1726       1727       1738       1737  
      1607       1608       1619       1618       1728       1729       1740       1739  
      1608       1609       1620       1619       1729       1730       1741       1740  
      1609       1610       1621       1620       1730       1731       1742       1741  
      1610       1611       1622       1621       1731       1732       1743       1742  
      1611       1612       1623       1622       1732       1733       1744       1743  
      1612       1613       1624       1623       1733       1734       1745       1744  
      1613       1614       1625       1624       1734       1735       1746       1745  
      1614       1615       1626       1625       1735       1736       1747       1746  
      1615       1616       1627       1626       1736       1737       1748       1747  
      1616       1617       1628       1627       1737       1738       1749       1748  
      1618       1619       1630       1629       1739       1740       1751       1750  
      1619       1620       1631       1630       1740       1741       1752       1751  
      1620       1621       1632       1631       1741       1742       1753       1752  
      1621       1622       1633       1632       1742       1743       1754       1753  
      1622       1623       1634       1633       1743       1744       1755       1754  
      1623       1624       1635       1634       1744       1745       1756       1755  
      1624       1625       1636       1635       1745       1746       1757       1756  
      1625       1626       1637       1636       1746       1747       1758       1757  
      1626       1627       1638       1637       1747       1748       1759       1758  
      1627       1628       1639       1638       1748       1749       1760       1759  
      1629       1630       1641       1640       1750       1751       1762       1761  
      1630       1631       1642       1641       1751       1752       1763       1762  
      1631       1632       1643       1642       1752       1753       1764       1763  
      1632       1633       1644       1643       1753       1754       1765       1764  
      1633       1634       1645       1644       1754       1755       1766       1765  
      1634       1635       1646       1645       1755       1756       1767       1766  
      1635       1636       1647       1646       1756       1757       1768       1767  
      1636       1637       1648       1647       1757       1758       1769       1768  
      1637       1638       1649       1648       1758       1759       1770       1769  
      1638       1639       1650       1649       1759       1760       1771       1770  
      1640       1641       1652       1651       1761       1762       1773       1772  
      1641       1642       1653       1652       1762       1763       1774       1773  
      1642       1643       1654       1653       1763       1764       1775       1774  
      1643       1644       1655       1654       1764       1765       1776       1775  
      1644       1645       1656       1655       1765       1766       1777       1776  
      1645       1646       1657       1656       1766       1767       1778       1777  
      1646       1647       1658       1657       1767       1768       1779       1778  
      1647       1648       1659       1658       1768       1769       1780       1779  
      1648       1649       1660       1659       1769       1770       1781       1780  
      1649       1650       1661       1660       1770       1771       1782       1781  
      1651       1652       1663       1662       1772       1773       1784       1783  
      1652       1653       1664       1663       1773       1774       1785       1784  
      1653       1654       1665       1664       1774       1775       1786       1785  
      1654       1655       1666       1665       1775       1776       1787       1786  
      1655       1656       1667       1666       1776       1777       1788       1787  
      1656       1657       1668       1667       1777       1778       1789       1788  
      1657       1658       1669       1668       1778       1779       1790       1789  
      1658       1659       1670       1669       1779       1780       1791       1790  
      1659       1660       1671       1670       1780       1781       1792       1791  
      1660       1661       1672       1671       1781       1782       1793       1792  
      1662       1663       1674       1673       1783       1784       1795       1794  
      1663       1664       1675       1674       1784       1785       1796       1795  
      1664       1665       1676       1675       1785       1786       1797       1796  
      1665       1666       1677       1676       1786       1787       1798       1797  
      1666       1667       1678       1677       1787       1788       1799       1798  
      1667       1668       1679       1678       1788       1789       1800       1799  
      1668       1669       1680       1679       1789       1790       1801       1800  
      1669       1670       1681       1680       1790       1791       1802       1801  
      1670       1671       1682       1681       1791       1792       1803       1802  
      1671       1672       1683       1682       1792       1793       1804       1803  
      1673       1674       1685       1684       1794       1795       1806       1805  
      1674       1675       1686       1685       1795       1796       1807       1806  
      1675       1676       1687       1686       1796       1797       1808       1807  
      1676       1677       1688       1687       1797       1798       1809       1808  
      1677       1678       1689       1688       1798       1799       1810       1809  
      1678       1679       1690       1689       1799       1800       1811       1810  
      1679       1680       1691       1690       1800       1801       1812       1811  
      1680       1681       1692       1691       1801       1802       1813       1812  
      1681       1682       1693       1692       1802       1803       1814       1813  
      1682       1683       1694       1693       1803       1804       1815       1814  
      1695       1696       1707       1706       1816       1817       1828       1827  
      1696       1697       1708       1707       1817       1818       1829       1828  
      1697       1698       1709       1708       1818       1819       1830       1829  
      1698       1699       1710       1709       1819       1820       1831       1830  
      1699       1700       1711       1710       1820       1821       1832       1831  
      1700       1701       1712       1711       1821       1822       1833       1832  
      1701       1702       1713       1712       1822       1823       1834       1833  
      1702       1703       1714       1713       1823       1824       1835       1834  
      1703       1704       1715       1714       1824       1825       1836       1835  
      1704       1705       1716       1715       1825       1826       1837       1836  
      1706       1707       1718       1717       1827       1828       1839       1838  
      1707       1708       1719       1718       1828       1829       1840       1839  
      1708       1709       1720       1719       1829       1830       1841       1840  
      1709       1710       1721       1720       1830       1831       1842       1841  
      1710       1711       1722       1721       1831       1832       1843       1842  
      1711       1712       1723       1722       1832       1833       1844       1843  
      1712       1713       1724       1723       1833       1834       1845       1844  
      1713       1714       1725       1724       1834       1835       1846       1845  
      1714       1715       1726       1725       1835       1836       1847       1846  
      1715       1716       1727       1726       1836       1837       1848       1847  
      1717       1718       1729       1728       1838       1839       1850       1849  
      1718       1719       1730       1729       1839       1840       1851       1850  
      1719       1720       1731       1730       1840       1841       1852       1851  
      1720       1721       1732       1731       1841       1842       1853       1852  
      1721       1722       1733       1732       1842       1843       1854       1853  
      1722       1723       1734       1733       1843       1844       1855       1854  
      1723       1724       1735       1734       1844       1845       1856       1855  
      1724       1725       1736       1735       1845       1846       1857       1856  
      1725       1726       1737       1736       1846       1847       1858       1857  
      1726       1727       1738       1737       1847       1848       1859       1858  
      1728       1729       1740       1739       1849       1850       1861       1860  
      1729       1730       1741       1740       1850       1851       1862       1861  
      1730       1731       1742       1741       1851       1852       1863       1862  
      1731       1732       1743       1742       1852       1853       1864       1863  
      1732       1733       1744       1743       1853       1854       1865       1864  
      1733       1734       1745       1744       1854       1855       1866       1865  
      1734       1735       1746       1745       1855       1856       1867       1866  
      1735       1736       1747       1746       1856       1857       1868       1867  
      1736       1737       1748       1747       1857       1858       1869       1868  
      1737       1738       1749       1748       1858       1859       1870       1869  
      1739       1740       1751       1750       1860       1861       1872       1871  
      1740       1741       1752       1751       1861       1862       1873       1872  
      1741       1742       1753       1752       1862       1863       1874       1873  
      1742       1743       1754       1753       1863       1864       1875       1874  
      1743       1744       1755       1754       1864       1865       1876       1875  
      1744       1745       1756       1755       1865       1866       1877       1876  
      1745       1746       1757       1756       1866       1867       1878       1877  
      1746       1747       1758       1757       1867       1868       1879       1878  
      1747       1748       1759       1758       1868       1869       1880       1879  
      1748       1749       1760       1759       1869       1870       1881       1880  
      1750       1751       1762       1761       1871       1872       1883       1882  
      1751       1752       1763       1762       1872       1873       1884       1883  
      1752       1753       1764       1763       1873       1874       1885       1884  
      1753       1754       1765       1764       1874       1875       1886       1885  
      1754       1755       1766       1765       1875       1876       1887       1886  
      1755       1756       1767       1766       1876       1877       1888       1887  
      1756       1757       1768       1767       1877       1878       1889       1888  
      1757       1758       1769       1768       1878       1879       1890       1889  
      1758       1759       1770       1769       1879       1880       1891       1890  
      1759       1760       1771       1770       1880       1881       1892       1891  
      1761       1762       1773       1772       1882       1883       1894       1893  
      1762       1763       1774       1773       1883       1884       1895       1894  
      1763       1764       1775       1774       1884       1885       1896       1895  
      1764       1765       1776       1775       1885       1886       1897       1896  
      1765       1766       1777       1776       1886       1887       1898       1897  
      1766       1767       1778       1777       1887       1888       1899       1898  
      1767       1768       1779       1778       1888       1889       1900       1899  
      1768       1769       1780       1779       1889       1890       1901       1900  
      1769       1770       1781       1780       1890       1891       1902       1901  
      1770       1771       1782       1781       1891       1892       1903       1902  
      1772       1773       1784       1783       1893       1894       1905       1904  
      1773       1774       1785       1784       1894       1895       1906       1905  
      1774       1775       1786       1785       1895       1896       1907       1906  
      1775       1776       1787       1786       1896       1897       1908       1907  
      1776       1777       1788       1787       1897       1898       1909       1908  
      1777       1778       1789       1788       1898       1899       1910       1909  
      1778       1779       1790       1789       1899       1900       1911       1910  
      1779       1780       1791       1790       1900       1901       1912       1911  
      1780       1781       1792       1791       1901       1902       1913       1912  
      1781       1782       1793       1792       1902       1903       1914       1913  
      1783       1784       1795       1794       1904       1905       1916       1915  
      1784       1785       1796       1795       1905       1906       1917       1916  
      1785       1786       1797       1796       1906       1907       1918       1917  
      1786       1787       1798       1797       1907       1908       1919       1918  
      1787       1788       1799       1798       1908       1909       1920       1919  
      1788       1789       1800       1799       1909       1910       1921       1920  
      1789       1790       1801       1800       1910       1911       1922       1921  
      1790       1791       1802       1801       1911       1912       1923       1922  
      1791       1792       1803       1802       1912       1913       1924       1923  
      1792       1793       1804       1803       1913       1914       1925       1924  
      1794       1795       1806       1805       1915       1916       1927       1926  
      1795       1796       1807       1806       1916       1917       1928       1927  
      1796       1797       1808       1807       1917       1918       1929       1928  
      1797       1798       1809       1808       1918       1919       1930       1929  
      1798       1799       1810       1809       1919       1920       1931       1930  
      1799       1800       1811       1810       1920       1921       1932       1931  
      1800       1801       1812       1811       1921       1922       1933       1932  
      1801       1802       1813       1812       1922       1923       1934       1933  
      1802       1803       1814       1813       1923       1924       1935       1934  
      1803       1804       1815       1814       1924       1925       1936       1935  
      1816       1817       1828       1827       1937       1938       1949       1948  
      1817       1818       1829       1828       1938       1939       1950       1949  
      1818       1819       1830       1829       1939       1940       1951       1950  
      1819       1820       1831       1830       1940       1941       1952       1951  
      1820       1821       1832       1831       1941       1942       1953       1952  
      1821       1822       1833       1832       1942       1943       1954       1953  
      1822       1823       1834       1833       1943       1944       1955       1954  
      1823       1824       1835       1834       1944       1945       1956       1955  
      1824       1825       1836       1835       1945       1946       1957       1956  
      1825       1826       1837       1836       1946       1947       1958       1957  
      1827       1828       1839       1838       1948       1949       1960       1959  
      1828       1829       1840       1839       1949       1950       1961       1960  
      1829       1830       1841       1840       1950       1951       1962       1961  
      1830       1831       1842       1841       1951       1952       1963       1962  
      1831       1832       1843       1842       1952       1953       1964       1963  
      1832       1833       1844       1843       1953       1954       1965       1964  
      1833       1834       1845       1844       1954       1955       1966       1965  
      1834       1835       1846       1845       1955       1956       1967       1966  
      1835       1836       1847       1846       1956       1957       1968       1967  
      1836       1837       1848       1847       1957       1958       1969       1968  
      1838       1839       1850       1849       1959       1960       1971       1970  
      1839       1840       1851       1850       1960       1961       1972       1971  
      1840       1841       1852       1851       1961       1962       1973       1972  
      1841       1842       1853       1852       1962       1963       1974       1973  
      1842       1843       1854       1853       1963       1964       1975       1974  
      1843       1844       1855       1854       1964       1965       1976       1975  
      1844       1845       1856       1855       1965       1966       1977       1976  
      1845       1846       1857       1856       1966       1967       1978       1977  
      1846       1847       1858       1857       1967       1968       1979       1978  
      1847       1848       1859       1858       1968       1969       1980       1979  
      1849       1850       1861       1860       1970       1971       1982       1981  
      1850       1851       1862       1861       1971       1972       1983       1982  
      1851       1852       1863       1862       1972       1973       1984       1983  
      1852       1853       1864       1863       1973       1974       1985       1984  
      1853       1854       1865       1864       1974       1975       1986       1985  
      1854       1855       1866       1865       1975       1976       1987       1986  
      1855       1856       1867       1866       1976       1977       1988       1987  
      1856       1857       1868       1867       1977       1978       1989       1988  
      1857       1858       1869       1868       1978       1979       1990       1989  
      1858       1859       1870       1869       1979       1980       1991       1990  
      1860       1861       1872       1871       1981       1982       1993       1992  
      1861       1862       1873       1872       1982       1983       1994       1993  
      1862       1863       1874       1873       1983       1984       1995       1994  
      1863       1864       1875       1874       1984       1985       1996       1995  
      1864       1865       1876       1875       1985       1986       1997       1996  
      1865       1866       1877       1876       1986       1987       1998       1997  
      1866       1867       1878       1877       1987       1988       1999       1998  
      1867       1868       1879       1878       1988       1989       2000       1999  
      1868       1869       1880       1879       1989       1990       2001       2000  
      1869       1870       1881       1880       1990       1991       2002       2001  
      1871       1872       1883       1882       1992       1993       2004       2003  
      1872       1873       1884       1883       1993       1994       2005       2004  
      1873       1874       1885       1884       1994       1995       2006       2005  
      1874       1875       1886       1885       1995       1996       2007       2006  
      1875       1876       1887       1886       1996       1997       2008       2007  
      1876       1877       1888       1887       1997       1998       2009       2008  
      1877       1878       1889       1888       1998       1999       2010       2009  
      1878       1879       1890       1889       1999       2000       2011       2010  
      1879       1880       1891       1890       2000       2001       2012       2011  
      1880       1881       1892       1891       2001       2002       2013       2012  
      1882       1883       1894       1893       2003       2004       2015       2014  
      1883       1884       1895       1894       2004       2005       2016       2015  
      1884       1885       1896       1895       2005       2006       2017       2016  
      1885       1886       1897       1896       2006       2007       2018       2017  
      1886       1887       1898       1897       2007       2008       2019       2018  
      1887       1888       1899       1898       2008       2009       2020       2019  
      1888       1889       1900       1899       2009       2010       2021       2020  
      1889       1890       1901       1900       2010       2011       2022       2021  
      1890       1891       1902       1901       2011       2012       2023       2022  
      1891       1892       1903       1902       2012       2013       2024       2023  
      1893       1894       1905       1904       2014       2015       2026       2025  
      1894       1895       1906       1905       2015       2016       2027       2026  
      1895       1896       1907       1906       2016       2017       2028       2027  
      1896       1897       1908       1907       2017       2018       2029       2028  
      1897       1898       1909       1908       2018       2019       2030       2029  
      1898       1899       1910       1909       2019       2020       2031       2030  
      1899       1900       1911       1910       2020       2021       2032       2031  
      1900       1901       1912       1911       2021       2022       2033       2032  
      1901       1902       1913       1912       2022       2023       2034       2033  
      1902       1903       1914       1913       2023       2024       2035       2034  
      1904       1905       1916       1915       2025       2026       2037       2036  
      1905       1906       1917       1916       2026       2027       2038       2037  
      1906       1907       1918       1917       2027       2028       2039       2038  
      1907       1908       1919       1918       2028       2029       2040       2039  
      1908       1909       1920       1919       2029       2030       2041       2040  
      1909       1910       1921       1920       2030       2031       2042       2041  
      1910       1911       1922       1921       2031       2032       2043       2042  
      1911       1912       1923       1922       2032       2033       2044       2043  
      1912       1913       1924       1923       2033       2034       2045       2044  
      1913       1914       1925       1924       2034       2035       2046       2045  
      1915       1916       1927       1926       2036       2037       2048       2047  
      1916       1917       1928       1927       2037       2038       2049       2048  
      1917       1918       1929       1928       2038       2039       2050       2049  
      1918       1919       1930       1929       2039       2040       2051       2050  
      1919       1920       1931       1930       2040       2041       2052       2051  
      1920       1921       1932       1931       2041       2042       2053       2052  
      1921       1922       1933       1932       2042       2043       2054       2053  
      1922       1923       1934       1933       2043       2044       2055       2054  
      1923       1924       1935       1934       2044       2045       2056       2055  
      1924       1925       1936       1935       2045       2046       2057       2056  
      1937       1938       1949       1948       2058       2059       2070       2069  
      1938       1939       1950       1949       2059       2060       2071       2070  
      1939       1940       1951       1950       2060       2061       2072       2071  
      1940       1941       1952       1951       2061       2062       2073       2072  
      1941       1942       1953       1952       2062       2063       2074       2073  
      1942       1943       1954       1953       2063       2064       2075       2074  
      1943       1944       1955       1954       2064       2065       2076       2075  
      1944       1945       1956       1955       2065       2066       2077       2076  
      1945       1946       1957       1956       2066       2067       2078       2077  
      1946       1947       1958       1957       2067       2068       2079       2078  
      1948       1949       1960       1959       2069       2070       2081       2080  
      1949       1950       1961       1960       2070       2071       2082       2081  
      1950       1951       1962       1961       2071       2072       2083       2082  
      1951       1952       1963       1962       2072       2073       2084       2083  
      1952       1953       1964       1963       2073       2074       2085       2084  
      1953       1954       1965       1964       2074       2075       2086       2085  
      1954       1955       1966       1965       2075       2076       2087       2086  
      1955       1956       1967       1966       2076       2077       2088       2087  
      1956       1957       1968       1967       2077       2078       2089       2088  
      1957       1958       1969       1968       2078       2079       2090       2089  
      1959       1960       1971       1970       2080       2081       2092       2091  
      1960       1961       1972       1971       2081       2082       2093       2092  
      1961       1962       1973       1972       2082       2083       2094       2093  
      1962       1963       1974       1973       2083       2084       2095       2094  
      1963       1964       1975       1974       2084       2085       2096       2095  
      1964       1965       1976       1975       2085       2086       2097       2096  
      1965       1966       1977       1976       2086       2087       2098       2097  
      1966       1967       1978       1977       2087       2088       2099       2098  
      1967       1968       1979       1978       2088       2089       2100       2099  
      1968       1969       1980       1979       2089       2090       2101       2100  
      1970       1971       1982       1981       2091       2092       2103       2102  
      1971       1972       1983       1982       2092       2093       2104       2103  
      1972       1973       1984       1983       2093       2094       2105       2104  
      1973       1974       1985       1984       2094       2095       2106       2105  
      1974       1975       1986       1985       2095       2096       2107       2106  
      1975       1976       1987       1986       2096       2097       2108       2107  
      1976       1977       1988       1987       2097       2098       2109       2108  
      1977       1978       1989       1988       2098       2099       2110       2109  
      1978       1979       1990       1989       2099       2100       2111       2110  
      1979       1980       1991       1990       2100       2101       2112       2111  
      1981       1982       1993       1992       2102       2103       2114       2113  
      1982       1983       1994       1993       2103       2104       2115       2114  
      1983       1984       1995       1994       2104       2105       2116       2115  
      1984       1985       1996       1995       2105       2106       2117       2116  
      1985       1986       1997       1996       2106       2107       2118       2117  
      1986       1987       1998       1997       2107       2108       2119       2118  
      1987       1988       1999       1998       2108       2109       2120       2119  
      1988       1989       2000       1999       2109       2110       2121       2120  
      1989       1990       2001       2000       2110       2111       2122       2121  
      1990       1991       2002       2001       2111       2112       2123       2122  
      1992       1993       2004       2003       2113       2114       2125       2124  
      1993       1994       2005       2004       2114       2115       2126       2125  
      1994       1995       2006       2005       2115       2116       2127       2126  
      1995       1996       2007       2006       2116       2117       2128       2127  
      1996       1997       2008       2007       2117       2118       2129       2128  
      1997       1998       2009       2008       2118       2119       2130       2129  
      1998       1999       2010       2009       2119       2120       2131       2130  
      1999       2000       2011       2010       2120       2121       2132       2131  
      2000       2001       2012       2011       2121       2122       2133       2132  
      2001       2002       2013       2012       2122       2123       2134       2133  
      2003       2004       2015       2014       2124       2125       2136       2135  
      2004       2005       2016       2015       2125       2126       2137       2136  
      2005       2006       2017       2016       2126       2127       2138       2137  
      2006       2007       2018       2017       2127       2128       2139       2138  
      2007       2008       2019       2018       2128       2129       2140       2139  
      2008       2009       2020       2019       2129       2130       2141       2140  
      2009       2010       2021       2020       2130       2131       2142       2141  
      2010       2011       2022       2021       2131       2132       2143       2142  
      2011       2012       2023       2022       2132       2133       2144       2143  
      2012       2013       2024       2023       2133       2134       2145       2144  
      2014       2015       2026       2025       2135       2136       2147       2146  
      2015       2016       2027       2026       2136       2137       2148       2147  
      2016       2017       2028       2027       2137       2138       2149       2148  
      2017       2018       2029       2028       2138       2139       2150       2149  
      2018       2019       2030       2029       2139       2140       2151       2150  
      2019       2020       2031       2030       2140       2141       2152       2151  
      2020       2021       2032       2031       2141       2142       2153       2152  
      2021       2022       2033       2032       2142       2143       2154       2153  
      2022       2023       2034       2033       2143       2144       2155       2154  
      2023       2024       2035       2034       2144       2145       2156       2155  
      2025       2026       2037       2036       2146       2147       2158       2157  
      2026       2027       2038       2037       2147       2148       2159       2158  
      2027       2028       2039       2038       2148       2149       2160       2159  
      2028       2029       2040       2039       2149       2150       2161       2160  
      2029       2030       2041       2040       2150       2151       2162       2161  
      2030       2031       2042       2041       2151       2152       2163       2162  
      2031       2032       2043       2042       2152       2153       2164       2163  
      2032       2033       2044       2043       2153       2154       2165       2164  
      2033       2034       2045       2044       2154       2155       2166       2165  
      2034       2035       2046       2045       2155       2156       2167       2166  
      2036       2037       2048       2047       2157       2158       2169       2168  
      2037       2038       2049       2048       2158       2159       2170       2169  
      2038       2039       2050       2049       2159       2160       2171       2170  
      2039       2040       2051       2050       2160       2161       2172       2171  
      2040       2041       2052       2051       2161       2162       2173       2172  
      2041       2042       2053       2052       2162       2163       2174       2173  
      2042       2043       2054       2053       2163       2164       2175       2174  
      2043       2044       2055       2054       2164       2165       2176       2175  
      2044       2045       2056       2055       2165       2166       2177       2176  
      2045       2046       2057       2056       2166       2167       2178       2177  
      2058       2059       2070       2069       2179       2180       2191       2190  
      2059       2060       2071       2070       2180       2181       2192       2191  
      2060       2061       2072       2071       2181       2182       2193       2192  
      2061       2062       2073       2072       2182       2183       2194       2193  
      2062       2063       2074       2073       2183       2184       2195       2194  
      2063       2064       2075       2074       2184       2185       2196       2195  
      2064       2065       2076       2075       2185       2186       2197       2196  
      2065       2066       2077       2076       2186       2187       2198       2197  
      2066       2067       2078       2077       2187       2188       2199       2198  
      2067       2068       2079       2078       2188       2189       2200       2199  
      2069       2070       2081       2080       2190       2191       2202       2201  
      2070       2071       2082       2081       2191       2192       2203       2202  
      2071       2072       2083       2082       2192       2193       2204       2203  
      2072       2073       2084       2083       2193       2194       2205       2204  
      2073       2074       2085       2084       2194       2195       2206       2205  
      2074       2075       2086       2085       2195       2196       2207       2206  
      2075       2076       2087       2086       2196       2197       2208       2207  
      2076       2077       2088       2087       2197       2198       2209       2208  
      2077       2078       2089       2088       2198       2199       2210       2209  
      2078       2079       2090       2089       2199       2200       2211       2210  
      2080       2081       2092       2091       2201       2202       2213       2212  
      2081       2082       2093       2092       2202       2203       2214       2213  
      2082       2083       2094       2093       2203       2204       2215       2214  
      2083       2084       2095       2094       2204       2205       2216       2215  
      2084       2085       2096       2095       2205       2206       2217       2216  
      2085       2086       2097       2096       2206       2207       2218       2217  
      2086       2087       2098       2097       2207       2208       2219       2218  
      2087       2088       2099       2098       2208       2209       2220       2219  
      2088       2089       2100       2099       2209       2210       2221       2220  
      2089       2090       2101       2100       2210       2211       2222       2221  
      2091       2092       2103       2102       2212       2213       2224       2223  
      2092       2093       2104       2103       2213       2214       2225       2224  
      2093       2094       2105       2104       2214       2215       2226       2225  
      2094       2095       2106       2105       2215       2216       2227       2226  
      2095       2096       2107       2106       2216       2217       2228       2227  
      2096       2097       2108       2107       2217       2218       2229       2228  
      2097       2098       2109       2108       2218       2219       2230       2229  
      2098       2099       2110       2109       2219       2220       2231       2230  
      2099       2100       2111       2110       2220       2221       2232       2231  
      2100       2101       2112       2111       2221       2222       2233       2232  
      2102       2103       2114       2113       2223       2224       2235       2234  
      2103       2104       2115       2114       2224       2225       2236       2235  
      2104       2105       2116       2115       2225       2226       2237       2236  
      2105       2106       2117       2116       2226       2227       2238       2237  
      2106       2107       2118       2117       2227       2228       2239       2238  
      2107       2108       2119       2118       2228       2229       2240       2239  
      2108       2109       2120       2119       2229       2230       2241       2240  
      2109       2110       2121       2120       2230       2231       2242       2241  
      2110       2111       2122       2121       2231       2232       2243       2242  
      2111       2112       2123       2122       2232       2233       2244       2243  
      2113       2114       2125       2124       2234       2235       2246       2245  
      2114       2115       2126       2125       2235       2236       2247       2246  
      2115       2116       2127       2126       2236       2237       2248       2247  
      2116       2117       2128       2127       2237       2238       2249       2248  
      2117       2118       2129       2128       2238       2239       2250       2249  
      2118       2119       2130       2129       2239       2240       2251       2250  
      2119       2120       2131       2130       2240       2241       2252       2251  
      2120       2121       2132       2131       2241       2242       2253       2252  
      2121       2122       2133       2132       2242       2243       2254       2253  
      2122       2123       2134       2133       2243       2244       2255       2254  
      2124       2125       2136       2135       2245       2246       2257       2256  
      2125       2126       2137       2136       2246       2247       2258       2257  
      2126       2127       2138       2137       2247       2248       2259       2258  
      2127       2128       2139       2138       2248       2249       2260       2259  
      2128       2129       2140       2139       2249       2250       2261       2260  
      2129       2130       2141       2140       2250       2251       2262       2261  
      2130       2131       2142       2141       2251       2252       2263       2262  
      2131       2132       2143       2142       2252       2253       2264       2263  
      2132       2133       2144       2143       2253       2254       2265       2264  
      2133       2134       2145       2144       2254       2255       2266       2265  
      2135       2136       2147       2146       2256       2257       2268       2267  
      2136       2137       2148       2147       2257       2258       2269       2268  
      2137       2138       2149       2148       2258       2259       2270       2269  
      2138       2139       2150       2149       2259       2260       2271       2270  
      2139       2140       2151       2150       2260       2261       2272       2271  
      2140       2141       2152       2151       2261       2262       2273       2272  
      2141       2142       2153       2152       2262       2263       2274       2273  
      2142       2143       2154       2153       2263       2264       2275       2274  
      2143       2144       2155       2154       2264       2265       2276       2275  
      2144       2145       2156       2155       2265       2266       2277       2276  
      2146       2147       2158       2157       2267       2268       2279       2278  
      2147       2148       2159       2158       2268       2269       2280       2279  
      2148       2149       2160       2159       2269       2270       2281       2280  
      2149       2150       2161       2160       2270       2271       2282       2281  
      2150       2151       2162       2161       2271       2272       2283       2282  
      2151       2152       2163       2162       2272       2273       2284       2283  
      2152       2153       2164       2163       2273       2274       2285       2284  
      2153       2154       2165       2164       2274       2275       2286       2285  
      2154       2155       2166       2165       2275       2276       2287       2286  
      2155       2156       2167       2166       2276       2277       2288       2287  
      2157       2158       2169       2168       2278       2279       2290       2289  
      2158       2159       2170       2169       2279       2280       2291       2290  
      2159       2160       2171       2170       2280       2281       2292       2291  
      2160       2161       2172       2171       2281       2282       2293       2292  
      2161       2162       2173       2172       2282       2283       2294       2293  
      2162       2163       2174       2173       2283       2284       2295       2294  
      2163       2164       2175       2174       2284       2285       2296       2295  
      2164       2165       2176       2175       2285       2286       2297       2296  
      2165       2166       2177       2176       2286       2287       2298       2297  
      2166       2167       2178       2177       2287       2288       2299       2298  
      2179       2180       2191       2190       2300       2301       2312       2311  
      2180       2181       2192       2191       2301       2302       2313       2312  
      2181       2182       2193       2192       2302       2303       2314       2313  
      2182       2183       2194       2193       2303       2304       2315       2314  
      2183       2184       2195       2194       2304       2305       2316       2315  
      2184       2185       2196       2195       2305       2306       2317       2316  
      2185       2186       2197       2196       2306       2307       2318       2317  
      2186       2187       2198       2197       2307       2308       2319       2318  
      2187       2188       2199       2198       2308       2309       2320       2319  
      2188       2189       2200       2199       2309       2310       2321       2320  
      2190       2191       2202       2201       2311       2312       2323       2322  
      2191       2192       2203       2202       2312       2313       2324       2323  
      2192       2193       2204       2203       2313       2314       2325       2324  
      2193       2194       2205       2204       2314       2315       2326       2325  
      2194       2195       2206       2205       2315       2316       2327       2326  
      2195       2196       2207       2206       2316       2317       2328       2327  
      2196       2197       2208       2207       2317       2318       2329       2328  
      2197       2198       2209       2208       2318       2319       2330       2329  
      2198       2199       2210       2209       2319       2320       2331       2330  
      2199       2200       2211       2210       2320       2321       2332       2331  
      2201       2202       2213       2212       2322       2323       2334       2333  
      2202       2203       2214       2213       2323       2324       2335       2334  
      2203       2204       2215       2214       2324       2325       2336       2335  
      2204       2205       2216       2215       2325       2326       2337       2336  
      2205       2206       2217       2216       2326       2327       2338       2337  
      2206       2207       2218       2217       2327       2328       2339       2338  
      2207       2208       2219       2218       2328       2329       2340       2339  
      2208       2209       2220       2219       2329       2330       2341       2340  
      2209       2210       2221       2220       2330       2331       2342       2341  
      2210       2211       2222       2221       2331       2332       2343       2342  
      2212       2213       2224       2223       2333       2334       2345       2344  
      2213       2214       2225       2224       2334       2335       2346       2345  
      2214       2215       2226       2225       2335       2336       2347       2346  
      2215       2216       2227       2226       2336       2337       2348       2347  
      2216       2217       2228       2227       2337       2338       2349       2348  
      2217       2218       2229       2228       2338       2339       2350       2349  
      2218       2219       2230       2229       2339       2340       2351       2350  
      2219       2220       2231       2230       2340       2341       2352       2351  
      2220       2221       2232       2231       2341       2342       2353       2352  
      2221       2222       2233       2232       2342       2343       2354       2353  
      2223       2224       2235       2234       2344       2345       2356       2355  
      2224       2225       2236       2235       2345       2346       2357       2356  
      2225       2226       2237       2236       2346       2347       2358       2357  
      2226       2227       2238       2237       2347       2348       2359       2358  
      2227       2228       2239       2238       2348       2349       2360       2359  
      2228       2229       2240       2239       2349       2350       2361       2360  
      2229       2230       2241       2240       2350       2351       2362       2361  
      2230       2231       2242       2241       2351       2352       2363       2362  
      2231       2232       2243       2242       2352       2353       2364       2363  
      2232       2233       2244       2243       2353       2354       2365       2364  
      2234       2235       2246       2245       2355       2356       2367       2366  
      2235       2236       2247       2246       2356       2357       2368       2367  
      2236       2237       2248       2247       2357       2358       2369       2368  
      2237       2238       2249       2248       2358       2359       2370       2369  
      2238       2239       2250       2249       2359       2360       2371       2370  
      2239       2240       2251       2250       2360       2361       2372       2371  
      2240       2241       2252       2251       2361       2362       2373       2372  
      2241       2242       2253       2252       2362       2363       2374       2373  
      2242       2243       2254       2253       2363       2364       2375       2374  
      2243       2244       2255       2254       2364       2365       2376       2375  
      2245       2246       2257       2256       2366       2367       2378       2377  
      2246       2247       2258       2257       2367       2368       2379       2378  
      2247       2248       2259       2258       2368       2369       2380       2379  
      2248       2249       2260       2259       2369       2370       2381       2380  
      2249       2250       2261       2260       2370       2371       2382       2381  
      2250       2251       2262       2261       2371       2372       2383       2382  
      2251       2252       2263       2262       2372       2373       2384       2383  
      2252       2253       2264       2263       2373       2374       2385       2384  
      2253       2254       2265       2264       2374       2375       2386       2385  
      2254       2255       2266       2265       2375       2376       2387       2386  
      2256       2257       2268       2267       2377       2378       2389       2388  
      2257       2258       2269       2268       2378       2379       2390       2389  
      2258       2259       2270       2269       2379       2380       2391       2390  
      2259       2260       2271       2270       2380       2381       2392       2391  
      2260       2261       2272       2271       2381       2382       2393       2392  
      2261       2262       2273       2272       2382       2383       2394       2393  
      2262       2263       2274       2273       2383       2384       2395       2394  
      2263       2264       2275       2274       2384       2385       2396       2395  
      2264       2265       2276       2275       2385       2386       2397       2396  
      2265       2266       2277       2276       2386       2387       2398       2397  
      2267       2268       2279       2278       2388       2389       2400       2399  
      2268       2269       2280       2279       2389       2390       2401       2400  
      2269       2270       2281       2280       2390       2391       2402       2401  
      2270       2271       2282       2281       2391       2392       2403       2402  
      2271       2272       2283       2282       2392       2393       2404       2403  
      2272       2273       2284       2283       2393       2394       2405       2404  
      2273       2274       2285       2284       2394       2395       2406       2405  
      2274       2275       2286       2285       2395       2396       2407       2406  
      2275       2276       2287       2286       2396       2397       2408       2407  
      2276       2277       2288       2287       2397       2398       2409       2408  
      2278       2279       2290       2289       2399       2400       2411       2410  
      2279       2280       2291       2290       2400       2401       2412       2411  
      2280       2281       2292       2291       2401       2402       2413       2412  
      2281       2282       2293       2292       2402       2403       2414       2413  
      2282       2283       2294       2293       2403       2404       2415       2414  
      2283       2284       2295       2294       2404       2405       2416       2415  
      2284       2285       2296       2295       2405       2406       2417       2416  
      2285       2286       2297       2296       2406       2407       2418       2417  
      2286       2287       2298       2297       2407       2408       2419       2418  
      2287       2288       2299       2298       2408       2409       2420       2419  
      2300       2301       2312       2311       2421       2422       2433       2432  
      2301       2302       2313       2312       2422       2423       2434       2433  
      2302       2303       2314       2313       2423       2424       2435       2434  
      2303       2304       2315       2314       2424       2425       2436       2435  
      2304       2305       2316       2315       2425       2426       2437       2436  
      2305       2306       2317       2316       2426       2427       2438       2437  
      2306       2307       2318       2317       2427       2428       2439       2438  
      2307       2308       2319       2318       2428       2429       2440       2439  
      2308       2309       2320       2319       2429       2430       2441       2440  
      2309       2310       2321       2320       2430       2431       2442       2441  
      2311       2312       2323       2322       2432       2433       2444       2443  
      2312       2313       2324       2323       2433       2434       2445       2444  
      2313       2314       2325       2324       2434       2435       2446       2445  
      2314       2315       2326       2325       2435       2436       2447       2446  
      2315       2316       2327       2326       2436       2437       2448       2447  
      2316       2317       2328       2327       2437       2438       2449       2448  
      2317       2318       2329       2328       2438       2439       2450       2449  
      2318       2319       2330       2329       2439       2440       2451       2450  
      2319       2320       2331       2330       2440       2441       2452       2451  
      2320       2321       2332       2331       2441       2442       2453       2452  
      2322       2323       2334       2333       2443       2444       2455       2454  
      2323       2324       2335       2334       2444       2445       2456       2455  
      2324       2325       2336       2335       2445       2446       2457       2456  
      2325       2326       2337       2336       2446       2447       2458       2457  
      2326       2327       2338       2337       2447       2448       2459       2458  
      2327       2328       2339       2338       2448       2449       2460       2459  
      2328       2329       2340       2339       2449       2450       2461       2460  
      2329       2330       2341       2340       2450       2451       2462       2461  
      2330       2331       2342       2341       2451       2452       2463       2462  
      2331       2332       2343       2342       2452       2453       2464       2463  
      2333       2334       2345       2344       2454       2455       2466       2465  
      2334       2335       2346       2345       2455       2456       2467       2466  
      2335       2336       2347       2346       2456       2457       2468       2467  
      2336       2337       2348       2347       2457       2458       2469       2468  
      2337       2338       2349       2348       2458       2459       2470       2469  
      2338       2339       2350       2349       2459       2460       2471       2470  
      2339       2340       2351       2350       2460       2461       2472       2471  
      2340       2341       2352       2351       2461       2462       2473       2472  
      2341       2342       2353       2352       2462       2463       2474       2473  
      2342       2343       2354       2353       2463       2464       2475       2474  
      2344       2345       2356       2355       2465       2466       2477       2476  
      2345       2346       2357       2356       2466       2467       2478       2477  
      2346       2347       2358       2357       2467       2468       2479       2478  
      2347       2348       2359       2358       2468       2469       2480       2479  
      2348       2349       2360       2359       2469       2470       2481       2480  
      2349       2350       2361       2360       2470       2471       2482       2481  
      2350       2351       2362       2361       2471       2472       2483       2482  
      2351       2352       2363       2362       2472       2473       2484       2483  
      2352       2353       2364       2363       2473       2474       2485       2484  
      2353       2354       2365       2364       2474       2475       2486       2485  
      2355       2356       2367       2366       2476       2477       2488       2487  
      2356       2357       2368       2367       2477       2478       2489       2488  
      2357       2358       2369       2368       2478       2479       2490       2489  
      2358       2359       2370       2369       2479       2480       2491       2490  
      2359       2360       2371       2370       2480       2481       2492       2491  
      2360       2361       2372       2371       2481       2482       2493       2492  
      2361       2362       2373       2372       2482       2483       2494       2493  
      2362       2363       2374       2373       2483       2484       2495       2494  
      2363       2364       2375       2374       2484       2485       2496       2495  
      2364       2365       2376       2375       2485       2486       2497       2496  
      2366       2367       2378       2377       2487       2488       2499       2498  
      2367       2368       2379       2378       2488       2489       2500       2499  
      2368       2369       2380       2379       2489       2490       2501       2500  
      2369       2370       2381       2380       2490       2491       2502       2501  
      2370       2371       2382       2381       2491       2492       2503       2502  
      2371       2372       2383       2382       2492       2493       2504       2503  
      2372       2373       2384       2383       2493       2494       2505       2504  
      2373       2374       2385       2384       2494       2495       2506       2505  
      2374       2375       2386       2385       2495       2496       2507       2506  
      2375       2376       2387       2386       2496       2497       2508       2507  
      2377       2378       2389       2388       2498       2499       2510       2509  
      2378       2379       2390       2389       2499       2500       2511       2510  
      2379       2380       2391       2390       2500       2501       2512       2511  
      2380       2381       2392       2391       2501       2502       2513       2512  
      2381       2382       2393       2392       2502       2503       2514       2513  
      2382       2383       2394       2393       2503       2504       2515       2514  
      2383       2384       2395       2394       2504       2505       2516       2515  
      2384       2385       2396       2395       2505       2506       2517       2516  
      2385       2386       2397       2396       2506       2507       2518       2517  
      2386       2387       2398       2397       2507       2508       2519       2518  
      2388       2389       2400       2399       2509       2510       2521       2520  
      2389       2390       2401       2400       2510       2511       2522       2521  
      2390       2391       2402       2401       2511       2512       2523       2522  
      2391       2392       2403       2402       2512       2513       2524       2523  
      2392       2393       2404       2403       2513       2514       2525       2524  
      2393       2394       2405       2404       2514       2515       2526       2525  
      2394       2395       2406       2405       2515       2516       2527       2526  
      2395       2396       2407       2406       2516       2517       2528       2527  
      2396       2397       2408       2407       2517       2518       2529       2528  
      2397       2398       2409       2408       2518       2519       2530       2529  
      2399       2400       2411       2410       2520       2521       2532       2531  
      2400       2401       2412       2411       2521       2522       2533       2532  
      2401       2402       2413       2412       2522       2523       2534       2533  
      2402       2403       2414       2413       2523       2524       2535       2534  
      2403       2404       2415       2414       2524       2525       2536       2535  
      2404       2405       2416       2415       2525       2526       2537       2536  
      2405       2406       2417       2416       2526       2527       2538       2537  
      2406       2407       2418       2417       2527       2528       2539       2538  
      2407       2408       2419       2418       2528       2529       2540       2539  
      2408       2409       2420       2419       2529       2530       2541       2540  
      2421       2422       2433       2432       2542       2543       2554       2553  
      2422       2423       2434       2433       2543       2544       2555       2554  
      2423       2424       2435       2434       2544       2545       2556       2555  
      2424       2425       2436       2435       2545       2546       2557       2556  
      2425       2426       2437       2436       2546       2547       2558       2557  
      2426       2427       2438       2437       2547       2548       2559       2558  
      2427       2428       2439       2438       2548       2549       2560       2559  
      2428       2429       2440       2439       2549       2550       2561       2560  
      2429       2430       2441       2440       2550       2551       2562       2561  
      2430       2431       2442       2441       2551       2552       2563       2562  
      2432       2433       2444       2443       2553       2554       2565       2564  
      2433       2434       2445       2444       2554       2555       2566       2565  
      2434       2435       2446       2445       2555       2556       2567       2566  
      2435       2436       2447       2446       2556       2557       2568       2567  
      2436       2437       2448       2447       2557       2558       2569       2568  
      2437       2438       2449       2448       2558       2559       2570       2569  
      2438       2439       2450       2449       2559       2560       2571       2570  
      2439       2440       2451       2450       2560       2561       2572       2571  
      2440       2441       2452       2451       2561       2562       2573       2572  
      2441       2442       2453       2452       2562       2563       2574       2573  
      2443       2444       2455       2454       2564       2565       2576       2575  
      2444       2445       2456       2455       2565       2566       2577       2576  
      2445       2446       2457       2456       2566       2567       2578       2577  
      2446       2447       2458       2457       2567       2568       2579       2578  
      2447       2448       2459       2458       2568       2569       2580       2579  
      2448       2449       2460       2459       2569       2570       2581       2580  
      2449       2450       2461       2460       2570       2571       2582       2581  
      2450       2451       2462       2461       2571       2572       2583       2582  
      2451       2452       2463       2462       2572       2573       2584       2583  
      2452       2453       2464       2463       2573       2574       2585       2584  
      2454       2455       2466       2465       2575       2576       2587       2586  
      2455       2456       2467       2466       2576       2577       2588       2587  
      2456       2457       2468       2467       2577       2578       2589       2588  
      2457       2458       2469       2468       2578       2579       2590       2589  
      2458       2459       2470       2469       2579       2580       2591       2590  
      2459       2460       2471       2470       2580       2581       2592       2591  
      2460       2461       2472       2471       2581       2582       2593       2592  
      2461       2462       2473       2472       2582       2583       2594       2593  
      2462       2463       2474       2473       2583       2584       2595       2594  
      2463       2464       2475       2474       2584       2585       2596       2595  
      2465       2466       2477       2476       2586       2587       2598       2597  
      2466       2467       2478       2477       2587       2588       2599       2598  
      2467       2468       2479       2478       2588       2589       2600       2599  
      2468       2469       2480       2479       2589       2590       2601       2600  
      2469       2470       2481       2480       2590       2591       2602       2601  
      2470       2471       2482       2481       2591       2592       2603       2602  
      2471       2472       2483       2482       2592       2593       2604       2603  
      2472       2473       2484       2483       2593       2594       2605       2604  
      2473       2474       2485       2484       2594       2595       2606       2605  
      2474       2475       2486       2485       2595       2596       2607       2606  
      2476       2477       2488       2487       2597       2598       2609       2608  
      2477       2478       2489       2488       2598       2599       2610       2609  
      2478       2479       2490       2489       2599       2600       2611       2610  
      2479       2480       2491       2490       2600       2601       2612       2611  
      2480       2481       2492       2491       2601       2602       2613       2612  
      2481       2482       2493       2492       2602       2603       2614       2613  
      2482       2483       2494       2493       2603       2604       2615       2614  
      2483       2484       2495       2494       2604       2605       2616       2615  
      2484       2485       2496       2495       2605       2606       2617       2616  
      2485       2486       2497       2496       2606       2607       2618       2617  
      2487       2488       2499       2498       2608       2609       2620       2619  
      2488       2489       2500       2499       2609       2610       2621       2620  
      2489       2490       2501       2500       2610       2611       2622       2621  
      2490       2491       2502       2501       2611       2612       2623       2622  
      2491       2492       2503       2502       2612       2613       2624       2623  
      2492       2493       2504       2503       2613       2614       2625       2624  
      2493       2494       2505       2504       2614       2615       2626       2625  
      2494       2495       2506       2505       2615       2616       2627       2626  
      2495       2496       2507       2506       2616       2617       2628       2627  
      2496       2497       2508       2507       2617       2618       2629       2628  
      2498       2499       2510       2509       2619       2620       2631       2630  
      2499       2500       2511       2510       2620       2621       2632       2631  
      2500       2501       2512       2511       2621       2622       2633       2632  
      2501       2502       2513       2512       2622       2623       2634       2633  
      2502       2503       2514       2513       2623       2624       2635       2634  
      2503       2504       2515       2514       2624       2625       2636       2635  
      2504       2505       2516       2515       2625       2626       2637       2636  
      2505       2506       2517       2516       2626       2627       2638       2637  
      2506       2507       2518       2517       2627       2628       2639       2638  
      2507       2508       2519       2518       2628       2629       2640       2639  
      2509       2510       2521       2520       2630       2631       2642       2641  
      2510       2511       2522       2521       2631       2632       2643       2642  
      2511       2512       2523       2522       2632       2633       2644       2643  
      2512       2513       2524       2523       2633       2634       2645       2644  
      2513       2514       2525       2524       2634       2635       2646       2645  
      2514       2515       2526       2525       2635       2636       2647       2646  
      2515       2516       2527       2526       2636       2637       2648       2647  
      2516       2517       2528       2527       2637       2638       2649       2648  
      2517       2518       2529       2528       2638       2639       2650       2649  
      2518       2519       2530       2529       2639       2640       2651       2650  
      2520       2521       2532       2531       2641       2642       2653       2652  
      2521       2522       2533       2532       2642       2643       2654       2653  
      2522       2523       2534       2533       2643       2644       2655       2654  
      2523       2524       2535       2534       2644       2645       2656       2655  
      2524       2525       2536       2535       2645       2646       2657       2656  
      2525       2526       2537       2536       2646       2647       2658       2657  
      2526       2527       2538       2537       2647       2648       2659       2658  
      2527       2528       2539       2538       2648       2649       2660       2659  
      2528       2529       2540       2539       2649       2650       2661       2660  
      2529       2530       2541       2540       2650       2651       2662       2661  
      2542       2543       2554       2553       2663       2664       2675       2674  
      2543       2544       2555       2554       2664       2665       2676       2675  
      2544       2545       2556       2555       2665       2666       2677       2676  
      2545       2546       2557       2556       2666       2667       2678       2677  
      2546       2547       2558       2557       2667       2668       2679       2678  
      2547       2548       2559       2558       2668       2669       2680       2679  
      2548       2549       2560       2559       2669       2670       2681       2680  
      2549       2550       2561       2560       2670       2671       2682       2681  
      2550       2551       2562       2561       2671       2672       2683       2682  
      2551       2552       2563       2562       2672       2673       2684       2683  
      2553       2554       2565       2564       2674       2675       2686       2685  
      2554       2555       2566       2565       2675       2676       2687       2686  
      2555       2556       2567       2566       2676       2677       2688       2687  
      2556       2557       2568       2567       2677       2678       2689       2688  
      2557       2558       2569       2568       2678       2679       2690       2689  
      2558       2559       2570       2569       2679       2680       2691       2690  
      2559       2560       2571       2570       2680       2681       2692       2691  
      2560       2561       2572       2571       2681       2682       2693       2692  
      2561       2562       2573       2572       2682       2683       2694       2693  
      2562       2563       2574       2573       2683       2684       2695       2694  
      2564       2565       2576       2575       2685       2686       2697       2696  
      2565       2566       2577       2576       2686       2687       2698       2697  
      2566       2567       2578       2577       2687       2688       2699       2698  
      2567       2568       2579       2578       2688       2689       2700       2699  
      2568       2569       2580       2579       2689       2690       2701       2700  
      2569       2570       2581       2580       2690       2691       2702       2701  
      2570       2571       2582       2581       2691       2692       2703       2702  
      2571       2572       2583       2582       2692       2693       2704       2703  
      2572       2573       2584       2583       2693       2694       2705       2704  
      2573       2574       2585       2584       2694       2695       2706       2705  
      2575       2576       2587       2586       2696       2697       2708       2707  
      2576       2577       2588       2587       2697       2698       2709       2708  
      2577       2578       2589       2588       2698       2699       2710       2709  
      2578       2579       2590       2589       2699       2700       2711       2710  
      2579       2580       2591       2590       2700       2701       2712       2711  
      2580       2581       2592       2591       2701       2702       2713       2712  
      2581       2582       2593       2592       2702       2703       2714       2713  
      2582       2583       2594       2593       2703       2704       2715       2714  
      2583       2584       2595       2594       2704       2705       2716       2715  
      2584       2585       2596       2595       2705       2706       2717       2716  
      2586       2587       2598       2597       2707       2708       2719       2718  
      2587       2588       2599       2598       2708       2709       2720       2719  
      2588       2589       2600       2599       2709       2710       2721       2720  
      2589       2590       2601       2600       2710       2711       2722       2721  
      2590       2591       2602       2601       2711       2712       2723       2722  
      2591       2592       2603       2602       2712       2713       2724       2723  
      2592       2593       2604       2603       2713       2714       2725       2724  
      2593       2594       2605       2604       2714       2715       2726       2725  
      2594       2595       2606       2605       2715       2716       2727       2726  
      2595       2596       2607       2606       2716       2717       2728       2727  
      2597       2598       2609       2608       2718       2719       2730       2729  
      2598       2599       2610       2609       2719       2720       2731       2730  
      2599       2600       2611       2610       2720       2721       2732       2731  
      2600       2601       2612       2611       2721       2722       2733       2732  
      2601       2602       2613       2612       2722       2723       2734       2733  
      2602       2603       2614       2613       2723       2724       2735       2734  
      2603       2604       2615       2614       2724       2725       2736       2735  
      2604       2605       2616       2615       2725       2726       2737       2736  
      2605       2606       2617       2616       2726       2727       2738       2737  
      2606       2607       2618       2617       2727       2728       2739       2738  
      2608       2609       2620       2619       2729       2730       2741       2740  
      2609       2610       2621       2620       2730       2731       2742       2741  
      2610       2611       2622       2621       2731       2732       2743       2742  
      2611       2612       2623       2622       2732       2733       2744       2743  
      2612       2613       2624       2623       2733       2734       2745       2744  
      2613       2614       2625       2624       2734       2735       2746       2745  
      2614       2615       2626       2625       2735       2736       2747       2746  
      2615       2616       2627       2626       2736       2737       2748       2747  
      2616       2617       2628       2627       2737       2738       2749       2748  
      2617       2618       2629       2628       2738       2739       2750       2749  
      2619       2620       2631       2630       2740       2741       2752       2751  
      2620       2621       2632       2631       2741       2742       2753       2752  
      2621       2622       2633       2632       2742       2743       2754       2753  
      2622       2623       2634       2633       2743       2744       2755       2754  
      2623       2624       2635       2634       2744       2745       2756       2755  
      2624       2625       2636       2635       2745       2746       2757       2756  
      2625       2626       2637       2636       2746       2747       2758       2757  
      2626       2627       2638       2637       2747       2748       2759       2758  
      2627       2628       2639       2638       2748       2749       2760       2759  
      2628       2629       2640       2639       2749       2750       2761       2760  
      2630       2631       2642       2641       2751       2752       2763       2762  
      2631       2632       2643       2642       2752       2753       2764       2763  
      2632       2633       2644       2643       2753       2754       2765       2764  
      2633       2634       2645       2644       2754       2755       2766       2765  
      2634       2635       2646       2645       2755       2756       2767       2766  
      2635       2636       2647       2646       2756       2757       2768       2767  
      2636       2637       2648       2647       2757       2758       2769       2768  
      2637       2638       2649       2648       2758       2759       2770       2769  
      2638       2639       2650       2649       2759       2760       2771       2770  
      2639       2640       2651       2650       2760       2761       2772       2771  
      2641       2642       2653       2652       2762       2763       2774       2773  
      2642       2643       2654       2653       2763       2764       2775       2774  
      2643       2644       2655       2654       2764       2765       2776       2775  
      2644       2645       2656       2655       2765       2766       2777       2776  
      2645       2646       2657       2656       2766       2767       2778       2777  
      2646       2647       2658       2657       2767       2768       2779       2778  
      2647       2648       2659       2658       2768       2769       2780       2779  
      2648       2649       2660       2659       2769       2770       2781       2780  
      2649       2650       2661       2660       2770       2771       2782       2781  
      2650       2651       2662       2661       2771       2772       2783       2782  
      2663       2664       2675       2674       2784       2785       2796       2795  
      2664       2665       2676       2675       2785       2786       2797       2796  
      2665       2666       2677       2676       2786       2787       2798       2797  
      2666       2667       2678       2677       2787       2788       2799       2798  
      2667       2668       2679       2678       2788       2789       2800       2799  
      2668       2669       2680       2679       2789       2790       2801       2800  
      2669       2670       2681       2680       2790       2791       2802       2801  
      2670       2671       2682       2681       2791       2792       2803       2802  
      2671       2672       2683       2682       2792       2793       2804       2803  
      2672       2673       2684       2683       2793       2794       2805       2804  
      2674       2675       2686       2685       2795       2796       2807       2806  
      2675       2676       2687       2686       2796       2797       2808       2807  
      2676       2677       2688       2687       2797       2798       2809       2808  
      2677       2678       2689       2688       2798       2799       2810       2809  
      2678       2679       2690       2689       2799       2800       2811       2810  
      2679       2680       2691       2690       2800       2801       2812       2811  
      2680       2681       2692       2691       2801       2802       2813       2812  
      2681       2682       2693       2692       2802       2803       2814       2813  
      2682       2683       2694       2693       2803       2804       2815       2814  
      2683       2684       2695       2694       2804       2805       2816       2815  
      2685       2686       2697       2696       2806       2807       2818       2817  
      2686       2687       2698       2697       2807       2808       2819       2818  
      2687       2688       2699       2698       2808       2809       2820       2819  
      2688       2689       2700       2699       2809       2810       2821       2820  
      2689       2690       2701       2700       2810       2811       2822       2821  
      2690       2691       2702       2701       2811       2812       2823       2822  
      2691       2692       2703       2702       2812       2813       2824       2823  
      2692       2693       2704       2703       2813       2814       2825       2824  
      2693       2694       2705       2704       2814       2815       2826       2825  
      2694       2695       2706       2705       2815       2816       2827       2826  
      2696       2697       2708       2707       2817       2818       2829       2828  
      2697       2698       2709       2708       2818       2819       2830       2829  
      2698       2699       2710       2709       2819       2820       2831       2830  
      2699       2700       2711       2710       2820       2821       2832       2831  
      2700       2701       2712       2711       2821       2822       2833       2832  
      2701       2702       2713       2712       2822       2823       2834       2833  
      2702       2703       2714       2713       2823       2824       2835       2834  
      2703       2704       2715       2714       2824       2825       2836       2835  
      2704       2705       2716       2715       2825       2826       2837       2836  
      2705       2706       2717       2716       2826       2827       2838       2837  
      2707       2708       2719       2718       2828       2829       2840       2839  
      2708       2709       2720       2719       2829       2830       2841       2840  
      2709       2710       2721       2720       2830       2831       2842       2841  
      2710       2711       2722       2721       2831       2832       2843       2842  
      2711       2712       2723       2722       2832       2833       2844       2843  
      2712       2713       2724       2723       2833       2834       2845       2844  
      2713       2714       2725       2724       2834       2835       2846       2845  
      2714       2715       2726       2725       2835       2836       2847       2846  
      2715       2716       2727       2726       2836       2837       2848       2847  
      2716       2717       2728       2727       2837       2838       2849       2848  
      2718       2719       2730       2729       2839       2840       2851       2850  
      2719       2720       2731       2730       2840       2841       2852       2851  
      2720       2721       2732       2731       2841       2842       2853       2852  
      2721       2722       2733       2732       2842       2843       2854       2853  
      2722       2723       2734       2733       2843       2844       2855       2854  
      2723       2724       2735       2734       2844       2845       2856       2855  
      2724       2725       2736       2735       2845       2846       2857       2856  
      2725       2726       2737       2736       2846       2847       2858       2857  
      2726       2727       2738       2737       2847       2848       2859       2858  
      2727       2728       2739       2738       2848       2849       2860       2859  
      2729       2730       2741       2740       2850       2851       2862       2861  
      2730       2731       2742       2741       2851       2852       2863       2862  
      2731       2732       2743       2742       2852       2853       2864       2863  
      2732       2733       2744       2743       2853       2854       2865       2864  
      2733       2734       2745       2744       2854       2855       2866       2865  
      2734       2735       2746       2745       2855       2856       2867       2866  
      2735       2736       2747       2746       2856       2857       2868       2867  
      2736       2737       2748       2747       2857       2858       2869       2868  
      2737       2738       2749       2748       2858       2859       2870       2869  
      2738       2739       2750       2749       2859       2860       2871       2870  
      2740       2741       2752       2751       2861       2862       2873       2872  
      2741       2742       2753       2752       2862       2863       2874       2873  
      2742       2743       2754       2753       2863       2864       2875       2874  
      2743       2744       2755       2754       2864       2865       2876       2875  
      2744       2745       2756       2755       2865       2866       2877       2876  
      2745       2746       2757       2756       2866       2867       2878       2877  
      2746       2747       2758       2757       2867       2868       2879       2878  
      2747       2748       2759       2758       2868       2869       2880       2879  
      2748       2749       2760       2759       2869       2870       2881       2880  
      2749       2750       2761       2760       2870       2871       2882       2881  
      2751       2752       2763       2762       2872       2873       2884       2883  
      2752       2753       2764       2763       2873       2874       2885       2884  
      2753       2754       2765       2764       2874       2875       2886       2885  
      2754       2755       2766       2765       2875       2876       2887       2886  
      2755       2756       2767       2766       2876       2877       2888       2887  
      2756       2757       2768       2767       2877       2878       2889       2888  
      2757       2758       2769       2768       2878       2879       2890       2889  
      2758       2759       2770       2769       2879       2880       2891       2890  
      2759       2760       2771       2770       2880       2881       2892       2891  
      2760       2761       2772       2771       2881       2882       2893       2892  
      2762       2763       2774       2773       2883       2884       2895       2894  
      2763       2764       2775       2774       2884       2885       2896       2895  
      2764       2765       2776       2775       2885       2886       2897       2896  
      2765       2766       2777       2776       2886       2887       2898       2897  
      2766       2767       2778       2777       2887       2888       2899       2898  
      2767       2768       2779       2778       2888       2889       2900       2899  
      2768       2769       2780       2779       2889       2890       2901       2900  
      2769       2770       2781       2780       2890       2891       2902       2901  
      2770       2771       2782       2781       2891       2892       2903       2902  
      2771       2772       2783       2782       2892       2893       2904       2903  
      2784       2785       2796       2795       2905       2906       2917       2916  
      2785       2786       2797       2796       2906       2907       2918       2917  
      2786       2787       2798       2797       2907       2908       2919       2918  
      2787       2788       2799       2798       2908       2909       2920       2919  
      2788       2789       2800       2799       2909       2910       2921       2920  
      2789       2790       2801       2800       2910       2911       2922       2921  
      2790       2791       2802       2801       2911       2912       2923       2922  
      2791       2792       2803       2802       2912       2913       2924       2923  
      2792       2793       2804       2803       2913       2914       2925       2924  
      2793       2794       2805       2804       2914       2915       2926       2925  
      2795       2796       2807       2806       2916       2917       2928       2927  
      2796       2797       2808       2807       2917       2918       2929       2928  
      2797       2798       2809       2808       2918       2919       2930       2929  
      2798       2799       2810       2809       2919       2920       2931       2930  
      2799       2800       2811       2810       2920       2921       2932       2931  
      2800       2801       2812       2811       2921       2922       2933       2932  
      2801       2802       2813       2812       2922       2923       2934       2933  
      2802       2803       2814       2813       2923       2924       2935       2934  
      2803       2804       2815       2814       2924       2925       2936       2935  
      2804       2805       2816       2815       2925       2926       2937       2936  
      2806       2807       2818       2817       2927       2928       2939       2938  
      2807       2808       2819       2818       2928       2929       2940       2939  
      2808       2809       2820       2819       2929       2930       2941       2940  
      2809       2810       2821       2820       2930       2931       2942       2941  
      2810       2811       2822       2821       2931       2932       2943       2942  
      2811       2812       2823       2822       2932       2933       2944       2943  
      2812       2813       2824       2823       2933       2934       2945       2944  
      2813       2814       2825       2824       2934       2935       2946       2945  
      2814       2815       2826       2825       2935       2936       2947       2946  
      2815       2816       2827       2826       2936       2937       2948       2947  
      2817       2818       2829       2828       2938       2939       2950       2949  
      2818       2819       2830       2829       2939       2940       2951       2950  
      2819       2820       2831       2830       2940       2941       2952       2951  
      2820       2821       2832       2831       2941       2942       2953       2952  
      2821       2822       2833       2832       2942       2943       2954       2953  
      2822       2823       2834       2833       2943       2944       2955       2954  
      2823       2824       2835       2834       2944       2945       2956       2955  
      2824       2825       2836       2835       2945       2946       2957       2956  
      2825       2826       2837       2836       2946       2947       2958       2957  
      2826       2827       2838       2837       2947       2948       2959       2958  
      2828       2829       2840       2839       2949       2950       2961       2960  
      2829       2830       2841       2840       2950       2951       2962       2961  
      2830       2831       2842       2841       2951       2952       2963       2962  
      2831       2832       2843       2842       2952       2953       2964       2963  
      2832       2833       2844       2843       2953       2954       2965       2964  
      2833       2834       2845       2844       2954       2955       2966       2965  
      2834       2835       2846       2845       2955       2956       2967       2966  
      2835       2836       2847       2846       2956       2957       2968       2967  
      2836       2837       2848       2847       2957       2958       2969       2968  
      2837       2838       2849       2848       2958       2959       2970       2969  
      2839       2840       2851       2850       2960       2961       2972       2971  
      2840       2841       2852       2851       2961       2962       2973       2972  
      2841       2842       2853       2852       2962       2963       2974       2973  
      2842       2843       2854       2853       2963       2964       2975       2974  
      2843       2844       2855       2854       2964       2965       2976       2975  
      2844       2845       2856       2855       2965       2966       2977       2976  
      2845       2846       2857       2856       2966       2967       2978       2977  
      2846       2847       2858       2857       2967       2968       2979       2978  
      2847       2848       2859       2858       2968       2969       2980       2979  
      2848       2849       2860       2859       2969       2970       2981       2980  
      2850       2851       2862       2861       2971       2972       2983       2982  
      2851       2852       2863       2862       2972       2973       2984       2983  
      2852       2853       2864       2863       2973       2974       2985       2984  
      2853       2854       2865       2864       2974       2975       2986       2985  
      2854       2855       2866       2865       2975       2976       2987       2986  
      2855       2856       2867       2866       2976       2977       2988       2987  
      2856       2857       2868       2867       2977       2978       2989       2988  
      2857       2858       2869       2868       2978       2979       2990       2989  
      2858       2859       2870       2869       2979       2980       2991       2990  
      2859       2860       2871       2870       2980       2981       2992       2991  
      2861       2862       2873       2872       2982       2983       2994       2993  
      2862       2863       2874       2873       2983       2984       2995       2994  
      2863       2864       2875       2874       2984       2985       2996       2995  
      2864       2865       2876       2875       2985       2986       2997       2996  
      2865       2866       2877       2876       2986       2987       2998       2997  
      2866       2867       2878       2877       2987       2988       2999       2998  
      2867       2868       2879       2878       2988       2989       3000       2999  
      2868       2869       2880       2879       2989       2990       3001       3000  
      2869       2870       2881       2880       2990       2991       3002       3001  
      2870       2871       2882       2881       2991       2992       3003       3002  
      2872       2873       2884       2883       2993       2994       3005       3004  
      2873       2874       2885       2884       2994       2995       3006       3005  
      2874       2875       2886       2885       2995       2996       3007       3006  
      2875       2876       2887       2886       2996       2997       3008       3007  
      2876       2877       2888       2887       2997       2998       3009       3008  
      2877       2878       2889       2888       2998       2999       3010       3009  
      2878       2879       2890       2889       2999       3000       3011       3010  
      2879       2880       2891       2890       3000       3001       3012       3011  
      2880       2881       2892       2891       3001       3002       3013       3012  
      2881       2882       2893       2892       3002       3003       3014       3013  
      2883       2884       2895       2894       3004       3005       3016       3015  
      2884       2885       2896       2895       3005       3006       3017       3016  
      2885       2886       2897       2896       3006       3007       3018       3017  
      2886       2887       2898       2897       3007       3008       3019       3018  
      2887       2888       2899       2898       3008       3009       3020       3019  
      2888       2889       2900       2899       3009       3010       3021       3020  
      2889       2890       2901       2900       3010       3011       3022       3021  
      2890       2891       2902       2901       3011       3012       3023       3022  
      2891       2892       2903       2902       3012       3013       3024       3023  
      2892       2893       2904       2903       3013       3014       3025       3024  
      2905       2906       2917       2916       3026       3027       3038       3037  
      2906       2907       2918       2917       3027       3028       3039       3038  
      2907       2908       2919       2918       3028       3029       3040       3039  
      2908       2909       2920       2919       3029       3030       3041       3040  
      2909       2910       2921       2920       3030       3031       3042       3041  
      2910       2911       2922       2921       3031       3032       3043       3042  
      2911       2912       2923       2922       3032       3033       3044       3043  
      2912       2913       2924       2923       3033       3034       3045       3044  
      2913       2914       2925       2924       3034       3035       3046       3045  
      2914       2915       2926       2925       3035       3036       3047       3046  
      2916       2917       2928       2927       3037       3038       3049       3048  
      2917       2918       2929       2928       3038       3039       3050       3049  
      2918       2919       2930       2929       3039       3040       3051       3050  
      2919       2920       2931       2930       3040       3041       3052       3051  
      2920       2921       2932       2931       3041       3042       3053       3052  
      2921       2922       2933       2932       3042       3043       3054       3053  
      2922       2923       2934       2933       3043       3044       3055       3054  
      2923       2924       2935       2934       3044       3045       3056       3055  
      2924       2925       2936       2935       3045       3046       3057       3056  
      2925       2926       2937       2936       3046       3047       3058       3057  
      2927       2928       2939       2938       3048       3049       3060       3059  
      2928       2929       2940       2939       3049       3050       3061       3060  
      2929       2930       2941       2940       3050       3051       3062       3061  
      2930       2931       2942       2941       3051       3052       3063       3062  
      2931       2932       2943       2942       3052       3053       3064       3063  
      2932       2933       2944       2943       3053       3054       3065       3064  
      2933       2934       2945       2944       3054       3055       3066       3065  
      2934       2935       2946       2945       3055       3056       3067       3066  
      2935       2936       2947       2946       3056       3057       3068       3067  
      2936       2937       2948       2947       3057       3058       3069       3068  
      2938       2939       2950       2949       3059       3060       3071       3070  
      2939       2940       2951       2950       3060       3061       3072       3071  
      2940       2941       2952       2951       3061       3062       3073       3072  
      2941       2942       2953       2952       3062       3063       3074       3073  
      2942       2943       2954       2953       3063       3064       3075       3074  
      2943       2944       2955       2954       3064       3065       3076       3075  
      2944       2945       2956       2955       3065       3066       3077       3076  
      2945       2946       2957       2956       3066       3067       3078       3077  
      2946       2947       2958       2957       3067       3068       3079       3078  
      2947       2948       2959       2958       3068       3069       3080       3079  
      2949       2950       2961       2960       3070       3071       3082       3081  
      2950       2951       2962       2961       3071       3072       3083       3082  
      2951       2952       2963       2962       3072       3073       3084       3083  
      2952       2953       2964       2963       3073       3074       3085       3084  
      2953       2954       2965       2964       3074       3075       3086       3085  
      2954       2955       2966       2965       3075       3076       3087       3086  
      2955       2956       2967       2966       3076       3077       3088       3087  
      2956       2957       2968       2967       3077       3078       3089       3088  
      2957       2958       2969       2968       3078       3079       3090       3089  
      2958       2959       2970       2969       3079       3080       3091       3090  
      2960       2961       2972       2971       3081       3082       3093       3092  
      2961       2962       2973       2972       3082       3083       3094       3093  
      2962       2963       2974       2973       3083       3084       3095       3094  
      2963       2964       2975       2974       3084       3085       3096       3095  
      2964       2965       2976       2975       3085       3086       3097       3096  
      2965       2966       2977       2976       3086       3087       3098       3097  
      2966       2967       2978       2977       3087       3088       3099       3098  
      2967       2968       2979       2978       3088       3089       3100       3099  
      2968       2969       2980       2979       3089       3090       3101       3100  
      2969       2970       2981       2980       3090       3091       3102       3101  
      2971       2972       2983       2982       3092       3093       3104       3103  
      2972       2973       2984       2983       3093       3094       3105       3104  
      2973       2974       2985       2984       3094       3095       3106       3105  
      2974       2975       2986       2985       3095       3096       3107       3106  
      2975       2976       2987       2986       3096       3097       3108       3107  
      2976       2977       2988       2987       3097       3098       3109       3108  
      2977       2978       2989       2988       3098       3099       3110       3109  
      2978       2979       2990       2989       3099       3100       3111       3110  
      2979       2980       2991       2990       3100       3101       3112       3111  
      2980       2981       2992       2991       3101       3102       3113       3112  
      2982       2983       2994       2993       3103       3104       3115       3114  
      2983       2984       2995       2994       3104       3105       3116       3115  
      2984       2985       2996       2995       3105       3106       3117       3116  
      2985       2986       2997       2996       3106       3107       3118       3117  
      2986       2987       2998       2997       3107       3108       3119       3118  
      2987       2988       2999       2998       3108       3109       3120       3119  
      2988       2989       3000       2999       3109       3110       3121       3120  
      2989       2990       3001       3000       3110       3111       3122       3121  
      2990       2991       3002       3001       3111       3112       3123       3122  
      2991       2992       3003       3002       3112       3113       3124       3123  
      2993       2994       3005       3004       3114       3115       3126       3125  
      2994       2995       3006       3005       3115       3116       3127       3126  
      2995       2996       3007       3006       3116       3117       3128       3127  
      2996       2997       3008       3007       3117       3118       3129       3128  
      2997       2998       3009       3008       3118       3119       3130       3129  
      2998       2999       3010       3009       3119       3120       3131       3130  
      2999       3000       3011       3010       3120       3121       3132       3131  
      3000       3001       3012       3011       3121       3122       3133       3132  
      3001       3002       3013       3012       3122       3123       3134       3133  
      3002       3003       3014       3013       3123       3124       3135       3134  
      3004       3005       3016       3015       3125       3126       3137       3136  
      3005       3006       3017       3016       3126       3127       3138       3137  
      3006       3007       3018       3017       3127       3128       3139       3138  
      3007       3008       3019       3018       3128       3129       3140       3139  
      3008       3009       3020       3019       3129       3130       3141       3140  
      3009       3010       3021       3020       3130       3131       3142       3141  
      3010       3011       3022       3021       3131       3132       3143       3142  
      3011       3012       3023       3022       3132       3133       3144       3143  
      3012       3013       3024       3023       3133       3134       3145       3144  
      3013       3014       3025       3024       3134       3135       3146       3145  
      3026       3027       3038       3037       3147       3148       3159       3158  
      3027       3028       3039       3038       3148       3149       3160       3159  
      3028       3029       3040       3039       3149       3150       3161       3160  
      3029       3030       3041       3040       3150       3151       3162       3161  
      3030       3031       3042       3041       3151       3152       3163       3162  
      3031       3032       3043       3042       3152       3153       3164       3163  
      3032       3033       3044       3043       3153       3154       3165       3164  
      3033       3034       3045       3044       3154       3155       3166       3165  
      3034       3035       3046       3045       3155       3156       3167       3166  
      3035       3036       3047       3046       3156       3157       3168       3167  
      3037       3038       3049       3048       3158       3159       3170       3169  
      3038       3039       3050       3049       3159       3160       3171       3170  
      3039       3040       3051       3050       3160       3161       3172       3171  
      3040       3041       3052       3051       3161       3162       3173       3172  
      3041       3042       3053       3052       3162       3163       3174       3173  
      3042       3043       3054       3053       3163       3164       3175       3174  
      3043       3044       3055       3054       3164       3165       3176       3175  
      3044       3045       3056       3055       3165       3166       3177       3176  
      3045       3046       3057       3056       3166       3167       3178       3177  
      3046       3047       3058       3057       3167       3168       3179       3178  
      3048       3049       3060       3059       3169       3170       3181       3180  
      3049       3050       3061       3060       3170       3171       3182       3181  
      3050       3051       3062       3061       3171       3172       3183       3182  
      3051       3052       3063       3062       3172       3173       3184       3183  
      3052       3053       3064       3063       3173       3174       3185       3184  
      3053       3054       3065       3064       3174       3175       3186       3185  
      3054       3055       3066       3065       3175       3176       3187       3186  
      3055       3056       3067       3066       3176       3177       3188       3187  
      3056       3057       3068       3067       3177       3178       3189       3188  
      3057       3058       3069       3068       3178       3179       3190       3189  
      3059       3060       3071       3070       3180       3181       3192       3191  
      3060       3061       3072       3071       3181       3182       3193       3192  
      3061       3062       3073       3072       3182       3183       3194       3193  
      3062       3063       3074       3073       3183       3184       3195       3194  
      3063       3064       3075       3074       3184       3185       3196       3195  
      3064       3065       3076       3075       3185       3186       3197       3196  
      3065       3066       3077       3076       3186       3187       3198       3197  
      3066       3067       3078       3077       3187       3188       3199       3198  
      3067       3068       3079       3078       3188       3189       3200       3199  
      3068       3069       3080       3079       3189       3190       3201       3200  
      3070       3071       3082       3081       3191       3192       3203       3202  
      3071       3072       3083       3082       3192       3193       3204       3203  
      3072       3073       3084       3083       3193       3194       3205       3204  
      3073       3074       3085       3084       3194       3195       3206       3205  
      3074       3075       3086       3085       3195       3196       3207       3206  
      3075       3076       3087       3086       3196       3197       3208       3207  
      3076       3077       3088       3087       3197       3198       3209       3208  
      3077       3078       3089       3088       3198       3199       3210       3209  
      3078       3079       3090       3089       3199       3200       3211       3210  
      3079       3080       3091       3090       3200       3201       3212       3211  
      3081       3082       3093       3092       3202       3203       3214       3213  
      3082       3083       3094       3093       3203       3204       3215       3214  
      3083       3084       3095       3094       3204       3205       3216       3215  
      3084       3085       3096       3095       3205       3206       3217       3216  
      3085       3086       3097       3096       3206       3207       3218       3217  
      3086       3087       3098       3097       3207       3208       3219       3218  
      3087       3088       3099       3098       3208       3209       3220       3219  
      3088       3089       3100       3099       3209       3210       3221       3220  
      3089       3090       3101       3100       3210       3211       3222       3221  
      3090       3091       3102       3101       3211       3212       3223       3222  
      3092       3093       3104       3103       3213       3214       3225       3224  
      3093       3094       3105       3104       3214       3215       3226       3225  
      3094       3095       3106       3105       3215       3216       3227       3226  
      3095       3096       3107       3106       3216       3217       3228       3227  
      3096       3097       3108       3107       3217       3218       3229       3228  
      3097       3098       3109       3108       3218       3219       3230       3229  
      3098       3099       3110       3109       3219       3220       3231       3230  
      3099       3100       3111       3110       3220       3221       3232       3231  
      3100       3101       3112       3111       3221       3222       3233       3232  
      3101       3102       3113       3112       3222       3223       3234       3233  
      3103       3104       3115       3114       3224       3225       3236       3235  
      3104       3105       3116       3115       3225       3226       3237       3236  
      3105       3106       3117       3116       3226       3227       3238       3237  
      3106       3107       3118       3117       3227       3228       3239       3238  
      3107       3108       3119       3118       3228       3229       3240       3239  
      3108       3109       3120       3119       3229       3230       3241       3240  
      3109       3110       3121       3120       3230       3231       3242       3241  
      3110       3111       3122       3121       3231       3232       3243       3242  
      3111       3112       3123       3122       3232       3233       3244       3243  
      3112       3113       3124       3123       3233       3234       3245       3244  
      3114       3115       3126       3125       3235       3236       3247       3246  
      3115       3116       3127       3126       3236       3237       3248       3247  
      3116       3117       3128       3127       3237       3238       3249       3248  
      3117       3118       3129       3128       3238       3239       3250       3249  
      3118       3119       3130       3129       3239       3240       3251       3250  
      3119       3120       3131       3130       3240       3241       3252       3251  
      3120       3121       3132       3131       3241       3242       3253       3252  
      3121       3122       3133       3132       3242       3243       3254       3253  
      3122       3123       3134       3133       3243       3244       3255       3254  
      3123       3124       3135       3134       3244       3245       3256       3255  
      3125       3126       3137       3136       3246       3247       3258       3257  
      3126       3127       3138       3137       3247       3248       3259       3258  
      3127       3128       3139       3138       3248       3249       3260       3259  
      3128       3129       3140       3139       3249       3250       3261       3260  
      3129       3130       3141       3140       3250       3251       3262       3261  
      3130       3131       3142       3141       3251       3252       3263       3262  
      3131       3132       3143       3142       3252       3253       3264       3263  
      3132       3133       3144       3143       3253       3254       3265       3264  
      3133       3134       3145       3144       3254       3255       3266       3265  
      3134       3135       3146       3145       3255       3256       3267       3266  
      3147       3148       3159       3158       3268       3269       3280       3279  
      3148       3149       3160       3159       3269       3270       3281       3280  
      3149       3150       3161       3160       3270       3271       3282       3281  
      3150       3151       3162       3161       3271       3272       3283       3282  
      3151       3152       3163       3162       3272       3273       3284       3283  
      3152       3153       3164       3163       3273       3274       3285       3284  
      3153       3154       3165       3164       3274       3275       3286       3285  
      3154       3155       3166       3165       3275       3276       3287       3286  
      3155       3156       3167       3166       3276       3277       3288       3287  
      3156       3157       3168       3167       3277       3278       3289       3288  
      3158       3159       3170       3169       3279       3280       3291       3290  
      3159       3160       3171       3170       3280       3281       3292       3291  
      3160       3161       3172       3171       3281       3282       3293       3292  
      3161       3162       3173       3172       3282       3283       3294       3293  
      3162       3163       3174       3173       3283       3284       3295       3294  
      3163       3164       3175       3174       3284       3285       3296       3295  
      3164       3165       3176       3175       3285       3286       3297       3296  
      3165       3166       3177       3176       3286       3287       3298       3297  
      3166       3167       3178       3177       3287       3288       3299       3298  
      3167       3168       3179       3178       3288       3289       3300       3299  
      3169       3170       3181       3180       3290       3291       3302       3301  
      3170       3171       3182       3181       3291       3292       3303       3302  
      3171       3172       3183       3182       3292       3293       3304       3303  
      3172       3173       3184       3183       3293       3294       3305       3304  
      3173       3174       3185       3184       3294       3295       3306       3305  
      3174       3175       3186       3185       3295       3296       3307       3306  
      3175       3176       3187       3186       3296       3297       3308       3307  
      3176       3177       3188       3187       3297       3298       3309       3308  
      3177       3178       3189       3188       3298       3299       3310       3309  
      3178       3179       3190       3189       3299       3300       3311       3310  
      3180       3181       3192       3191       3301       3302       3313       3312  
      3181       3182       3193       3192       3302       3303       3314       3313  
      3182       3183       3194       3193       3303       3304       3315       3314  
      3183       3184       3195       3194       3304       3305       3316       3315  
      3184       3185       3196       3195       3305       3306       3317       3316  
      3185       3186       3197       3196       3306       3307       3318       3317  
      3186       3187       3198       3197       3307       3308       3319       3318  
      3187       3188       3199       3198       3308       3309       3320       3319  
      3188       3189       3200       3199       3309       3310       3321       3320  
      3189       3190       3201       3200       3310       3311       3322       3321  
      3191       3192       3203       3202       3312       3313       3324       3323  
      3192       3193       3204       3203       3313       3314       3325       3324  
      3193       3194       3205       3204       3314       3315       3326       3325  
      3194       3195       3206       3205       3315       3316       3327       3326  
      3195       3196       3207       3206       3316       3317       3328       3327  
      3196       3197       3208       3207       3317       3318       3329       3328  
      3197       3198       3209       3208       3318       3319       3330       3329  
      3198       3199       3210       3209       3319       3320       3331       3330  
      3199       3200       3211       3210       3320       3321       3332       3331  
      3200       3201       3212       3211       3321       3322       3333       3332  
      3202       3203       3214       3213       3323       3324       3335       3334  
      3203       3204       3215       3214       3324       3325       3336       3335  
      3204       3205       3216       3215       3325       3326       3337       3336  
      3205       3206       3217       3216       3326       3327       3338       3337  
      3206       3207       3218       3217       3327       3328       3339       3338  
      3207       3208       3219       3218       3328       3329       3340       3339  
      3208       3209       3220       3219       3329       3330       3341       3340  
      3209       3210       3221       3220       3330       3331       3342       3341  
      3210       3211       3222       3221       3331       3332       3343       3342  
      3211       3212       3223       3222       3332       3333       3344       3343  
      3213       3214       3225       3224       3334       3335       3346       3345  
      3214       3215       3226       3225       3335       3336       3347       3346  
      3215       3216       3227       3226       3336       3337       3348       3347  
      3216       3217       3228       3227       3337       3338       3349       3348  
      3217       3218       3229       3228       3338       3339       3350       3349  
      3218       3219       3230       3229       3339       3340       3351       3350  
      3219       3220       3231       3230       3340       3341       3352       3351  
      3220       3221       3232       3231       3341       3342       3353       3352  
      3221       3222       3233       3232       3342       3343       3354       3353  
      3222       3223       3234       3233       3343       3344       3355       3354  
      3224       3225       3236       3235       3345       3346       3357       3356  
      3225       3226       3237       3236       3346       3347       3358       3357  
      3226       3227       3238       3237       3347       3348       3359       3358  
      3227       3228       3239       3238       3348       3349       3360       3359  
      3228       3229       3240       3239       3349       3350       3361       3360  
      3229       3230       3241       3240       3350       3351       3362       3361  
      3230       3231       3242       3241       3351       3352       3363       3362  
      3231       3232       3243       3242       3352       3353       3364       3363  
      3232       3233       3244       3243       3353       3354       3365       3364  
      3233       3234       3245       3244       3354       3355       3366       3365  
      3235       3236       3247       3246       3356       3357       3368       3367  
      3236       3237       3248       3247       3357       3358       3369       3368  
      3237       3238       3249       3248       3358       3359       3370       3369  
      3238       3239       3250       3249       3359       3360       3371       3370  
      3239       3240       3251       3250       3360       3361       3372       3371  
      3240       3241       3252       3251       3361       3362       3373       3372  
      3241       3242       3253       3252       3362       3363       3374       3373  
      3242       3243       3254       3253       3363       3364       3375       3374  
      3243       3244       3255       3254       3364       3365       3376       3375  
      3244       3245       3256       3255       3365       3366       3377       3376  
      3246       3247       3258       3257       3367       3368       3379       3378  
      3247       3248       3259       3258       3368       3369       3380       3379  
      3248       3249       3260       3259       3369       3370       3381       3380  
      3249       3250       3261       3260       3370       3371       3382       3381  
      3250       3251       3262       3261       3371       3372       3383       3382  
      3251       3252       3263       3262       3372       3373       3384       3383  
      3252       3253       3264       3263       3373       3374       3385       3384  
      3253       3254       3265       3264       3374       3375       3386       3385  
      3254       3255       3266       3265       3375       3376       3387       3386  
      3255       3256       3267       3266       3376       3377       3388       3387  
      3268       3269       3280       3279       3389       3390       3401       3400  
      3269       3270       3281       3280       3390       3391       3402       3401  
      3270       3271       3282       3281       3391       3392       3403       3402  
      3271       3272       3283       3282       3392       3393       3404       3403  
      3272       3273       3284       3283       3393       3394       3405       3404  
      3273       3274       3285       3284       3394       3395       3406       3405  
      3274       3275       3286       3285       3395       3396       3407       3406  
      3275       3276       3287       3286       3396       3397       3408       3407  
      3276       3277       3288       3287       3397       3398       3409       3408  
      3277       3278       3289       3288       3398       3399       3410       3409  
      3279       3280       3291       3290       3400       3401       3412       3411  
      3280       3281       3292       3291       3401       3402       3413       3412  
      3281       3282       3293       3292       3402       3403       3414       3413  
      3282       3283       3294       3293       3403       3404       3415       3414  
      3283       3284       3295       3294       3404       3405       3416       3415  
      3284       3285       3296       3295       3405       3406       3417       3416  
      3285       3286       3297       3296       3406       3407       3418       3417  
      3286       3287       3298       3297       3407       3408       3419       3418  
      3287       3288       3299       3298       3408       3409       3420       3419  
      3288       3289       3300       3299       3409       3410       3421       3420  
      3290       3291       3302       3301       3411       3412       3423       3422  
      3291       3292       3303       3302       3412       3413       3424       3423  
      3292       3293       3304       3303       3413       3414       3425       3424  
      3293       3294       3305       3304       3414       3415       3426       3425  
      3294       3295       3306       3305       3415       3416       3427       3426  
      3295       3296       3307       3306       3416       3417       3428       3427  
      3296       3297       3308       3307       3417       3418       3429       3428  
      3297       3298       3309       3308       3418       3419       3430       3429  
      3298       3299       3310       3309       3419       3420       3431       3430  
      3299       3300       3311       3310       3420       3421       3432       3431  
      3301       3302       3313       3312       3422       3423       3434       3433  
      3302       3303       3314       3313       3423       3424       3435       3434  
      3303       3304       3315       3314       3424       3425       3436       3435  
      3304       3305       3316       3315       3425       3426       3437       3436  
      3305       3306       3317       3316       3426       3427       3438       3437  
      3306       3307       3318       3317       3427       3428       3439       3438  
      3307       3308       3319       3318       3428       3429       3440       3439  
      3308       3309       3320       3319       3429       3430       3441       3440  
      3309       3310       3321       3320       3430       3431       3442       3441  
      3310       3311       3322       3321       3431       3432       3443       3442  
      3312       3313       3324       3323       3433       3434       3445       3444  
      3313       3314       3325       3324       3434       3435       3446       3445  
      3314       3315       3326       3325       3435       3436       3447       3446  
      3315       3316       3327       3326       3436       3437       3448       3447  
      3316       3317       3328       3327       3437       3438       3449       3448  
      3317       3318       3329       3328       3438       3439       3450       3449  
      3318       3319       3330       3329       3439       3440       3451       3450  
      3319       3320       3331       3330       3440       3441       3452       3451  
      3320       3321       3332       3331       3441       3442       3453       3452  
      3321       3322       3333       3332       3442       3443       3454       3453  
      3323       3324       3335       3334       3444       3445       3456       3455  
      3324       3325       3336       3335       3445       3446       3457       3456  
      3325       3326       3337       3336       3446       3447       3458       3457  
      3326       3327       3338       3337       3447       3448       3459       3458  
      3327       3328       3339       3338       3448       3449       3460       3459  
      3328       3329       3340       3339       3449       3450       3461       3460  
      3329       3330       3341       3340       3450       3451       3462       3461  
      3330       3331       3342       3341       3451       3452       3463       3462  
      3331       3332       3343       3342       3452       3453       3464       3463  
      3332       3333       3344       3343       3453       3454       3465       3464  
      3334       3335       3346       3345       3455       3456       3467       3466  
      3335       3336       3347       3346       3456       3457       3468       3467  
      3336       3337       3348       3347       3457       3458       3469       3468  
      3337       3338       3349       3348       3458       3459       3470       3469  
      3338       3339       3350       3349       3459       3460       3471       3470  
      3339       3340       3351       3350       3460       3461       3472       3471  
      3340       3341       3352       3351       3461       3462       3473       3472  
      3341       3342       3353       3352       3462       3463       3474       3473  
      3342       3343       3354       3353       3463       3464       3475       3474  
      3343       3344       3355       3354       3464       3465       3476       3475  
      3345       3346       3357       3356       3466       3467       3478       3477  
      3346       3347       3358       3357       3467       3468       3479       3478  
      3347       3348       3359       3358       3468       3469       3480       3479  
      3348       3349       3360       3359       3469       3470       3481       3480  
      3349       3350       3361       3360       3470       3471       3482       3481  
      3350       3351       3362       3361       3471       3472       3483       3482  
      3351       3352       3363       3362       3472       3473       3484       3483  
      3352       3353       3364       3363       3473       3474       3485       3484  
      3353       3354       3365       3364       3474       3475       3486       3485  
      3354       3355       3366       3365       3475       3476       3487       3486  
      3356       3357       3368       3367       3477       3478       3489       3488  
      3357       3358       3369       3368       3478       3479       3490       3489  
      3358       3359       3370       3369       3479       3480       3491       3490  
      3359       3360       3371       3370       3480       3481       3492       3491  
      3360       3361       3372       3371       3481       3482       3493       3492  
      3361       3362       3373       3372       3482       3483       3494       3493  
      3362       3363       3374       3373       3483       3484       3495       3494  
      3363       3364       3375       3374       3484       3485       3496       3495  
      3364       3365       3376       3375       3485       3486       3497       3496  
      3365       3366       3377       3376       3486       3487       3498       3497  
      3367       3368       3379       3378       3488       3489       3500       3499  
      3368       3369       3380       3379       3489       3490       3501       3500  
      3369       3370       3381       3380       3490       3491       3502       3501  
      3370       3371       3382       3381       3491       3492       3503       3502  
      3371       3372       3383       3382       3492       3493       3504       3503  
      3372       3373       3384       3383       3493       3494       3505       3504  
      3373       3374       3385       3384       3494       3495       3506       3505  
      3374       3375       3386       3385       3495       3496       3507       3506  
      3375       3376       3387       3386       3496       3497       3508       3507  
      3376       3377       3388       3387       3497       3498       3509       3508  
      3389       3390       3401       3400       3510       3511       3522       3521  
      3390       3391       3402       3401       3511       3512       3523       3522  
      3391       3392       3403       3402       3512       3513       3524       3523  
      3392       3393       3404       3403       3513       3514       3525       3524  
      3393       3394       3405       3404       3514       3515       3526       3525  
      3394       3395       3406       3405       3515       3516       3527       3526  
      3395       3396       3407       3406       3516       3517       3528       3527  
      3396       3397       3408       3407       3517       3518       3529       3528  
      3397       3398       3409       3408       3518       3519       3530       3529  
      3398       3399       3410       3409       3519       3520       3531       3530  
      3400       3401       3412       3411       3521       3522       3533       3532  
      3401       3402       3413       3412       3522       3523       3534       3533  
      3402       3403       3414       3413       3523       3524       3535       3534  
      3403       3404       3415       3414       3524       3525       3536       3535  
      3404       3405       3416       3415       3525       3526       3537       3536  
      3405       3406       3417       3416       3526       3527       3538       3537  
      3406       3407       3418       3417       3527       3528       3539       3538  
      3407       3408       3419       3418       3528       3529       3540       3539  
      3408       3409       3420       3419       3529       3530       3541       3540  
      3409       3410       3421       3420       3530       3531       3542       3541  
      3411       3412       3423       3422       3532       3533       3544       3543  
      3412       3413       3424       3423       3533       3534       3545       3544  
      3413       3414       3425       3424       3534       3535       3546       3545  
      3414       3415       3426       3425       3535       3536       3547       3546  
      3415       3416       3427       3426       3536       3537       3548       3547  
      3416       3417       3428       3427       3537       3538       3549       3548  
      3417       3418       3429       3428       3538       3539       3550       3549  
      3418       3419       3430       3429       3539       3540       3551       3550  
      3419       3420       3431       3430       3540       3541       3552       3551  
      3420       3421       3432       3431       3541       3542       3553       3552  
      3422       3423       3434       3433       3543       3544       3555       3554  
      3423       3424       3435       3434       3544       3545       3556       3555  
      3424       3425       3436       3435       3545       3546       3557       3556  
      3425       3426       3437       3436       3546       3547       3558       3557  
      3426       3427       3438       3437       3547       3548       3559       3558  
      3427       3428       3439       3438       3548       3549       3560       3559  
      3428       3429       3440       3439       3549       3550       3561       3560  
      3429       3430       3441       3440       3550       3551       3562       3561  
      3430       3431       3442       3441       3551       3552       3563       3562  
      3431       3432       3443       3442       3552       3553       3564       3563  
      3433       3434       3445       3444       3554       3555       3566       3565  
      3434       3435       3446       3445       3555       3556       3567       3566  
      3435       3436       3447       3446       3556       3557       3568       3567  
      3436       3437       3448       3447       3557       3558       3569       3568  
      3437       3438       3449       3448       3558       3559       3570       3569  
      3438       3439       3450       3449       3559       3560       3571       3570  
      3439       3440       3451       3450       3560       3561       3572       3571  
      3440       3441       3452       3451       3561       3562       3573       3572  
      3441       3442       3453       3452       3562       3563       3574       3573  
      3442       3443       3454       3453       3563       3564       3575       3574  
      3444       3445       3456       3455       3565       3566       3577       3576  
      3445       3446       3457       3456       3566       3567       3578       3577  
      3446       3447       3458       3457       3567       3568       3579       3578  
      3447       3448       3459       3458       3568       3569       3580       3579  
      3448       3449       3460       3459       3569       3570       3581       3580  
      3449       3450       3461       3460       3570       3571       3582       3581  
      3450       3451       3462       3461       3571       3572       3583       3582  
      3451       3452       3463       3462       3572       3573       3584       3583  
      3452       3453       3464       3463       3573       3574       3585       3584  
      3453       3454       3465       3464       3574       3575       3586       3585  
      3455       3456       3467       3466       3576       3577       3588       3587  
      3456       3457       3468       3467       3577       3578       3589       3588  
      3457       3458       3469       3468       3578       3579       3590       3589  
      3458       3459       3470       3469       3579       3580       3591       3590  
      3459       3460       3471       3470       3580       3581       3592       3591  
      3460       3461       3472       3471       3581       3582       3593       3592  
      3461       3462       3473       3472       3582       3583       3594       3593  
      3462       3463       3474       3473       3583       3584       3595       3594  
      3463       3464       3475       3474       3584       3585       3596       3595  
      3464       3465       3476       3475       3585       3586       3597       3596  
      3466       3467       3478       3477       3587       3588       3599       3598  
      3467       3468       3479       3478       3588       3589       3600       3599  
      3468       3469       3480       3479       3589       3590       3601       3600  
      3469       3470       3481       3480       3590       3591       3602       3601  
      3470       3471       3482       3481       3591       3592       3603       3602  
      3471       3472       3483       3482       3592       3593       3604       3603  
      3472       3473       3484       3483       3593       3594       3605       3604  
      3473       3474       3485       3484       3594       3595       3606       3605  
      3474       3475       3486       3485       3595       3596       3607       3606  
      3475       3476       3487       3486       3596       3597       3608       3607  
      3477       3478       3489       3488       3598       3599       3610       3609  
      3478       3479       3490       3489       3599       3600       3611       3610  
      3479       3480       3491       3490       3600       3601       3612       3611  
      3480       3481       3492       3491       3601       3602       3613       3612  
      3481       3482       3493       3492       3602       3603       3614       3613  
      3482       3483       3494       3493       3603       3604       3615       3614  
      3483       3484       3495       3494       3604       3605       3616       3615  
      3484       3485       3496       3495       3605       3606       3617       3616  
      3485       3486       3497       3496       3606       3607       3618       3617  
      3486       3487       3498       3497       3607       3608       3619       3618  
      3488       3489       3500       3499       3609       3610       3621       3620  
      3489       3490       3501       3500       3610       3611       3622       3621  
      3490       3491       3502       3501       3611       3612       3623       3622  
      3491       3492       3503       3502       3612       3613       3624       3623  
      3492       3493       3504       3503       3613       3614       3625       3624  
      3493       3494       3505       3504       3614       3615       3626       3625  
      3494       3495       3506       3505       3615       3616       3627       3626  
      3495       3496       3507       3506       3616       3617       3628       3627  
      3496       3497       3508       3507       3617       3618       3629       3628  
      3497       3498       3509       3508       3618       3619       3630       3629  
      3510       3511       3522       3521       3631       3632       3643       3642  
      3511       3512       3523       3522       3632       3633       3644       3643  
      3512       3513       3524       3523       3633       3634       3645       3644  
      3513       3514       3525       3524       3634       3635       3646       3645  
      3514       3515       3526       3525       3635       3636       3647       3646  
      3515       3516       3527       3526       3636       3637       3648       3647  
      3516       3517       3528       3527       3637       3638       3649       3648  
      3517       3518       3529       3528       3638       3639       3650       3649  
      3518       3519       3530       3529       3639       3640       3651       3650  
      3519       3520       3531       3530       3640       3641       3652       3651  
      3521       3522       3533       3532       3642       3643       3654       3653  
      3522       3523       3534       3533       3643       3644       3655       3654  
      3523       3524       3535       3534       3644       3645       3656       3655  
      3524       3525       3536       3535       3645       3646       3657       3656  
      3525       3526       3537       3536       3646       3647       3658       3657  
      3526       3527       3538       3537       3647       3648       3659       3658  
      3527       3528       3539       3538       3648       3649       3660       3659  
      3528       3529       3540       3539       3649       3650       3661       3660  
      3529       3530       3541       3540       3650       3651       3662       3661  
      3530       3531       3542       3541       3651       3652       3663       3662  
      3532       3533       3544       3543       3653       3654       3665       3664  
      3533       3534       3545       3544       3654       3655       3666       3665  
      3534       3535       3546       3545       3655       3656       3667       3666  
      3535       3536       3547       3546       3656       3657       3668       3667  
      3536       3537       3548       3547       3657       3658       3669       3668  
      3537       3538       3549       3548       3658       3659       3670       3669  
      3538       3539       3550       3549       3659       3660       3671       3670  
      3539       3540       3551       3550       3660       3661       3672       3671  
      3540       3541       3552       3551       3661       3662       3673       3672  
      3541       3542       3553       3552       3662       3663       3674       3673  
      3543       3544       3555       3554       3664       3665       3676       3675  
      3544       3545       3556       3555       3665       3666       3677       3676  
      3545       3546       3557       3556       3666       3667       3678       3677  
      3546       3547       3558       3557       3667       3668       3679       3678  
      3547       3548       3559       3558       3668       3669       3680       3679  
      3548       3549       3560       3559       3669       3670       3681       3680  
      3549       3550       3561       3560       3670       3671       3682       3681  
      3550       3551       3562       3561       3671       3672       3683       3682  
      3551       3552       3563       3562       3672       3673       3684       3683  
      3552       3553       3564       3563       3673       3674       3685       3684  
      3554       3555       3566       3565       3675       3676       3687       3686  
      3555       3556       3567       3566       3676       3677       3688       3687  
      3556       3557       3568       3567       3677       3678       3689       3688  
      3557       3558       3569       3568       3678       3679       3690       3689  
      3558       3559       3570       3569       3679       3680       3691       3690  
      3559       3560       3571       3570       3680       3681       3692       3691  
      3560       3561       3572       3571       3681       3682       3693       3692  
      3561       3562       3573       3572       3682       3683       3694       3693  
      3562       3563       3574       3573       3683       3684       3695       3694  
      3563       3564       3575       3574       3684       3685       3696       3695  
      3565       3566       3577       3576       3686       3687       3698       3697  
      3566       3567       3578       3577       3687       3688       3699       3698  
      3567       3568       3579       3578       3688       3689       3700       3699  
      3568       3569       3580       3579       3689       3690       3701       3700  
      3569       3570       3581       3580       3690       3691       3702       3701  
      3570       3571       3582       3581       3691       3692       3703       3702  
      3571       3572       3583       3582       3692       3693       3704       3703  
      3572       3573       3584       3583       3693       3694       3705       3704  
      3573       3574       3585       3584       3694       3695       3706       3705  
      3574       3575       3586       3585       3695       3696       3707       3706  
      3576       3577       3588       3587       3697       3698       3709       3708  
      3577       3578       3589       3588       3698       3699       3710       3709  
      3578       3579       3590       3589       3699       3700       3711       3710  
      3579       3580       3591       3590       3700       3701       3712       3711  
      3580       3581       3592       3591       3701       3702       3713       3712  
      3581       3582       3593       3592       3702       3703       3714       3713  
      3582       3583       3594       3593       3703       3704       3715       3714  
      3583       3584       3595       3594       3704       3705       3716       3715  
      3584       3585       3596       3595       3705       3706       3717       3716  
      3585       3586       3597       3596       3706       3707       3718       3717  
      3587       3588       3599       3598       3708       3709       3720       3719  
      3588       3589       3600       3599       3709       3710       3721       3720  
      3589       3590       3601       3600       3710       3711       3722       3721  
      3590       3591       3602       3601       3711       3712       3723       3722  
      3591       3592       3603       3602       3712       3713       3724       3723  
      3592       3593       3604       3603       3713       3714       3725       3724  
      3593       3594       3605       3604       3714       3715       3726       3725  
      3594       3595       3606       3605       3715       3716       3727       3726  
      3595       3596       3607       3606       3716       3717       3728       3727  
      3596       3597       3608       3607       3717       3718       3729       3728  
      3598       3599       3610       3609       3719       3720       3731       3730  
      3599       3600       3611       3610       3720       3721       3732       3731  
      3600       3601       3612       3611       3721       3722       3733       3732  
      3601       3602       3613       3612       3722       3723       3734       3733  
      3602       3603       3614       3613       3723       3724       3735       3734  
      3603       3604       3615       3614       3724       3725       3736       3735  
      3604       3605       3616       3615       3725       3726       3737       3736  
      3605       3606       3617       3616       3726       3727       3738       3737  
      3606       3607       3618       3617       3727       3728       3739       3738  
      3607       3608       3619       3618       3728       3729       3740       3739  
      3609       3610       3621       3620       3730       3731       3742       3741  
      3610       3611       3622       3621       3731       3732       3743       3742  
      3611       3612       3623       3622       3732       3733       3744       3743  
      3612       3613       3624       3623       3733       3734       3745       3744  
      3613       3614       3625       3624       3734       3735       3746       3745  
      3614       3615       3626       3625       3735       3736       3747       3746  
      3615       3616       3627       3626       3736       3737       3748       3747  
      3616       3617       3628       3627       3737       3738       3749       3748  
      3617       3618       3629       3628       3738       3739       3750       3749  
      3618       3619       3630       3629       3739       3740       3751       3750  
      3631       3632       3643       3642       3752       3753       3764       3763  
      3632       3633       3644       3643       3753       3754       3765       3764  
      3633       3634       3645       3644       3754       3755       3766       3765  
      3634       3635       3646       3645       3755       3756       3767       3766  
      3635       3636       3647       3646       3756       3757       3768       3767  
      3636       3637       3648       3647       3757       3758       3769       3768  
      3637       3638       3649       3648       3758       3759       3770       3769  
      3638       3639       3650       3649       3759       3760       3771       3770  
      3639       3640       3651       3650       3760       3761       3772       3771  
      3640       3641       3652       3651       3761       3762       3773       3772  
      3642       3643       3654       3653       3763       3764       3775       3774  
      3643       3644       3655       3654       3764       3765       3776       3775  
      3644       3645       3656       3655       3765       3766       3777       3776  
      3645       3646       3657       3656       3766       3767       3778       3777  
      3646       3647       3658       3657       3767       3768       3779       3778  
      3647       3648       3659       3658       3768       3769       3780       3779  
      3648       3649       3660       3659       3769       3770       3781       3780  
      3649       3650       3661       3660       3770       3771       3782       3781  
      3650       3651       3662       3661       3771       3772       3783       3782  
      3651       3652       3663       3662       3772       3773       3784       3783  
      3653       3654       3665       3664       3774       3775       3786       3785  
      3654       3655       3666       3665       3775       3776       3787       3786  
      3655       3656       3667       3666       3776       3777       3788       3787  
      3656       3657       3668       3667       3777       3778       3789       3788  
      3657       3658       3669       3668       3778       3779       3790       3789  
      3658       3659       3670       3669       3779       3780       3791       3790  
      3659       3660       3671       3670       3780       3781       3792       3791  
      3660       3661       3672       3671       3781       3782       3793       3792  
      3661       3662       3673       3672       3782       3783       3794       3793  
      3662       3663       3674       3673       3783       3784       3795       3794  
      3664       3665       3676       3675       3785       3786       3797       3796  
      3665       3666       3677       3676       3786       3787       3798       3797  
      3666       3667       3678       3677       3787       3788       3799       3798  
      3667       3668       3679       3678       3788       3789       3800       3799  
      3668       3669       3680       3679       3789       3790       3801       3800  
      3669       3670       3681       3680       3790       3791       3802       3801  
      3670       3671       3682       3681       3791       3792       3803       3802  
      3671       3672       3683       3682       3792       3793       3804       3803  
      3672       3673       3684       3683       3793       3794       3805       3804  
      3673       3674       3685       3684       3794       3795       3806       3805  
      3675       3676       3687       3686       3796       3797       3808       3807  
      3676       3677       3688       3687       3797       3798       3809       3808  
      3677       3678       3689       3688       3798       3799       3810       3809  
      3678       3679       3690       3689       3799       3800       3811       3810  
      3679       3680       3691       3690       3800       3801       3812       3811  
      3680       3681       3692       3691       3801       3802       3813       3812  
      3681       3682       3693       3692       3802       3803       3814       3813  
      3682       3683       3694       3693       3803       3804       3815       3814  
      3683       3684       3695       3694       3804       3805       3816       3815  
      3684       3685       3696       3695       3805       3806       3817       3816  
      3686       3687       3698       3697       3807       3808       3819       3818  
      3687       3688       3699       3698       3808       3809       3820       3819  
      3688       3689       3700       3699       3809       3810       3821       3820  
      3689       3690       3701       3700       3810       3811       3822       3821  
      3690       3691       3702       3701       3811       3812       3823       3822  
      3691       3692       3703       3702       3812       3813       3824       3823  
      3692       3693       3704       3703       3813       3814       3825       3824  
      3693       3694       3705       3704       3814       3815       3826       3825  
      3694       3695       3706       3705       3815       3816       3827       3826  
      3695       3696       3707       3706       3816       3817       3828       3827  
      3697       3698       3709       3708       3818       3819       3830       3829  
      3698       3699       3710       3709       3819       3820       3831       3830  
      3699       3700       3711       3710       3820       3821       3832       3831  
      3700       3701       3712       3711       3821       3822       3833       3832  
      3701       3702       3713       3712       3822       3823       3834       3833  
      3702       3703       3714       3713       3823       3824       3835       3834  
      3703       3704       3715       3714       3824       3825       3836       3835  
      3704       3705       3716       3715       3825       3826       3837       3836  
      3705       3706       3717       3716       3826       3827       3838       3837  
      3706       3707       3718       3717       3827       3828       3839       3838  
      3708       3709       3720       3719       3829       3830       3841       3840  
      3709       3710       3721       3720       3830       3831       3842       3841  
      3710       3711       3722       3721       3831       3832       3843       3842  
      3711       3712       3723       3722       3832       3833       3844       3843  
      3712       3713       3724       3723       3833       3834       3845       3844  
      3713       3714       3725       3724       3834       3835       3846       3845  
      3714       3715       3726       3725       3835       3836       3847       3846  
      3715       3716       3727       3726       3836       3837       3848       3847  
      3716       3717       3728       3727       3837       3838       3849       3848  
      3717       3718       3729       3728       3838       3839       3850       3849  
      3719       3720       3731       3730       3840       3841       3852       3851  
      3720       3721       3732       3731       3841       3842       3853       3852  
      3721       3722       3733       3732       3842       3843       3854       3853  
      3722       3723       3734       3733       3843       3844       3855       3854  
      3723       3724       3735       3734       3844       3845       3856       3855  
      3724       3725       3736       3735       3845       3846       3857       3856  
      3725       3726       3737       3736       3846       3847       3858       3857  
      3726       3727       3738       3737       3847       3848       3859       3858  
      3727       3728       3739       3738       3848       3849       3860       3859  
      3728       3729       3740       3739       3849       3850       3861       3860  
      3730       3731       3742       3741       3851       3852       3863       3862  
      3731       3732       3743       3742       3852       3853       3864       3863  
      3732       3733       3744       3743       3853       3854       3865       3864  
      3733       3734       3745       3744       3854       3855       3866       3865  
      3734       3735       3746       3745       3855       3856       3867       3866  
      3735       3736       3747       3746       3856       3857       3868       3867  
      3736       3737       3748       3747       3857       3858       3869       3868  
      3737       3738       3749       3748       3858       3859       3870       3869  
      3738       3739       3750       3749       3859       3860       3871       3870  
      3739       3740       3751       3750       3860       3861       3872       3871  
      3752       3753       3764       3763       3873       3874       3885       3884  
      3753       3754       3765       3764       3874       3875       3886       3885  
      3754       3755       3766       3765       3875       3876       3887       3886  
      3755       3756       3767       3766       3876       3877       3888       3887  
      3756       3757       3768       3767       3877       3878       3889       3888  
      3757       3758       3769       3768       3878       3879       3890       3889  
      3758       3759       3770       3769       3879       3880       3891       3890  
      3759       3760       3771       3770       3880       3881       3892       3891  
      3760       3761       3772       3771       3881       3882       3893       3892  
      3761       3762       3773       3772       3882       3883       3894       3893  
      3763       3764       3775       3774       3884       3885       3896       3895  
      3764       3765       3776       3775       3885       3886       3897       3896  
      3765       3766       3777       3776       3886       3887       3898       3897  
      3766       3767       3778       3777       3887       3888       3899       3898  
      3767       3768       3779       3778       3888       3889       3900       3899  
      3768       3769       3780       3779       3889       3890       3901       3900  
      3769       3770       3781       3780       3890       3891       3902       3901  
      3770       3771       3782       3781       3891       3892       3903       3902  
      3771       3772       3783       3782       3892       3893       3904       3903  
      3772       3773       3784       3783       3893       3894       3905       3904  
      3774       3775       3786       3785       3895       3896       3907       3906  
      3775       3776       3787       3786       3896       3897       3908       3907  
      3776       3777       3788       3787       3897       3898       3909       3908  
      3777       3778       3789       3788       3898       3899       3910       3909  
      3778       3779       3790       3789       3899       3900       3911       3910  
      3779       3780       3791       3790       3900       3901       3912       3911  
      3780       3781       3792       3791       3901       3902       3913       3912  
      3781       3782       3793       3792       3902       3903       3914       3913  
      3782       3783       3794       3793       3903       3904       3915       3914  
      3783       3784       3795       3794       3904       3905       3916       3915  
      3785       3786       3797       3796       3906       3907       3918       3917  
      3786       3787       3798       3797       3907       3908       3919       3918  
      3787       3788       3799       3798       3908       3909       3920       3919  
      3788       3789       3800       3799       3909       3910       3921       3920  
      3789       3790       3801       3800       3910       3911       3922       3921  
      3790       3791       3802       3801       3911       3912       3923       3922  
      3791       3792       3803       3802       3912       3913       3924       3923  
      3792       3793       3804       3803       3913       3914       3925       3924  
      3793       3794       3805       3804       3914       3915       3926       3925  
      3794       3795       3806       3805       3915       3916       3927       3926  
      3796       3797       3808       3807       3917       3918       3929       3928  
      3797       3798       3809       3808       3918       3919       3930       3929  
      3798       3799       3810       3809       3919       3920       3931       3930  
      3799       3800       3811       3810       3920       3921       3932       3931  
      3800       3801       3812       3811       3921       3922       3933       3932  
      3801       3802       3813       3812       3922       3923       3934       3933  
      3802       3803       3814       3813       3923       3924       3935       3934  
      3803       3804       3815       3814       3924       3925       3936       3935  
      3804       3805       3816       3815       3925       3926       3937       3936  
      3805       3806       3817       3816       3926       3927       3938       3937  
      3807       3808       3819       3818       3928       3929       3940       3939  
      3808       3809       3820       3819       3929       3930       3941       3940  
      3809       3810       3821       3820       3930       3931       3942       3941  
      3810       3811       3822       3821       3931       3932       3943       3942  
      3811       3812       3823       3822       3932       3933       3944       3943  
      3812       3813       3824       3823       3933       3934       3945       3944  
      3813       3814       3825       3824       3934       3935       3946       3945  
      3814       3815       3826       3825       3935       3936       3947       3946  
      3815       3816       3827       3826       3936       3937       3948       3947  
      3816       3817       3828       3827       3937       3938       3949       3948  
      3818       3819       3830       3829       3939       3940       3951       3950  
      3819       3820       3831       3830       3940       3941       3952       3951  
      3820       3821       3832       3831       3941       3942       3953       3952  
      3821       3822       3833       3832       3942       3943       3954       3953  
      3822       3823       3834       3833       3943       3944       3955       3954  
      3823       3824       3835       3834       3944       3945       3956       3955  
      3824       3825       3836       3835       3945       3946       3957       3956  
      3825       3826       3837       3836       3946       3947       3958       3957  
      3826       3827       3838       3837       3947       3948       3959       3958  
      3827       3828       3839       3838       3948       3949       3960       3959  
      3829       3830       3841       3840       3950       3951       3962       3961  
      3830       3831       3842       3841       3951       3952       3963       3962  
      3831       3832       3843       3842       3952       3953       3964       3963  
      3832       3833       3844       3843       3953       3954       3965       3964  
      3833       3834       3845       3844       3954       3955       3966       3965  
      3834       3835       3846       3845       3955       3956       3967       3966  
      3835       3836       3847       3846       3956       3957       3968       3967  
      3836       3837       3848       3847       3957       3958       3969       3968  
      3837       3838       3849       3848       3958       3959       3970       3969  
      3838       3839       3850       3849       3959       3960       3971       3970  
      3840       3841       3852       3851       3961       3962       3973       3972  
      3841       3842       3853       3852       3962       3963       3974       3973  
      3842       3843       3854       3853       3963       3964       3975       3974  
      3843       3844       3855       3854       3964       3965       3976       3975  
      3844       3845       3856       3855       3965       3966       3977       3976  
      3845       3846       3857       3856       3966       3967       3978       3977  
      3846       3847       3858       3857       3967       3968       3979       3978  
      3847       3848       3859       3858       3968       3969       3980       3979  
      3848       3849       3860       3859       3969       3970       3981       3980  
      3849       3850       3861       3860       3970       3971       3982       3981  
      3851       3852       3863       3862       3972       3973       3984       3983  
      3852       3853       3864       3863       3973       3974       3985       3984  
      3853       3854       3865       3864       3974       3975       3986       3985  
      3854       3855       3866       3865       3975       3976       3987       3986  
      3855       3856       3867       3866       3976       3977       3988       3987  
      3856       3857       3868       3867       3977       3978       3989       3988  
      3857       3858       3869       3868       3978       3979       3990       3989  
      3858       3859       3870       3869       3979       3980       3991       3990  
      3859       3860       3871       3870       3980       3981       3992       3991  
      3860       3861       3872       3871       3981       3982       3993       3992  
      3873       3874       3885       3884       3994       3995       4006       4005  
      3874       3875       3886       3885       3995       3996       4007       4006  
      3875       3876       3887       3886       3996       3997       4008       4007  
      3876       3877       3888       3887       3997       3998       4009       4008  
      3877       3878       3889       3888       3998       3999       4010       4009  
      3878       3879       3890       3889       3999       4000       4011       4010  
      3879       3880       3891       3890       4000       4001       4012       4011  
      3880       3881       3892       3891       4001       4002       4013       4012  
      3881       3882       3893       3892       4002       4003       4014       4013  
      3882       3883       3894       3893       4003       4004       4015       4014  
      3884       3885       3896       3895       4005       4006       4017       4016  
      3885       3886       3897       3896       4006       4007       4018       4017  
      3886       3887       3898       3897       4007       4008       4019       4018  
      3887       3888       3899       3898       4008       4009       4020       4019  
      3888       3889       3900       3899       4009       4010       4021       4020  
      3889       3890       3901       3900       4010       4011       4022       4021  
      3890       3891       3902       3901       4011       4012       4023       4022  
      3891       3892       3903       3902       4012       4013       4024       4023  
      3892       3893       3904       3903       4013       4014       4025       4024  
      3893       3894       3905       3904       4014       4015       4026       4025  
      3895       3896       3907       3906       4016       4017       4028       4027  
      3896       3897       3908       3907       4017       4018       4029       4028  
      3897       3898       3909       3908       4018       4019       4030       4029  
      3898       3899       3910       3909       4019       4020       4031       4030  
      3899       3900       3911       3910       4020       4021       4032       4031  
      3900       3901       3912       3911       4021       4022       4033       4032  
      3901       3902       3913       3912       4022       4023       4034       4033  
      3902       3903       3914       3913       4023       4024       4035       4034  
      3903       3904       3915       3914       4024       4025       4036       4035  
      3904       3905       3916       3915       4025       4026       4037       4036  
      3906       3907       3918       3917       4027       4028       4039       4038  
      3907       3908       3919       3918       4028       4029       4040       4039  
      3908       3909       3920       3919       4029       4030       4041       4040  
      3909       3910       3921       3920       4030       4031       4042       4041  
      3910       3911       3922       3921       4031       4032       4043       4042  
      3911       3912       3923       3922       4032       4033       4044       4043  
      3912       3913       3924       3923       4033       4034       4045       4044  
      3913       3914       3925       3924       4034       4035       4046       4045  
      3914       3915       3926       3925       4035       4036       4047       4046  
      3915       3916       3927       3926       4036       4037       4048       4047  
      3917       3918       3929       3928       4038       4039       4050       4049  
      3918       3919       3930       3929       4039       4040       4051       4050  
      3919       3920       3931       3930       4040       4041       4052       4051  
      3920       3921       3932       3931       4041       4042       4053       4052  
      3921       3922       3933       3932       4042       4043       4054       4053  
      3922       3923       3934       3933       4043       4044       4055       4054  
      3923       3924       3935       3934       4044       4045       4056       4055  
      3924       3925       3936       3935       4045       4046       4057       4056  
      3925       3926       3937       3936       4046       4047       4058       4057  
      3926       3927       3938       3937       4047       4048       4059       4058  
      3928       3929       3940       3939       4049       4050       4061       4060  
      3929       3930       3941       3940       4050       4051       4062       4061  
      3930       3931       3942       3941       4051       4052       4063       4062  
      3931       3932       3943       3942       4052       4053       4064       4063  
      3932       3933       3944       3943       4053       4054       4065       4064  
      3933       3934       3945       3944       4054       4055       4066       4065  
      3934       3935       3946       3945       4055       4056       4067       4066  
      3935       3936       3947       3946       4056       4057       4068       4067  
      3936       3937       3948       3947       4057       4058       4069       4068  
      3937       3938       3949       3948       4058       4059       4070       4069  
      3939       3940       3951       3950       4060       4061       4072       4071  
      3940       3941       3952       3951       4061       4062       4073       4072  
      3941       3942       3953       3952       4062       4063       4074       4073  
      3942       3943       3954       3953       4063       4064       4075       4074  
      3943       3944       3955       3954       4064       4065       4076       4075  
      3944       3945       3956       3955       4065       4066       4077       4076  
      3945       3946       3957       3956       4066       4067       4078       4077  
      3946       3947       3958       3957       4067       4068       4079       4078  
      3947       3948       3959       3958       4068       4069       4080       4079  
      3948       3949       3960       3959       4069       4070       4081       4080  
      3950       3951       3962       3961       4071       4072       4083       4082  
      3951       3952       3963       3962       4072       4073       4084       4083  
      3952       3953       3964       3963       4073       4074       4085       4084  
      3953       3954       3965       3964       4074       4075       4086       4085  
      3954       3955       3966       3965       4075       4076       4087       4086  
      3955       3956       3967       3966       4076       4077       4088       4087  
      3956       3957       3968       3967       4077       4078       4089       4088  
      3957       3958       3969       3968       4078       4079       4090       4089  
      3958       3959       3970       3969       4079       4080       4091       4090  
      3959       3960       3971       3970       4080       4081       4092       4091  
      3961       3962       3973       3972       4082       4083       4094       4093  
      3962       3963       3974       3973       4083       4084       4095       4094  
      3963       3964       3975       3974       4084       4085       4096       4095  
      3964       3965       3976       3975       4085       4086       4097       4096  
      3965       3966       3977       3976       4086       4087       4098       4097  
      3966       3967       3978       3977       4087       4088       4099       4098  
      3967       3968       3979       3978       4088       4089       4100       4099  
      3968       3969       3980       3979       4089       4090       4101       4100  
      3969       3970       3981       3980       4090       4091       4102       4101  
      3970       3971       3982       3981       4091       4092       4103       4102  
      3972       3973       3984       3983       4093       4094       4105       4104  
      3973       3974       3985       3984       4094       4095       4106       4105  
      3974       3975       3986       3985       4095       4096       4107       4106  
      3975       3976       3987       3986       4096       4097       4108       4107  
      3976       3977       3988       3987       4097       4098       4109       4108  
      3977       3978       3989       3988       4098       4099       4110       4109  
      3978       3979       3990       3989       4099       4100       4111       4110  
      3979       3980       3991       3990       4100       4101       4112       4111  
      3980       3981       3992       3991       4101       4102       4113       4112  
      3981       3982       3993       3992       4102       4103       4114       4113  
      3994       3995       4006       4005       4115       4116       4127       4126  
      3995       3996       4007       4006       4116       4117       4128       4127  
      3996       3997       4008       4007       4117       4118       4129       4128  
      3997       3998       4009       4008       4118       4119       4130       4129  
      3998       3999       4010       4009       4119       4120       4131       4130  
      3999       4000       4011       4010       4120       4121       4132       4131  
      4000       4001       4012       4011       4121       4122       4133       4132  
      4001       4002       4013       4012       4122       4123       4134       4133  
      4002       4003       4014       4013       4123       4124       4135       4134  
      4003       4004       4015       4014       4124       4125       4136       4135  
      4005       4006       4017       4016       4126       4127       4138       4137  
      4006       4007       4018       4017       4127       4128       4139       4138  
      4007       4008       4019       4018       4128       4129       4140       4139  
      4008       4009       4020       4019       4129       4130       4141       4140  
      4009       4010       4021       4020       4130       4131       4142       4141  
      4010       4011       4022       4021       4131       4132       4143       4142  
      4011       4012       4023       4022       4132       4133       4144       4143  
      4012       4013       4024       4023       4133       4134       4145       4144  
      4013       4014       4025       4024       4134       4135       4146       4145  
      4014       4015       4026       4025       4135       4136       4147       4146  
      4016       4017       4028       4027       4137       4138       4149       4148  
      4017       4018       4029       4028       4138       4139       4150       4149  
      4018       4019       4030       4029       4139       4140       4151       4150  
      4019       4020       4031       4030       4140       4141       4152       4151  
      4020       4021       4032       4031       4141       4142       4153       4152  
      4021       4022       4033       4032       4142       4143       4154       4153  
      4022       4023       4034       4033       4143       4144       4155       4154  
      4023       4024       4035       4034       4144       4145       4156       4155  
      4024       4025       4036       4035       4145       4146       4157       4156  
      4025       4026       4037       4036       4146       4147       4158       4157  
      4027       4028       4039       4038       4148       4149       4160       4159  
      4028       4029       4040       4039       4149       4150       4161       4160  
      4029       4030       4041       4040       4150       4151       4162       4161  
      4030       4031       4042       4041       4151       4152       4163       4162  
      4031       4032       4043       4042       4152       4153       4164       4163  
      4032       4033       4044       4043       4153       4154       4165       4164  
      4033       4034       4045       4044       4154       4155       4166       4165  
      4034       4035       4046       4045       4155       4156       4167       4166  
      4035       4036       4047       4046       4156       4157       4168       4167  
      4036       4037       4048       4047       4157       4158       4169       4168  
      4038       4039       4050       4049       4159       4160       4171       4170  
      4039       4040       4051       4050       4160       4161       4172       4171  
      4040       4041       4052       4051       4161       4162       4173       4172  
      4041       4042       4053       4052       4162       4163       4174       4173  
      4042       4043       4054       4053       4163       4164       4175       4174  
      4043       4044       4055       4054       4164       4165       4176       4175  
      4044       4045       4056       4055       4165       4166       4177       4176  
      4045       4046       4057       4056       4166       4167       4178       4177  
      4046       4047       4058       4057       4167       4168       4179       4178  
      4047       4048       4059       4058       4168       4169       4180       4179  
      4049       4050       4061       4060       4170       4171       4182       4181  
      4050       4051       4062       4061       4171       4172       4183       4182  
      4051       4052       4063       4062       4172       4173       4184       4183  
      4052       4053       4064       4063       4173       4174       4185       4184  
      4053       4054       4065       4064       4174       4175       4186       4185  
      4054       4055       4066       4065       4175       4176       4187       4186  
      4055       4056       4067       4066       4176       4177       4188       4187  
      4056       4057       4068       4067       4177       4178       4189       4188  
      4057       4058       4069       4068       4178       4179       4190       4189  
      4058       4059       4070       4069       4179       4180       4191       4190  
      4060       4061       4072       4071       4181       4182       4193       4192  
      4061       4062       4073       4072       4182       4183       4194       4193  
      4062       4063       4074       4073       4183       4184       4195       4194  
      4063       4064       4075       4074       4184       4185       4196       4195  
      4064       4065       4076       4075       4185       4186       4197       4196  
      4065       4066       4077       4076       4186       4187       4198       4197  
      4066       4067       4078       4077       4187       4188       4199       4198  
      4067       4068       4079       4078       4188       4189       4200       4199  
      4068       4069       4080       4079       4189       4190       4201       4200  
      4069       4070       4081       4080       4190       4191       4202       4201  
      4071       4072       4083       4082       4192       4193       4204       4203  
      4072       4073       4084       4083       4193       4194       4205       4204  
      4073       4074       4085       4084       4194       4195       4206       4205  
      4074       4075       4086       4085       4195       4196       4207       4206  
      4075       4076       4087       4086       4196       4197       4208       4207  
      4076       4077       4088       4087       4197       4198       4209       4208  
      4077       4078       4089       4088       4198       4199       4210       4209  
      4078       4079       4090       4089       4199       4200       4211       4210  
      4079       4080       4091       4090       4200       4201       4212       4211  
      4080       4081       4092       4091       4201       4202       4213       4212  
      4082       4083       4094       4093       4203       4204       4215       4214  
      4083       4084       4095       4094       4204       4205       4216       4215  
      4084       4085       4096       4095       4205       4206       4217       4216  
      4085       4086       4097       4096       4206       4207       4218       4217  
      4086       4087       4098       4097       4207       4208       4219       4218  
      4087       4088       4099       4098       4208       4209       4220       4219  
      4088       4089       4100       4099       4209       4210       4221       4220  
      4089       4090       4101       4100       4210       4211       4222       4221  
      4090       4091       4102       4101       4211       4212       4223       4222  
      4091       4092       4103       4102       4212       4213       4224       4223  
      4093       4094       4105       4104       4214       4215       4226       4225  
      4094       4095       4106       4105       4215       4216       4227       4226  
      4095       4096       4107       4106       4216       4217       4228       4227  
      4096       4097       4108       4107       4217       4218       4229       4228  
      4097       4098       4109       4108       4218       4219       4230       4229  
      4098       4099       4110       4109       4219       4220       4231       4230  
      4099       4100       4111       4110       4220       4221       4232       4231  
      4100       4101       4112       4111       4221       4222       4233       4232  
      4101       4102       4113       4112       4222       4223       4234       4233  
      4102       4103       4114       4113       4223       4224       4235       4234  
      4115       4116       4127       4126       4236       4237       4248       4247  
      4116       4117       4128       4127       4237       4238       4249       4248  
      4117       4118       4129       4128       4238       4239       4250       4249  
      4118       4119       4130       4129       4239       4240       4251       4250  
      4119       4120       4131       4130       4240       4241       4252       4251  
      4120       4121       4132       4131       4241       4242       4253       4252  
      4121       4122       4133       4132       4242       4243       4254       4253  
      4122       4123       4134       4133       4243       4244       4255       4254  
      4123       4124       4135       4134       4244       4245       4256       4255  
      4124       4125       4136       4135       4245       4246       4257       4256  
      4126       4127       4138       4137       4247       4248       4259       4258  
      4127       4128       4139       4138       4248       4249       4260       4259  
      4128       4129       4140       4139       4249       4250       4261       4260  
      4129       4130       4141       4140       4250       4251       4262       4261  
      4130       4131       4142       4141       4251       4252       4263       4262  
      4131       4132       4143       4142       4252       4253       4264       4263  
      4132       4133       4144       4143       4253       4254       4265       4264  
      4133       4134       4145       4144       4254       4255       4266       4265  
      4134       4135       4146       4145       4255       4256       4267       4266  
      4135       4136       4147       4146       4256       4257       4268       4267  
      4137       4138       4149       4148       4258       4259       4270       4269  
      4138       4139       4150       4149       4259       4260       4271       4270  
      4139       4140       4151       4150       4260       4261       4272       4271  
      4140       4141       4152       4151       4261       4262       4273       4272  
      4141       4142       4153       4152       4262       4263       4274       4273  
      4142       4143       4154       4153       4263       4264       4275       4274  
      4143       4144       4155       4154       4264       4265       4276       4275  
      4144       4145       4156       4155       4265       4266       4277       4276  
      4145       4146       4157       4156       4266       4267       4278       4277  
      4146       4147       4158       4157       4267       4268       4279       4278  
      4148       4149       4160       4159       4269       4270       4281       4280  
      4149       4150       4161       4160       4270       4271       4282       4281  
      4150       4151       4162       4161       4271       4272       4283       4282  
      4151       4152       4163       4162       4272       4273       4284       4283  
      4152       4153       4164       4163       4273       4274       4285       4284  
      4153       4154       4165       4164       4274       4275       4286       4285  
      4154       4155       4166       4165       4275       4276       4287       4286  
      4155       4156       4167       4166       4276       4277       4288       4287  
      4156       4157       4168       4167       4277       4278       4289       4288  
      4157       4158       4169       4168       4278       4279       4290       4289  
      4159       4160       4171       4170       4280       4281       4292       4291  
      4160       4161       4172       4171       4281       4282       4293       4292  
      4161       4162       4173       4172       4282       4283       4294       4293  
      4162       4163       4174       4173       4283       4284       4295       4294  
      4163       4164       4175       4174       4284       4285       4296       4295  
      4164       4165       4176       4175       4285       4286       4297       4296  
      4165       4166       4177       4176       4286       4287       4298       4297  
      4166       4167       4178       4177       4287       4288       4299       4298  
      4167       4168       4179       4178       4288       4289       4300       4299  
      4168       4169       4180       4179       4289       4290       4301       4300  
      4170       4171       4182       4181       4291       4292       4303       4302  
      4171       4172       4183       4182       4292       4293       4304       4303  
      4172       4173       4184       4183       4293       4294       4305       4304  
      4173       4174       4185       4184       4294       4295       4306       4305  
      4174       4175       4186       4185       4295       4296       4307       4306  
      4175       4176       4187       4186       4296       4297       4308       4307  
      4176       4177       4188       4187       4297       4298       4309       4308  
      4177       4178       4189       4188       4298       4299       4310       4309  
      4178       4179       4190       4189       4299       4300       4311       4310  
      4179       4180       4191       4190       4300       4301       4312       4311  
      4181       4182       4193       4192       4302       4303       4314       4313  
      4182       4183       4194       4193       4303       4304       4315       4314  
      4183       4184       4195       4194       4304       4305       4316       4315  
      4184       4185       4196       4195       4305       4306       4317       4316  
      4185       4186       4197       4196       4306       4307       4318       4317  
      4186       4187       4198       4197       4307       4308       4319       4318  
      4187       4188       4199       4198       4308       4309       4320       4319  
      4188       4189       4200       4199       4309       4310       4321       4320  
      4189       4190       4201       4200       4310       4311       4322       4321  
      4190       4191       4202       4201       4311       4312       4323       4322  
      4192       4193       4204       4203       4313       4314       4325       4324  
      4193       4194       4205       4204       4314       4315       4326       4325  
      4194       4195       4206       4205       4315       4316       4327       4326  
      4195       4196       4207       4206       4316       4317       4328       4327  
      4196       4197       4208       4207       4317       4318       4329       4328  
      4197       4198       4209       4208       4318       4319       4330       4329  
      4198       4199       4210       4209       4319       4320       4331       4330  
      4199       4200       4211       4210       4320       4321       4332       4331  
      4200       4201       4212       4211       4321       4322       4333       4332  
      4201       4202       4213       4212       4322       4323       4334       4333  
      4203       4204       4215       4214       4324       4325       4336       4335  
      4204       4205       4216       4215       4325       4326       4337       4336  
      4205       4206       4217       4216       4326       4327       4338       4337  
      4206       4207       4218       4217       4327       4328       4339       4338  
      4207       4208       4219       4218       4328       4329       4340       4339  
      4208       4209       4220       4219       4329       4330       4341       4340  
      4209       4210       4221       4220       4330       4331       4342       4341  
      4210       4211       4222       4221       4331       4332       4343       4342  
      4211       4212       4223       4222       4332       4333       4344       4343  
      4212       4213       4224       4223       4333       4334       4345       4344  
      4214       4215       4226       4225       4335       4336       4347       4346  
      4215       4216       4227       4226       4336       4337       4348       4347  
      4216       4217       4228       4227       4337       4338       4349       4348  
      4217       4218       4229       4228       4338       4339       4350       4349  
      4218       4219       4230       4229       4339       4340       4351       4350  
      4219       4220       4231       4230       4340       4341       4352       4351  
      4220       4221       4232       4231       4341       4342       4353       4352  
      4221       4222       4233       4232       4342       4343       4354       4353  
      4222       4223       4234       4233       4343       4344       4355       4354  
      4223       4224       4235       4234       4344       4345       4356       4355  
      4236       4237       4248       4247       4357       4358       4369       4368  
      4237       4238       4249       4248       4358       4359       4370       4369  
      4238       4239       4250       4249       4359       4360       4371       4370  
      4239       4240       4251       4250       4360       4361       4372       4371  
      4240       4241       4252       4251       4361       4362       4373       4372  
      4241       4242       4253       4252       4362       4363       4374       4373  
      4242       4243       4254       4253       4363       4364       4375       4374  
      4243       4244       4255       4254       4364       4365       4376       4375  
      4244       4245       4256       4255       4365       4366       4377       4376  
      4245       4246       4257       4256       4366       4367       4378       4377  
      4247       4248       4259       4258       4368       4369       4380       4379  
      4248       4249       4260       4259       4369       4370       4381       4380  
      4249       4250       4261       4260       4370       4371       4382       4381  
      4250       4251       4262       4261       4371       4372       4383       4382  
      4251       4252       4263       4262       4372       4373       4384       4383  
      4252       4253       4264       4263       4373       4374       4385       4384  
      4253       4254       4265       4264       4374       4375       4386       4385  
      4254       4255       4266       4265       4375       4376       4387       4386  
      4255       4256       4267       4266       4376       4377       4388       4387  
      4256       4257       4268       4267       4377       4378       4389       4388  
      4258       4259       4270       4269       4379       4380       4391       4390  
      4259       4260       4271       4270       4380       4381       4392       4391  
      4260       4261       4272       4271       4381       4382       4393       4392  
      4261       4262       4273       4272       4382       4383       4394       4393  
      4262       4263       4274       4273       4383       4384       4395       4394  
      4263       4264       4275       4274       4384       4385       4396       4395  
      4264       4265       4276       4275       4385       4386       4397       4396  
      4265       4266       4277       4276       4386       4387       4398       4397  
      4266       4267       4278       4277       4387       4388       4399       4398  
      4267       4268       4279       4278       4388       4389       4400       4399  
      4269       4270       4281       4280       4390       4391       4402       4401  
      4270       4271       4282       4281       4391       4392       4403       4402  
      4271       4272       4283       4282       4392       4393       4404       4403  
      4272       4273       4284       4283       4393       4394       4405       4404  
      4273       4274       4285       4284       4394       4395       4406       4405  
      4274       4275       4286       4285       4395       4396       4407       4406  
      4275       4276       4287       4286       4396       4397       4408       4407  
      4276       4277       4288       4287       4397       4398       4409       4408  
      4277       4278       4289       4288       4398       4399       4410       4409  
      4278       4279       4290       4289       4399       4400       4411       4410  
      4280       4281       4292       4291       4401       4402       4413       4412  
      4281       4282       4293       4292       4402       4403       4414       4413  
      4282       4283       4294       4293       4403       4404       4415       4414  
      4283       4284       4295       4294       4404       4405       4416       4415  
      4284       4285       4296       4295       4405       4406       4417       4416  
      4285       4286       4297       4296       4406       4407       4418       4417  
      4286       4287       4298       4297       4407       4408       4419       4418  
      4287       4288       4299       4298       4408       4409       4420       4419  
      4288       4289       4300       4299       4409       4410       4421       4420  
      4289       4290       4301       4300       4410       4411       4422       4421  
      4291       4292       4303       4302       4412       4413       4424       4423  
      4292       4293       4304       4303       4413       4414       4425       4424  
      4293       4294       4305       4304       4414       4415       4426       4425  
      4294       4295       4306       4305       4415       4416       4427       4426  
      4295       4296       4307       4306       4416       4417       4428       4427  
      4296       4297       4308       4307       4417       4418       4429       4428  
      4297       4298       4309       4308       4418       4419       4430       4429  
      4298       4299       4310       4309       4419       4420       4431       4430  
      4299       4300       4311       4310       4420       4421       4432       4431  
      4300       4301       4312       4311       4421       4422       4433       4432  
      4302       4303       4314       4313       4423       4424       4435       4434  
      4303       4304       4315       4314       4424       4425       4436       4435  
      4304       4305       4316       4315       4425       4426       4437       4436  
      4305       4306       4317       4316       4426       4427       4438       4437  
      4306       4307       4318       4317       4427       4428       4439       4438  
      4307       4308       4319       4318       4428       4429       4440       4439  
      4308       4309       4320       4319       4429       4430       4441       4440  
      4309       4310       4321       4320       4430       4431       4442       4441  
      4310       4311       4322       4321       4431       4432       4443       4442  
      4311       4312       4323       4322       4432       4433       4444       4443  
      4313       4314       4325       4324       4434       4435       4446       4445  
      4314       4315       4326       4325       4435       4436       4447       4446  
      4315       4316       4327       4326       4436       4437       4448       4447  
      4316       4317       4328       4327       4437       4438       4449       4448  
      4317       4318       4329       4328       4438       4439       4450       4449  
      4318       4319       4330       4329       4439       4440       4451       4450  
      4319       4320       4331       4330       4440       4441       4452       4451  
      4320       4321       4332       4331       4441       4442       4453       4452  
      4321       4322       4333       4332       4442       4443       4454       4453  
      4322       4323       4334       4333       4443       4444       4455       4454  
      4324       4325       4336       4335       4445       4446       4457       4456  
      4325       4326       4337       4336       4446       4447       4458       4457  
      4326       4327       4338       4337       4447       4448       4459       4458  
      4327       4328       4339       4338       4448       4449       4460       4459  
      4328       4329       4340       4339       4449       4450       4461       4460  
      4329       4330       4341       4340       4450       4451       4462       4461  
      4330       4331       4342       4341       4451       4452       4463       4462  
      4331       4332       4343       4342       4452       4453       4464       4463  
      4332       4333       4344       4343       4453       4454       4465       4464  
      4333       4334       4345       4344       4454       4455       4466       4465  
      4335       4336       4347       4346       4456       4457       4468       4467  
      4336       4337       4348       4347       4457       4458       4469       4468  
      4337       4338       4349       4348       4458       4459       4470       4469  
      4338       4339       4350       4349       4459       4460       4471       4470  
      4339       4340       4351       4350       4460       4461       4472       4471  
      4340       4341       4352       4351       4461       4462       4473       4472  
      4341       4342       4353       4352       4462       4463       4474       4473  
      4342       4343       4354       4353       4463       4464       4475       4474  
      4343       4344       4355       4354       4464       4465       4476       4475  
      4344       4345       4356       4355       4465       4466       4477       4476  
      4357       4358       4369       4368       4478       4479       4490       4489  
      4358       4359       4370       4369       4479       4480       4491       4490  
      4359       4360       4371       4370       4480       4481       4492       4491  
      4360       4361       4372       4371       4481       4482       4493       4492  
      4361       4362       4373       4372       4482       4483       4494       4493  
      4362       4363       4374       4373       4483       4484       4495       4494  
      4363       4364       4375       4374       4484       4485       4496       4495  
      4364       4365       4376       4375       4485       4486       4497       4496  
      4365       4366       4377       4376       4486       4487       4498       4497  
      4366       4367       4378       4377       4487       4488       4499       4498  
      4368       4369       4380       4379       4489       4490       4501       4500  
      4369       4370       4381       4380       4490       4491       4502       4501  
      4370       4371       4382       4381       4491       4492       4503       4502  
      4371       4372       4383       4382       4492       4493       4504       4503  
      4372       4373       4384       4383       4493       4494       4505       4504  
      4373       4374       4385       4384       4494       4495       4506       4505  
      4374       4375       4386       4385       4495       4496       4507       4506  
      4375       4376       4387       4386       4496       4497       4508       4507  
      4376       4377       4388       4387       4497       4498       4509       4508  
      4377       4378       4389       4388       4498       4499       4510       4509  
      4379       4380       4391       4390       4500       4501       4512       4511  
      4380       4381       4392       4391       4501       4502       4513       4512  
      4381       4382       4393       4392       4502       4503       4514       4513  
      4382       4383       4394       4393       4503       4504       4515       4514  
      4383       4384       4395       4394       4504       4505       4516       4515  
      4384       4385       4396       4395       4505       4506       4517       4516  
      4385       4386       4397       4396       4506       4507       4518       4517  
      4386       4387       4398       4397       4507       4508       4519       4518  
      4387       4388       4399       4398       4508       4509       4520       4519  
      4388       4389       4400       4399       4509       4510       4521       4520  
      4390       4391       4402       4401       4511       4512       4523       4522  
      4391       4392       4403       4402       4512       4513       4524       4523  
      4392       4393       4404       4403       4513       4514       4525       4524  
      4393       4394       4405       4404       4514       4515       4526       4525  
      4394       4395       4406       4405       4515       4516       4527       4526  
      4395       4396       4407       4406       4516       4517       4528       4527  
      4396       4397       4408       4407       4517       4518       4529       4528  
      4397       4398       4409       4408       4518       4519       4530       4529  
      4398       4399       4410       4409       4519       4520       4531       4530  
      4399       4400       4411       4410       4520       4521       4532       4531  
      4401       4402       4413       4412       4522       4523       4534       4533  
      4402       4403       4414       4413       4523       4524       4535       4534  
      4403       4404       4415       4414       4524       4525       4536       4535  
      4404       4405       4416       4415       4525       4526       4537       4536  
      4405       4406       4417       4416       4526       4527       4538       4537  
      4406       4407       4418       4417       4527       4528       4539       4538  
      4407       4408       4419       4418       4528       4529       4540       4539  
      4408       4409       4420       4419       4529       4530       4541       4540  
      4409       4410       4421       4420       4530       4531       4542       4541  
      4410       4411       4422       4421       4531       4532       4543       4542  
      4412       4413       4424       4423       4533       4534       4545       4544  
      4413       4414       4425       4424       4534       4535       4546       4545  
      4414       4415       4426       4425       4535       4536       4547       4546  
      4415       4416       4427       4426       4536       4537       4548       4547  
      4416       4417       4428       4427       4537       4538       4549       4548  
      4417       4418       4429       4428       4538       4539       4550       4549  
      4418       4419       4430       4429       4539       4540       4551       4550  
      4419       4420       4431       4430       4540       4541       4552       4551  
      4420       4421       4432       4431       4541       4542       4553       4552  
      4421       4422       4433       4432       4542       4543       4554       4553  
      4423       4424       4435       4434       4544       4545       4556       4555  
      4424       4425       4436       4435       4545       4546       4557       4556  
      4425       4426       4437       4436       4546       4547       4558       4557  
      4426       4427       4438       4437       4547       4548       4559       4558  
      4427       4428       4439       4438       4548       4549       4560       4559  
      4428       4429       4440       4439       4549       4550       4561       4560  
      4429       4430       4441       4440       4550       4551       4562       4561  
      4430       4431       4442       4441       4551       4552       4563       4562  
      4431       4432       4443       4442       4552       4553       4564       4563  
      4432       4433       4444       4443       4553       4554       4565       4564  
      4434       4435       4446       4445       4555       4556       4567       4566  
      4435       4436       4447       4446       4556       4557       4568       4567  
      4436       4437       4448       4447       4557       4558       4569       4568  
      4437       4438       4449       4448       4558       4559       4570       4569  
      4438       4439       4450       4449       4559       4560       4571       4570  
      4439       4440       4451       4450       4560       4561       4572       4571  
      4440       4441       4452       4451       4561       4562       4573       4572  
      4441       4442       4453       4452       4562       4563       4574       4573  
      4442       4443       4454       4453       4563       4564       4575       4574  
      4443       4444       4455       4454       4564       4565       4576       4575  
      4445       4446       4457       4456       4566       4567       4578       4577  
      4446       4447       4458       4457       4567       4568       4579       4578  
      4447       4448       4459       4458       4568       4569       4580       4579  
      4448       4449       4460       4459       4569       4570       4581       4580  
      4449       4450       4461       4460       4570       4571       4582       4581  
      4450       4451       4462       4461       4571       4572       4583       4582  
      4451       4452       4463       4462       4572       4573       4584       4583  
      4452       4453       4464       4463       4573       4574       4585       4584  
      4453       4454       4465       4464       4574       4575       4586       4585  
      4454       4455       4466       4465       4575       4576       4587       4586  
      4456       4457       4468       4467       4577       4578       4589       4588  
      4457       4458       4469       4468       4578       4579       4590       4589  
      4458       4459       4470       4469       4579       4580       4591       4590  
      4459       4460       4471       4470       4580       4581       4592       4591  
      4460       4461       4472       4471       4581       4582       4593       4592  
      4461       4462       4473       4472       4582       4583       4594       4593  
      4462       4463       4474       4473       4583       4584       4595       4594  
      4463       4464       4475       4474       4584       4585       4596       4595  
      4464       4465       4476       4475       4585       4586       4597       4596  
      4465       4466       4477       4476       4586       4587       4598       4597  
      4478       4479       4490       4489       4599       4600       4611       4610  
      4479       4480       4491       4490       4600       4601       4612       4611  
      4480       4481       4492       4491       4601       4602       4613       4612  
      4481       4482       4493       4492       4602       4603       4614       4613  
      4482       4483       4494       4493       4603       4604       4615       4614  
      4483       4484       4495       4494       4604       4605       4616       4615  
      4484       4485       4496       4495       4605       4606       4617       4616  
      4485       4486       4497       4496       4606       4607       4618       4617  
      4486       4487       4498       4497       4607       4608       4619       4618  
      4487       4488       4499       4498       4608       4609       4620       4619  
      4489       4490       4501       4500       4610       4611       4622       4621  
      4490       4491       4502       4501       4611       4612       4623       4622  
      4491       4492       4503       4502       4612       4613       4624       4623  
      4492       4493       4504       4503       4613       4614       4625       4624  
      4493       4494       4505       4504       4614       4615       4626       4625  
      4494       4495       4506       4505       4615       4616       4627       4626  
      4495       4496       4507       4506       4616       4617       4628       4627  
      4496       4497       4508       4507       4617       4618       4629       4628  
      4497       4498       4509       4508       4618       4619       4630       4629  
      4498       4499       4510       4509       4619       4620       4631       4630  
      4500       4501       4512       4511       4621       4622       4633       4632  
      4501       4502       4513       4512       4622       4623       4634       4633  
      4502       4503       4514       4513       4623       4624       4635       4634  
      4503       4504       4515       4514       4624       4625       4636       4635  
      4504       4505       4516       4515       4625       4626       4637       4636  
      4505       4506       4517       4516       4626       4627       4638       4637  
      4506       4507       4518       4517       4627       4628       4639       4638  
      4507       4508       4519       4518       4628       4629       4640       4639  
      4508       4509       4520       4519       4629       4630       4641       4640  
      4509       4510       4521       4520       4630       4631       4642       4641  
      4511       4512       4523       4522       4632       4633       4644       4643  
      4512       4513       4524       4523       4633       4634       4645       4644  
      4513       4514       4525       4524       4634       4635       4646       4645  
      4514       4515       4526       4525       4635       4636       4647       4646  
      4515       4516       4527       4526       4636       4637       4648       4647  
      4516       4517       4528       4527       4637       4638       4649       4648  
      4517       4518       4529       4528       4638       4639       4650       4649  
      4518       4519       4530       4529       4639       4640       4651       4650  
      4519       4520       4531       4530       4640       4641       4652       4651  
      4520       4521       4532       4531       4641       4642       4653       4652  
      4522       4523       4534       4533       4643       4644       4655       4654  
      4523       4524       4535       4534       4644       4645       4656       4655  
      4524       4525       4536       4535       4645       4646       4657       4656  
      4525       4526       4537       4536       4646       4647       4658       4657  
      4526       4527       4538       4537       4647       4648       4659       4658  
      4527       4528       4539       4538       4648       4649       4660       4659  
      4528       4529       4540       4539       4649       4650       4661       4660  
      4529       4530       4541       4540       4650       4651       4662       4661  
      4530       4531       4542       4541       4651       4652       4663       4662  
      4531       4532       4543       4542       4652       4653       4664       4663  
      4533       4534       4545       4544       4654       4655       4666       4665  
      4534       4535       4546       4545       4655       4656       4667       4666  
      4535       4536       4547       4546       4656       4657       4668       4667  
      4536       4537       4548       4547       4657       4658       4669       4668  
      4537       4538       4549       4548       4658       4659       4670       4669  
      4538       4539       4550       4549       4659       4660       4671       4670  
      4539       4540       4551       4550       4660       4661       4672       4671  
      4540       4541       4552       4551       4661       4662       4673       4672  
      4541       4542       4553       4552       4662       4663       4674       4673  
      4542       4543       4554       4553       4663       4664       4675       4674  
      4544       4545       4556       4555       4665       4666       4677       4676  
      4545       4546       4557       4556       4666       4667       4678       4677  
      4546       4547       4558       4557       4667       4668       4679       4678  
      4547       4548       4559       4558       4668       4669       4680       4679  
      4548       4549       4560       4559       4669       4670       4681       4680  
      4549       4550       4561       4560       4670       4671       4682       4681  
      4550       4551       4562       4561       4671       4672       4683       4682  
      4551       4552       4563       4562       4672       4673       4684       4683  
      4552       4553       4564       4563       4673       4674       4685       4684  
      4553       4554       4565       4564       4674       4675       4686       4685  
      4555       4556       4567       4566       4676       4677       4688       4687  
      4556       4557       4568       4567       4677       4678       4689       4688  
      4557       4558       4569       4568       4678       4679       4690       4689  
      4558       4559       4570       4569       4679       4680       4691       4690  
      4559       4560       4571       4570       4680       4681       4692       4691  
      4560       4561       4572       4571       4681       4682       4693       4692  
      4561       4562       4573       4572       4682       4683       4694       4693  
      4562       4563       4574       4573       4683       4684       4695       4694  
      4563       4564       4575       4574       4684       4685       4696       4695  
      4564       4565       4576       4575       4685       4686       4697       4696  
      4566       4567       4578       4577       4687       4688       4699       4698  
      4567       4568       4579       4578       4688       4689       4700       4699  
      4568       4569       4580       4579       4689       4690       4701       4700  
      4569       4570       4581       4580       4690       4691       4702       4701  
      4570       4571       4582       4581       4691       4692       4703       4702  
      4571       4572       4583       4582       4692       4693       4704       4703  
      4572       4573       4584       4583       4693       4694       4705       4704  
      4573       4574       4585       4584       4694       4695       4706       4705  
      4574       4575       4586       4585       4695       4696       4707       4706  
      4575       4576       4587       4586       4696       4697       4708       4707  
      4577       4578       4589       4588       4698       4699       4710       4709  
      4578       4579       4590       4589       4699       4700       4711       4710  
      4579       4580       4591       4590       4700       4701       4712       4711  
      4580       4581       4592       4591       4701       4702       4713       4712  
      4581       4582       4593       4592       4702       4703       4714       4713  
      4582       4583       4594       4593       4703       4704       4715       4714  
      4583       4584       4595       4594       4704       4705       4716       4715  
      4584       4585       4596       4595       4705       4706       4717       4716  
      4585       4586       4597       4596       4706       4707       4718       4717  
      4586       4587       4598       4597       4707       4708       4719       4718  
      4599       4600       4611       4610       4720       4721       4732       4731  
      4600       4601       4612       4611       4721       4722       4733       4732  
      4601       4602       4613       4612       4722       4723       4734       4733  
      4602       4603       4614       4613       4723       4724       4735       4734  
      4603       4604       4615       4614       4724       4725       4736       4735  
      4604       4605       4616       4615       4725       4726       4737       4736  
      4605       4606       4617       4616       4726       4727       4738       4737  
      4606       4607       4618       4617       4727       4728       4739       4738  
      4607       4608       4619       4618       4728       4729       4740       4739  
      4608       4609       4620       4619       4729       4730       4741       4740  
      4610       4611       4622       4621       4731       4732       4743       4742  
      4611       4612       4623       4622       4732       4733       4744       4743  
      4612       4613       4624       4623       4733       4734       4745       4744  
      4613       4614       4625       4624       4734       4735       4746       4745  
      4614       4615       4626       4625       4735       4736       4747       4746  
      4615       4616       4627       4626       4736       4737       4748       4747  
      4616       4617       4628       4627       4737       4738       4749       4748  
      4617       4618       4629       4628       4738       4739       4750       4749  
      4618       4619       4630       4629       4739       4740       4751       4750  
      4619       4620       4631       4630       4740       4741       4752       4751  
      4621       4622       4633       4632       4742       4743       4754       4753  
      4622       4623       4634       4633       4743       4744       4755       4754  
      4623       4624       4635       4634       4744       4745       4756       4755  
      4624       4625       4636       4635       4745       4746       4757       4756  
      4625       4626       4637       4636       4746       4747       4758       4757  
      4626       4627       4638       4637       4747       4748       4759       4758  
      4627       4628       4639       4638       4748       4749       4760       4759  
      4628       4629       4640       4639       4749       4750       4761       4760  
      4629       4630       4641       4640       4750       4751       4762       4761  
      4630       4631       4642       4641       4751       4752       4763       4762  
      4632       4633       4644       4643       4753       4754       4765       4764  
      4633       4634       4645       4644       4754       4755       4766       4765  
      4634       4635       4646       4645       4755       4756       4767       4766  
      4635       4636       4647       4646       4756       4757       4768       4767  
      4636       4637       4648       4647       4757       4758       4769       4768  
      4637       4638       4649       4648       4758       4759       4770       4769  
      4638       4639       4650       4649       4759       4760       4771       4770  
      4639       4640       4651       4650       4760       4761       4772       4771  
      4640       4641       4652       4651       4761       4762       4773       4772  
      4641       4642       4653       4652       4762       4763       4774       4773  
      4643       4644       4655       4654       4764       4765       4776       4775  
      4644       4645       4656       4655       4765       4766       4777       4776  
      4645       4646       4657       4656       4766       4767       4778       4777  
      4646       4647       4658       4657       4767       4768       4779       4778  
      4647       4648       4659       4658       4768       4769       4780       4779  
      4648       4649       4660       4659       4769       4770       4781       4780  
      4649       4650       4661       4660       4770       4771       4782       4781  
      4650       4651       4662       4661       4771       4772       4783       4782  
      4651       4652       4663       4662       4772       4773       4784       4783  
      4652       4653       4664       4663       4773       4774       4785       4784  
      4654       4655       4666       4665       4775       4776       4787       4786  
      4655       4656       4667       4666       4776       4777       4788       4787  
      4656       4657       4668       4667       4777       4778       4789       4788  
      4657       4658       4669       4668       4778       4779       4790       4789  
      4658       4659       4670       4669       4779       4780       4791       4790  
      4659       4660       4671       4670       4780       4781       4792       4791  
      4660       4661       4672       4671       4781       4782       4793       4792  
      4661       4662       4673       4672       4782       4783       4794       4793  
      4662       4663       4674       4673       4783       4784       4795       4794  
      4663       4664       4675       4674       4784       4785       4796       4795  
      4665       4666       4677       4676       4786       4787       4798       4797  
      4666       4667       4678       4677       4787       4788       4799       4798  
      4667       4668       4679       4678       4788       4789       4800       4799  
      4668       4669       4680       4679       4789       4790       4801       4800  
      4669       4670       4681       4680       4790       4791       4802       4801  
      4670       4671       4682       4681       4791       4792       4803       4802  
      4671       4672       4683       4682       4792       4793       4804       4803  
      4672       4673       4684       4683       4793       4794       4805       4804  
      4673       4674       4685       4684       4794       4795       4806       4805  
      4674       4675       4686       4685       4795       4796       4807       4806  
      4676       4677       4688       4687       4797       4798       4809       4808  
      4677       4678       4689       4688       4798       4799       4810       4809  
      4678       4679       4690       4689       4799       4800       4811       4810  
      4679       4680       4691       4690       4800       4801       4812       4811  
      4680       4681       4692       4691       4801       4802       4813       4812  
      4681       4682       4693       4692       4802       4803       4814       4813  
      4682       4683       4694       4693       4803       4804       4815       4814  
      4683       4684       4695       4694       4804       4805       4816       4815  
      4684       4685       4696       4695       4805       4806       4817       4816  
      4685       4686       4697       4696       4806       4807       4818       4817  
      4687       4688       4699       4698       4808       4809       4820       4819  
      4688       4689       4700       4699       4809       4810       4821       4820  
      4689       4690       4701       4700       4810       4811       4822       4821  
      4690       4691       4702       4701       4811       4812       4823       4822  
      4691       4692       4703       4702       4812       4813       4824       4823  
      4692       4693       4704       4703       4813       4814       4825       4824  
      4693       4694       4705       4704       4814       4815       4826       4825  
      4694       4695       4706       4705       4815       4816       4827       4826  
      4695       4696       4707       4706       4816       4817       4828       4827  
      4696       4697       4708       4707       4817       4818       4829       4828  
      4698       4699       4710       4709       4819       4820       4831       4830  
      4699       4700       4711       4710       4820       4821       4832       4831  
      4700       4701       4712       4711       4821       4822       4833       4832  
      4701       4702       4713       4712       4822       4823       4834       4833  
      4702       4703       4714       4713       4823       4824       4835       4834  
      4703       4704       4715       4714       4824       4825       4836       4835  
      4704       4705       4716       4715       4825       4826       4837       4836  
      4705       4706       4717       4716       4826       4827       4838       4837  
      4706       4707       4718       4717       4827       4828       4839       4838  
      4707       4708       4719       4718       4828       4829       4840       4839  
      4720       4721       4732       4731       4841       4842       4853       4852  
      4721       4722       4733       4732       4842       4843       4854       4853  
      4722       4723       4734       4733       4843       4844       4855       4854  
      4723       4724       4735       4734       4844       4845       4856       4855  
      4724       4725       4736       4735       4845       4846       4857       4856  
      4725       4726       4737       4736       4846       4847       4858       4857  
      4726       4727       4738       4737       4847       4848       4859       4858  
      4727       4728       4739       4738       4848       4849       4860       4859  
      4728       4729       4740       4739       4849       4850       4861       4860  
      4729       4730       4741       4740       4850       4851       4862       4861  
      4731       4732       4743       4742       4852       4853       4864       4863  
      4732       4733       4744       4743       4853       4854       4865       4864  
      4733       4734       4745       4744       4854       4855       4866       4865  
      4734       4735       4746       4745       4855       4856       4867       4866  
      4735       4736       4747       4746       4856       4857       4868       4867  
      4736       4737       4748       4747       4857       4858       4869       4868  
      4737       4738       4749       4748       4858       4859       4870       4869  
      4738       4739       4750       4749       4859       4860       4871       4870  
      4739       4740       4751       4750       4860       4861       4872       4871  
      4740       4741       4752       4751       4861       4862       4873       4872  
      4742       4743       4754       4753       4863       4864       4875       4874  
      4743       4744       4755       4754       4864       4865       4876       4875  
      4744       4745       4756       4755       4865       4866       4877       4876  
      4745       4746       4757       4756       4866       4867       4878       4877  
      4746       4747       4758       4757       4867       4868       4879       4878  
      4747       4748       4759       4758       4868       4869       4880       4879  
      4748       4749       4760       4759       4869       4870       4881       4880  
      4749       4750       4761       4760       4870       4871       4882       4881  
      4750       4751       4762       4761       4871       4872       4883       4882  
      4751       4752       4763       4762       4872       4873       4884       4883  
      4753       4754       4765       4764       4874       4875       4886       4885  
      4754       4755       4766       4765       4875       4876       4887       4886  
      4755       4756       4767       4766       4876       4877       4888       4887  
      4756       4757       4768       4767       4877       4878       4889       4888  
      4757       4758       4769       4768       4878       4879       4890       4889  
      4758       4759       4770       4769       4879       4880       4891       4890  
      4759       4760       4771       4770       4880       4881       4892       4891  
      4760       4761       4772       4771       4881       4882       4893       4892  
      4761       4762       4773       4772       4882       4883       4894       4893  
      4762       4763       4774       4773       4883       4884       4895       4894  
      4764       4765       4776       4775       4885       4886       4897       4896  
      4765       4766       4777       4776       4886       4887       4898       4897  
      4766       4767       4778       4777       4887       4888       4899       4898  
      4767       4768       4779       4778       4888       4889       4900       4899  
      4768       4769       4780       4779       4889       4890       4901       4900  
      4769       4770       4781       4780       4890       4891       4902       4901  
      4770       4771       4782       4781       4891       4892       4903       4902  
      4771       4772       4783       4782       4892       4893       4904       4903  
      4772       4773       4784       4783       4893       4894       4905       4904  
      4773       4774       4785       4784       4894       4895       4906       4905  
      4775       4776       4787       4786       4896       4897       4908       4907  
      4776       4777       4788       4787       4897       4898       4909       4908  
      4777       4778       4789       4788       4898       4899       4910       4909  
      4778       4779       4790       4789       4899       4900       4911       4910  
      4779       4780       4791       4790       4900       4901       4912       4911  
      4780       4781       4792       4791       4901       4902       4913       4912  
      4781       4782       4793       4792       4902       4903       4914       4913  
      4782       4783       4794       4793       4903       4904       4915       4914  
      4783       4784       4795       4794       4904       4905       4916       4915  
      4784       4785       4796       4795       4905       4906       4917       4916  
      4786       4787       4798       4797       4907       4908       4919       4918  
      4787       4788       4799       4798       4908       4909       4920       4919  
      4788       4789       4800       4799       4909       4910       4921       4920  
      4789       4790       4801       4800       4910       4911       4922       4921  
      4790       4791       4802       4801       4911       4912       4923       4922  
      4791       4792       4803       4802       4912       4913       4924       4923  
      4792       4793       4804       4803       4913       4914       4925       4924  
      4793       4794       4805       4804       4914       4915       4926       4925  
      4794       4795       4806       4805       4915       4916       4927       4926  
      4795       4796       4807       4806       4916       4917       4928       4927  
      4797       4798       4809       4808       4918       4919       4930       4929  
      4798       4799       4810       4809       4919       4920       4931       4930  
      4799       4800       4811       4810       4920       4921       4932       4931  
      4800       4801       4812       4811       4921       4922       4933       4932  
      4801       4802       4813       4812       4922       4923       4934       4933  
      4802       4803       4814       4813       4923       4924       4935       4934  
      4803       4804       4815       4814       4924       4925       4936       4935  
      4804       4805       4816       4815       4925       4926       4937       4936  
      4805       4806       4817       4816       4926       4927       4938       4937  
      4806       4807       4818       4817       4927       4928       4939       4938  
      4808       4809       4820       4819       4929       4930       4941       4940  
      4809       4810       4821       4820       4930       4931       4942       4941  
      4810       4811       4822       4821       4931       4932       4943       4942  
      4811       4812       4823       4822       4932       4933       4944       4943  
      4812       4813       4824       4823       4933       4934       4945       4944  
      4813       4814       4825       4824       4934       4935       4946       4945  
      4814       4815       4826       4825       4935       4936       4947       4946  
      4815       4816       4827       4826       4936       4937       4948       4947  
      4816       4817       4828       4827       4937       4938       4949       4948  
      4817       4818       4829       4828       4938       4939       4950       4949  
      4819       4820       4831       4830       4940       4941       4952       4951  
      4820       4821       4832       4831       4941       4942       4953       4952  
      4821       4822       4833       4832       4942       4943       4954       4953  
      4822       4823       4834       4833       4943       4944       4955       4954  
      4823       4824       4835       4834       4944       4945       4956       4955  
      4824       4825       4836       4835       4945       4946       4957       4956  
      4825       4826       4837       4836       4946       4947       4958       4957  
      4826       4827       4838       4837       4947       4948       4959       4958  
      4827       4828       4839       4838       4948       4949       4960       4959  
      4828       4829       4840       4839       4949       4950       4961       4960  
      4841       4842       4853       4852       4962       4963       4974       4973  
      4842       4843       4854       4853       4963       4964       4975       4974  
      4843       4844       4855       4854       4964       4965       4976       4975  
      4844       4845       4856       4855       4965       4966       4977       4976  
      4845       4846       4857       4856       4966       4967       4978       4977  
      4846       4847       4858       4857       4967       4968       4979       4978  
      4847       4848       4859       4858       4968       4969       4980       4979  
      4848       4849       4860       4859       4969       4970       4981       4980  
      4849       4850       4861       4860       4970       4971       4982       4981  
      4850       4851       4862       4861       4971       4972       4983       4982  
      4852       4853       4864       4863       4973       4974       4985       4984  
      4853       4854       4865       4864       4974       4975       4986       4985  
      4854       4855       4866       4865       4975       4976       4987       4986  
      4855       4856       4867       4866       4976       4977       4988       4987  
      4856       4857       4868       4867       4977       4978       4989       4988  
      4857       4858       4869       4868       4978       4979       4990       4989  
      4858       4859       4870       4869       4979       4980       4991       4990  
      4859       4860       4871       4870       4980       4981       4992       4991  
      4860       4861       4872       4871       4981       4982       4993       4992  
      4861       4862       4873       4872       4982       4983       4994       4993  
      4863       4864       4875       4874       4984       4985       4996       4995  
      4864       4865       4876       4875       4985       4986       4997       4996  
      4865       4866       4877       4876       4986       4987       4998       4997  
      4866       4867       4878       4877       4987       4988       4999       4998  
      4867       4868       4879       4878       4988       4989       5000       4999  
      4868       4869       4880       4879       4989       4990       5001       5000  
      4869       4870       4881       4880       4990       4991       5002       5001  
      4870       4871       4882       4881       4991       4992       5003       5002  
      4871       4872       4883       4882       4992       4993       5004       5003  
      4872       4873       4884       4883       4993       4994       5005       5004  
      4874       4875       4886       4885       4995       4996       5007       5006  
      4875       4876       4887       4886       4996       4997       5008       5007  
      4876       4877       4888       4887       4997       4998       5009       5008  
      4877       4878       4889       4888       4998       4999       5010       5009  
      4878       4879       4890       4889       4999       5000       5011       5010  
      4879       4880       4891       4890       5000       5001       5012       5011  
      4880       4881       4892       4891       5001       5002       5013       5012  
      4881       4882       4893       4892       5002       5003       5014       5013  
      4882       4883       4894       4893       5003       5004       5015       5014  
      4883       4884       4895       4894       5004       5005       5016       5015  
      4885       4886       4897       4896       5006       5007       5018       5017  
      4886       4887       4898       4897       5007       5008       5019       5018  
      4887       4888       4899       4898       5008       5009       5020       5019  
      4888       4889       4900       4899       5009       5010       5021       5020  
      4889       4890       4901       4900       5010       5011       5022       5021  
      4890       4891       4902       4901       5011       5012       5023       5022  
      4891       4892       4903       4902       5012       5013       5024       5023  
      4892       4893       4904       4903       5013       5014       5025       5024  
      4893       4894       4905       4904       5014       5015       5026       5025  
      4894       4895       4906       4905       5015       5016       5027       5026  
      4896       4897       4908       4907       5017       5018       5029       5028  
      4897       4898       4909       4908       5018       5019       5030       5029  
      4898       4899       4910       4909       5019       5020       5031       5030  
      4899       4900       4911       4910       5020       5021       5032       5031  
      4900       4901       4912       4911       5021       5022       5033       5032  
      4901       4902       4913       4912       5022       5023       5034       5033  
      4902       4903       4914       4913       5023       5024       5035       5034  
      4903       4904       4915       4914       5024       5025       5036       5035  
      4904       4905       4916       4915       5025       5026       5037       5036  
      4905       4906       4917       4916       5026       5027       5038       5037  
      4907       4908       4919       4918       5028       5029       5040       5039  
      4908       4909       4920       4919       5029       5030       5041       5040  
      4909       4910       4921       4920       5030       5031       5042       5041  
      4910       4911       4922       4921       5031       5032       5043       5042  
      4911       4912       4923       4922       5032       5033       5044       5043  
      4912       4913       4924       4923       5033       5034       5045       5044  
      4913       4914       4925       4924       5034       5035       5046       5045  
      4914       4915       4926       4925       5035       5036       5047       5046  
      4915       4916       4927       4926       5036       5037       5048       5047  
      4916       4917       4928       4927       5037       5038       5049       5048  
      4918       4919       4930       4929       5039       5040       5051       5050  
      4919       4920       4931       4930       5040       5041       5052       5051  
      4920       4921       4932       4931       5041       5042       5053       5052  
      4921       4922       4933       4932       5042       5043       5054       5053  
      4922       4923       4934       4933       5043       5044       5055       5054  
      4923       4924       4935       4934       5044       5045       5056       5055  
      4924       4925       4936       4935       5045       5046       5057       5056  
      4925       4926       4937       4936       5046       5047       5058       5057  
      4926       4927       4938       4937       5047       5048       5059       5058  
      4927       4928       4939       4938       5048       5049       5060       5059  
      4929       4930       4941       4940       5050       5051       5062       5061  
      4930       4931       4942       4941       5051       5052       5063       5062  
      4931       4932       4943       4942       5052       5053       5064       5063  
      4932       4933       4944       4943       5053       5054       5065       5064  
      4933       4934       4945       4944       5054       5055       5066       5065  
      4934       4935       4946       4945       5055       5056       5067       5066  
      4935       4936       4947       4946       5056       5057       5068       5067  
      4936       4937       4948       4947       5057       5058       5069       5068  
      4937       4938       4949       4948       5058       5059       5070       5069  
      4938       4939       4950       4949       5059       5060       5071       5070  
      4940       4941       4952       4951       5061       5062       5073       5072  
      4941       4942       4953       4952       5062       5063       5074       5073  
      4942       4943       4954       4953       5063       5064       5075       5074  
      4943       4944       4955       4954       5064       5065       5076       5075  
      4944       4945       4956       4955       5065       5066       5077       5076  
      4945       4946       4957       4956       5066       5067       5078       5077  
      4946       4947       4958       4957       5067       5068       5079       5078  
      4947       4948       4959       4958       5068       5069       5080       5079  
      4948       4949       4960       4959       5069       5070       5081       5080  
      4949       4950       4961       4960       5070       5071       5082       5081  
      4962       4963       4974       4973       5083       5084       5095       5094  
      4963       4964       4975       4974       5084       5085       5096       5095  
      4964       4965       4976       4975       5085       5086       5097       5096  
      4965       4966       4977       4976       5086       5087       5098       5097  
      4966       4967       4978       4977       5087       5088       5099       5098  
      4967       4968       4979       4978       5088       5089       5100       5099  
      4968       4969       4980       4979       5089       5090       5101       5100  
      4969       4970       4981       4980       5090       5091       5102       5101  
      4970       4971       4982       4981       5091       5092       5103       5102  
      4971       4972       4983       4982       5092       5093       5104       5103  
      4973       4974       4985       4984       5094       5095       5106       5105  
      4974       4975       4986       4985       5095       5096       5107       5106  
      4975       4976       4987       4986       5096       5097       5108       5107  
      4976       4977       4988       4987       5097       5098       5109       5108  
      4977       4978       4989       4988       5098       5099       5110       5109  
      4978       4979       4990       4989       5099       5100       5111       5110  
      4979       4980       4991       4990       5100       5101       5112       5111  
      4980       4981       4992       4991       5101       5102       5113       5112  
      4981       4982       4993       4992       5102       5103       5114       5113  
      4982       4983       4994       4993       5103       5104       5115       5114  
      4984       4985       4996       4995       5105       5106       5117       5116  
      4985       4986       4997       4996       5106       5107       5118       5117  
      4986       4987       4998       4997       5107       5108       5119       5118  
      4987       4988       4999       4998       5108       5109       5120       5119  
      4988       4989       5000       4999       5109       5110       5121       5120  
      4989       4990       5001       5000       5110       5111       5122       5121  
      4990       4991       5002       5001       5111       5112       5123       5122  
      4991       4992       5003       5002       5112       5113       5124       5123  
      4992       4993       5004       5003       5113       5114       5125       5124  
      4993       4994       5005       5004       5114       5115       5126       5125  
      4995       4996       5007       5006       5116       5117       5128       5127  
      4996       4997       5008       5007       5117       5118       5129       5128  
      4997       4998       5009       5008       5118       5119       5130       5129  
      4998       4999       5010       5009       5119       5120       5131       5130  
      4999       5000       5011       5010       5120       5121       5132       5131  
      5000       5001       5012       5011       5121       5122       5133       5132  
      5001       5002       5013       5012       5122       5123       5134       5133  
      5002       5003       5014       5013       5123       5124       5135       5134  
      5003       5004       5015       5014       5124       5125       5136       5135  
      5004       5005       5016       5015       5125       5126       5137       5136  
      5006       5007       5018       5017       5127       5128       5139       5138  
      5007       5008       5019       5018       5128       5129       5140       5139  
      5008       5009       5020       5019       5129       5130       5141       5140  
      5009       5010       5021       5020       5130       5131       5142       5141  
      5010       5011       5022       5021       5131       5132       5143       5142  
      5011       5012       5023       5022       5132       5133       5144       5143  
      5012       5013       5024       5023       5133       5134       5145       5144  
      5013       5014       5025       5024       5134       5135       5146       5145  
      5014       5015       5026       5025       5135       5136       5147       5146  
      5015       5016       5027       5026       5136       5137       5148       5147  
      5017       5018       5029       5028       5138       5139       5150       5149  
      5018       5019       5030       5029       5139       5140       5151       5150  
      5019       5020       5031       5030       5140       5141       5152       5151  
      5020       5021       5032       5031       5141       5142       5153       5152  
      5021       5022       5033       5032       5142       5143       5154       5153  
      5022       5023       5034       5033       5143       5144       5155       5154  
      5023       5024       5035       5034       5144       5145       5156       5155  
      5024       5025       5036       5035       5145       5146       5157       5156  
      5025       5026       5037       5036       5146       5147       5158       5157  
      5026       5027       5038       5037       5147       5148       5159       5158  
      5028       5029       5040       5039       5149       5150       5161       5160  
      5029       5030       5041       5040       5150       5151       5162       5161  
      5030       5031       5042       5041       5151       5152       5163       5162  
      5031       5032       5043       5042       5152       5153       5164       5163  
      5032       5033       5044       5043       5153       5154       5165       5164  
      5033       5034       5045       5044       5154       5155       5166       5165  
      5034       5035       5046       5045       5155       5156       5167       5166  
      5035       5036       5047       5046       5156       5157       5168       5167  
      5036       5037       5048       5047       5157       5158       5169       5168  
      5037       5038       5049       5048       5158       5159       5170       5169  
      5039       5040       5051       5050       5160       5161       5172       5171  
      5040       5041       5052       5051       5161       5162       5173       5172  
      5041       5042       5053       5052       5162       5163       5174       5173  
      5042       5043       5054       5053       5163       5164       5175       5174  
      5043       5044       5055       5054       5164       5165       5176       5175  
      5044       5045       5056       5055       5165       5166       5177       5176  
      5045       5046       5057       5056       5166       5167       5178       5177  
      5046       5047       5058       5057       5167       5168       5179       5178  
      5047       5048       5059       5058       5168       5169       5180       5179  
      5048       5049       5060       5059       5169       5170       5181       5180  
      5050       5051       5062       5061       5171       5172       5183       5182  
      5051       5052       5063       5062       5172       5173       5184       5183  
      5052       5053       5064       5063       5173       5174       5185       5184  
      5053       5054       5065       5064       5174       5175       5186       5185  
      5054       5055       5066       5065       5175       5176       5187       5186  
      5055       5056       5067       5066       5176       5177       5188       5187  
      5056       5057       5068       5067       5177       5178       5189       5188  
      5057       5058       5069       5068       5178       5179       5190       5189  
      5058       5059       5070       5069       5179       5180       5191       5190  
      5059       5060       5071       5070       5180       5181       5192       5191  
      5061       5062       5073       5072       5182       5183       5194       5193  
      5062       5063       5074       5073       5183       5184       5195       5194  
      5063       5064       5075       5074       5184       5185       5196       5195  
      5064       5065       5076       5075       5185       5186       5197       5196  
      5065       5066       5077       5076       5186       5187       5198       5197  
      5066       5067       5078       5077       5187       5188       5199       5198  
      5067       5068       5079       5078       5188       5189       5200       5199  
      5068       5069       5080       5079       5189       5190       5201       5200  
      5069       5070       5081       5080       5190       5191       5202       5201  
      5070       5071       5082       5081       5191       5192       5203       5202  
      5083       5084       5095       5094       5204       5205       5216       5215  
      5084       5085       5096       5095       5205       5206       5217       5216  
      5085       5086       5097       5096       5206       5207       5218       5217  
      5086       5087       5098       5097       5207       5208       5219       5218  
      5087       5088       5099       5098       5208       5209       5220       5219  
      5088       5089       5100       5099       5209       5210       5221       5220  
      5089       5090       5101       5100       5210       5211       5222       5221  
      5090       5091       5102       5101       5211       5212       5223       5222  
      5091       5092       5103       5102       5212       5213       5224       5223  
      5092       5093       5104       5103       5213       5214       5225       5224  
      5094       5095       5106       5105       5215       5216       5227       5226  
      5095       5096       5107       5106       5216       5217       5228       5227  
      5096       5097       5108       5107       5217       5218       5229       5228  
      5097       5098       5109       5108       5218       5219       5230       5229  
      5098       5099       5110       5109       5219       5220       5231       5230  
      5099       5100       5111       5110       5220       5221       5232       5231  
      5100       5101       5112       5111       5221       5222       5233       5232  
      5101       5102       5113       5112       5222       5223       5234       5233  
      5102       5103       5114       5113       5223       5224       5235       5234  
      5103       5104       5115       5114       5224       5225       5236       5235  
      5105       5106       5117       5116       5226       5227       5238       5237  
      5106       5107       5118       5117       5227       5228       5239       5238  
      5107       5108       5119       5118       5228       5229       5240       5239  
      5108       5109       5120       5119       5229       5230       5241       5240  
      5109       5110       5121       5120       5230       5231       5242       5241  
      5110       5111       5122       5121       5231       5232       5243       5242  
      5111       5112       5123       5122       5232       5233       5244       5243  
      5112       5113       5124       5123       5233       5234       5245       5244  
      5113       5114       5125       5124       5234       5235       5246       5245  
      5114       5115       5126       5125       5235       5236       5247       5246  
      5116       5117       5128       5127       5237       5238       5249       5248  
      5117       5118       5129       5128       5238       5239       5250       5249  
      5118       5119       5130       5129       5239       5240       5251       5250  
      5119       5120       5131       5130       5240       5241       5252       5251  
      5120       5121       5132       5131       5241       5242       5253       5252  
      5121       5122       5133       5132       5242       5243       5254       5253  
      5122       5123       5134       5133       5243       5244       5255       5254  
      5123       5124       5135       5134       5244       5245       5256       5255  
      5124       5125       5136       5135       5245       5246       5257       5256  
      5125       5126       5137       5136       5246       5247       5258       5257  
      5127       5128       5139       5138       5248       5249       5260       5259  
      5128       5129       5140       5139       5249       5250       5261       5260  
      5129       5130       5141       5140       5250       5251       5262       5261  
      5130       5131       5142       5141       5251       5252       5263       5262  
      5131       5132       5143       5142       5252       5253       5264       5263  
      5132       5133       5144       5143       5253       5254       5265       5264  
      5133       5134       5145       5144       5254       5255       5266       5265  
      5134       5135       5146       5145       5255       5256       5267       5266  
      5135       5136       5147       5146       5256       5257       5268       5267  
      5136       5137       5148       5147       5257       5258       5269       5268  
      5138       5139       5150       5149       5259       5260       5271       5270  
      5139       5140       5151       5150       5260       5261       5272       5271  
      5140       5141       5152       5151       5261       5262       5273       5272  
      5141       5142       5153       5152       5262       5263       5274       5273  
      5142       5143       5154       5153       5263       5264       5275       5274  
      5143       5144       5155       5154       5264       5265       5276       5275  
      5144       5145       5156       5155       5265       5266       5277       5276  
      5145       5146       5157       5156       5266       5267       5278       5277  
      5146       5147       5158       5157       5267       5268       5279       5278  
      5147       5148       5159       5158       5268       5269       5280       5279  
      5149       5150       5161       5160       5270       5271       5282       5281  
      5150       5151       5162       5161       5271       5272       5283       5282  
      5151       5152       5163       5162       5272       5273       5284       5283  
      5152       5153       5164       5163       5273       5274       5285       5284  
      5153       5154       5165       5164       5274       5275       5286       5285  
      5154       5155       5166       5165       5275       5276       5287       5286  
      5155       5156       5167       5166       5276       5277       5288       5287  
      5156       5157       5168       5167       5277       5278       5289       5288  
      5157       5158       5169       5168       5278       5279       5290       5289  
      5158       5159       5170       5169       5279       5280       5291       5290  
      5160       5161       5172       5171       5281       5282       5293       5292  
      5161       5162       5173       5172       5282       5283       5294       5293  
      5162       5163       5174       5173       5283       5284       5295       5294  
      5163       5164       5175       5174       5284       5285       5296       5295  
      5164       5165       5176       5175       5285       5286       5297       5296  
      5165       5166       5177       5176       5286       5287       5298       5297  
      5166       5167       5178       5177       5287       5288       5299       5298  
      5167       5168       5179       5178       5288       5289       5300       5299  
      5168       5169       5180       5179       5289       5290       5301       5300  
      5169       5170       5181       5180       5290       5291       5302       5301  
      5171       5172       5183       5182       5292       5293       5304       5303  
      5172       5173       5184       5183       5293       5294       5305       5304  
      5173       5174       5185       5184       5294       5295       5306       5305  
      5174       5175       5186       5185       5295       5296       5307       5306  
      5175       5176       5187       5186       5296       5297       5308       5307  
      5176       5177       5188       5187       5297       5298       5309       5308  
      5177       5178       5189       5188       5298       5299       5310       5309  
      5178       5179       5190       5189       5299       5300       5311       5310  
      5179       5180       5191       5190       5300       5301       5312       5311  
      5180       5181       5192       5191       5301       5302       5313       5312  
      5182       5183       5194       5193       5303       5304       5315       5314  
      5183       5184       5195       5194       5304       5305       5316       5315  
      5184       5185       5196       5195       5305       5306       5317       5316  
      5185       5186       5197       5196       5306       5307       5318       5317  
      5186       5187       5198       5197       5307       5308       5319       5318  
      5187       5188       5199       5198       5308       5309       5320       5319  
      5188       5189       5200       5199       5309       5310       5321       5320  
      5189       5190       5201       5200       5310       5311       5322       5321  
      5190       5191       5202       5201       5311       5312       5323       5322  
      5191       5192       5203       5202       5312       5313       5324       5323  
      5204       5205       5216       5215       5325       5326       5337       5336  
      5205       5206       5217       5216       5326       5327       5338       5337  
      5206       5207       5218       5217       5327       5328       5339       5338  
      5207       5208       5219       5218       5328       5329       5340       5339  
      5208       5209       5220       5219       5329       5330       5341       5340  
      5209       5210       5221       5220       5330       5331       5342       5341  
      5210       5211       5222       5221       5331       5332       5343       5342  
      5211       5212       5223       5222       5332       5333       5344       5343  
      5212       5213       5224       5223       5333       5334       5345       5344  
      5213       5214       5225       5224       5334       5335       5346       5345  
      5215       5216       5227       5226       5336       5337       5348       5347  
      5216       5217       5228       5227       5337       5338       5349       5348  
      5217       5218       5229       5228       5338       5339       5350       5349  
      5218       5219       5230       5229       5339       5340       5351       5350  
      5219       5220       5231       5230       5340       5341       5352       5351  
      5220       5221       5232       5231       5341       5342       5353       5352  
      5221       5222       5233       5232       5342       5343       5354       5353  
      5222       5223       5234       5233       5343       5344       5355       5354  
      5223       5224       5235       5234       5344       5345       5356       5355  
      5224       5225       5236       5235       5345       5346       5357       5356  
      5226       5227       5238       5237       5347       5348       5359       5358  
      5227       5228       5239       5238       5348       5349       5360       5359  
      5228       5229       5240       5239       5349       5350       5361       5360  
      5229       5230       5241       5240       5350       5351       5362       5361  
      5230       5231       5242       5241       5351       5352       5363       5362  
      5231       5232       5243       5242       5352       5353       5364       5363  
      5232       5233       5244       5243       5353       5354       5365       5364  
      5233       5234       5245       5244       5354       5355       5366       5365  
      5234       5235       5246       5245       5355       5356       5367       5366  
      5235       5236       5247       5246       5356       5357       5368       5367  
      5237       5238       5249       5248       5358       5359       5370       5369  
      5238       5239       5250       5249       5359       5360       5371       5370  
      5239       5240       5251       5250       5360       5361       5372       5371  
      5240       5241       5252       5251       5361       5362       5373       5372  
      5241       5242       5253       5252       5362       5363       5374       5373  
      5242       5243       5254       5253       5363       5364       5375       5374  
      5243       5244       5255       5254       5364       5365       5376       5375  
      5244       5245       5256       5255       5365       5366       5377       5376  
      5245       5246       5257       5256       5366       5367       5378       5377  
      5246       5247       5258       5257       5367       5368       5379       5378  
      5248       5249       5260       5259       5369       5370       5381       5380  
      5249       5250       5261       5260       5370       5371       5382       5381  
      5250       5251       5262       5261       5371       5372       5383       5382  
      5251       5252       5263       5262       5372       5373       5384       5383  
      5252       5253       5264       5263       5373       5374       5385       5384  
      5253       5254       5265       5264       5374       5375       5386       5385  
      5254       5255       5266       5265       5375       5376       5387       5386  
      5255       5256       5267       5266       5376       5377       5388       5387  
      5256       5257       5268       5267       5377       5378       5389       5388  
      5257       5258       5269       5268       5378       5379       5390       5389  
      5259       5260       5271       5270       5380       5381       5392       5391  
      5260       5261       5272       5271       5381       5382       5393       5392  
      5261       5262       5273       5272       5382       5383       5394       5393  
      5262       5263       5274       5273       5383       5384       5395       5394  
      5263       5264       5275       5274       5384       5385       5396       5395  
      5264       5265       5276       5275       5385       5386       5397       5396  
      5265       5266       5277       5276       5386       5387       5398       5397  
      5266       5267       5278       5277       5387       5388       5399       5398  
      5267       5268       5279       5278       5388       5389       5400       5399  
      5268       5269       5280       5279       5389       5390       5401       5400  
      5270       5271       5282       5281       5391       5392       5403       5402  
      5271       5272       5283       5282       5392       5393       5404       5403  
      5272       5273       5284       5283       5393       5394       5405       5404  
      5273       5274       5285       5284       5394       5395       5406       5405  
      5274       5275       5286       5285       5395       5396       5407       5406  
      5275       5276       5287       5286       5396       5397       5408       5407  
      5276       5277       5288       5287       5397       5398       5409       5408  
      5277       5278       5289       5288       5398       5399       5410       5409  
      5278       5279       5290       5289       5399       5400       5411       5410  
      5279       5280       5291       5290       5400       5401       5412       5411  
      5281       5282       5293       5292       5402       5403       5414       5413  
      5282       5283       5294       5293       5403       5404       5415       5414  
      5283       5284       5295       5294       5404       5405       5416       5415  
      5284       5285       5296       5295       5405       5406       5417       5416  
      5285       5286       5297       5296       5406       5407       5418       5417  
      5286       5287       5298       5297       5407       5408       5419       5418  
      5287       5288       5299       5298       5408       5409       5420       5419  
      5288       5289       5300       5299       5409       5410       5421       5420  
      5289       5290       5301       5300       5410       5411       5422       5421  
      5290       5291       5302       5301       5411       5412       5423       5422  
      5292       5293       5304       5303       5413       5414       5425       5424  
      5293       5294       5305       5304       5414       5415       5426       5425  
      5294       5295       5306       5305       5415       5416       5427       5426  
      5295       5296       5307       5306       5416       5417       5428       5427  
      5296       5297       5308       5307       5417       5418       5429       5428  
      5297       5298       5309       5308       5418       5419       5430       5429  
      5298       5299       5310       5309       5419       5420       5431       5430  
      5299       5300       5311       5310       5420       5421       5432       5431  
      5300       5301       5312       5311       5421       5422       5433       5432  
      5301       5302       5313       5312       5422       5423       5434       5433  
      5303       5304       5315       5314       5424       5425       5436       5435  
      5304       5305       5316       5315       5425       5426       5437       5436  
      5305       5306       5317       5316       5426       5427       5438       5437  
      5306       5307       5318       5317       5427       5428       5439       5438  
      5307       5308       5319       5318       5428       5429       5440       5439  
      5308       5309       5320       5319       5429       5430       5441       5440  
      5309       5310       5321       5320       5430       5431       5442       5441  
      5310       5311       5322       5321       5431       5432       5443       5442  
      5311       5312       5323       5322       5432       5433       5444       5443  
      5312       5313       5324       5323       5433       5434       5445       5444  
      5325       5326       5337       5336       5446       5447       5458       5457  
      5326       5327       5338       5337       5447       5448       5459       5458  
      5327       5328       5339       5338       5448       5449       5460       5459  
      5328       5329       5340       5339       5449       5450       5461       5460  
      5329       5330       5341       5340       5450       5451       5462       5461  
      5330       5331       5342       5341       5451       5452       5463       5462  
      5331       5332       5343       5342       5452       5453       5464       5463  
      5332       5333       5344       5343       5453       5454       5465       5464  
      5333       5334       5345       5344       5454       5455       5466       5465  
      5334       5335       5346       5345       5455       5456       5467       5466  
      5336       5337       5348       5347       5457       5458       5469       5468  
      5337       5338       5349       5348       5458       5459       5470       5469  
      5338       5339       5350       5349       5459       5460       5471       5470  
      5339       5340       5351       5350       5460       5461       5472       5471  
      5340       5341       5352       5351       5461       5462       5473       5472  
      5341       5342       5353       5352       5462       5463       5474       5473  
      5342       5343       5354       5353       5463       5464       5475       5474  
      5343       5344       5355       5354       5464       5465       5476       5475  
      5344       5345       5356       5355       5465       5466       5477       5476  
      5345       5346       5357       5356       5466       5467       5478       5477  
      5347       5348       5359       5358       5468       5469       5480       5479  
      5348       5349       5360       5359       5469       5470       5481       5480  
      5349       5350       5361       5360       5470       5471       5482       5481  
      5350       5351       5362       5361       5471       5472       5483       5482  
      5351       5352       5363       5362       5472       5473       5484       5483  
      5352       5353       5364       5363       5473       5474       5485       5484  
      5353       5354       5365       5364       5474       5475       5486       5485  
      5354       5355       5366       5365       5475       5476       5487       5486  
      5355       5356       5367       5366       5476       5477       5488       5487  
      5356       5357       5368       5367       5477       5478       5489       5488  
      5358       5359       5370       5369       5479       5480       5491       5490  
      5359       5360       5371       5370       5480       5481       5492       5491  
      5360       5361       5372       5371       5481       5482       5493       5492  
      5361       5362       5373       5372       5482       5483       5494       5493  
      5362       5363       5374       5373       5483       5484       5495       5494  
      5363       5364       5375       5374       5484       5485       5496       5495  
      5364       5365       5376       5375       5485       5486       5497       5496  
      5365       5366       5377       5376       5486       5487       5498       5497  
      5366       5367       5378       5377       5487       5488       5499       5498  
      5367       5368       5379       5378       5488       5489       5500       5499  
      5369       5370       5381       5380       5490       5491       5502       5501  
      5370       5371       5382       5381       5491       5492       5503       5502  
      5371       5372       5383       5382       5492       5493       5504       5503  
      5372       5373       5384       5383       5493       5494       5505       5504  
      5373       5374       5385       5384       5494       5495       5506       5505  
      5374       5375       5386       5385       5495       5496       5507       5506  
      5375       5376       5387       5386       5496       5497       5508       5507  
      5376       5377       5388       5387       5497       5498       5509       5508  
      5377       5378       5389       5388       5498       5499       5510       5509  
      5378       5379       5390       5389       5499       5500       5511       5510  
      5380       5381       5392       5391       5501       5502       5513       5512  
      5381       5382       5393       5392       5502       5503       5514       5513  
      5382       5383       5394       5393       5503       5504       5515       5514  
      5383       5384       5395       5394       5504       5505       5516       5515  
      5384       5385       5396       5395       5505       5506       5517       5516  
      5385       5386       5397       5396       5506       5507       5518       5517  
      5386       5387       5398       5397       5507       5508       5519       5518  
      5387       5388       5399       5398       5508       5509       5520       5519  
      5388       5389       5400       5399       5509       5510       5521       5520  
      5389       5390       5401       5400       5510       5511       5522       5521  
      5391       5392       5403       5402       5512       5513       5524       5523  
      5392       5393       5404       5403       5513       5514       5525       5524  
      5393       5394       5405       5404       5514       5515       5526       5525  
      5394       5395       5406       5405       5515       5516       5527       5526  
      5395       5396       5407       5406       5516       5517       5528       5527  
      5396       5397       5408       5407       5517       5518       5529       5528  
      5397       5398       5409       5408       5518       5519       5530       5529  
      5398       5399       5410       5409       5519       5520       5531       5530  
      5399       5400       5411       5410       5520       5521       5532       5531  
      5400       5401       5412       5411       5521       5522       5533       5532  
      5402       5403       5414       5413       5523       5524       5535       5534  
      5403       5404       5415       5414       5524       5525       5536       5535  
      5404       5405       5416       5415       5525       5526       5537       5536  
      5405       5406       5417       5416       5526       5527       5538       5537  
      5406       5407       5418       5417       5527       5528       5539       5538  
      5407       5408       5419       5418       5528       5529       5540       5539  
      5408       5409       5420       5419       5529       5530       5541       5540  
      5409       5410       5421       5420       5530       5531       5542       5541  
      5410       5411       5422       5421       5531       5532       5543       5542  
      5411       5412       5423       5422       5532       5533       5544       5543  
      5413       5414       5425       5424       5534       5535       5546       5545  
      5414       5415       5426       5425       5535       5536       5547       5546  
      5415       5416       5427       5426       5536       5537       5548       5547  
      5416       5417       5428       5427       5537       5538       5549       5548  
      5417       5418       5429       5428       5538       5539       5550       5549  
      5418       5419       5430       5429       5539       5540       5551       5550  
      5419       5420       5431       5430       5540       5541       5552       5551  
      5420       5421       5432       5431       5541       5542       5553       5552  
      5421       5422       5433       5432       5542       5543       5554       5553  
      5422       5423       5434       5433       5543       5544       5555       5554  
      5424       5425       5436       5435       5545       5546       5557       5556  
      5425       5426       5437       5436       5546       5547       5558       5557  
      5426       5427       5438       5437       5547       5548       5559       5558  
      5427       5428       5439       5438       5548       5549       5560       5559  
      5428       5429       5440       5439       5549       5550       5561       5560  
      5429       5430       5441       5440       5550       5551       5562       5561  
      5430       5431       5442       5441       5551       5552       5563       5562  
      5431       5432       5443       5442       5552       5553       5564       5563  
      5432       5433       5444       5443       5553       5554       5565       5564  
      5433       5434       5445       5444       5554       5555       5566       5565  
      5446       5447       5458       5457       5567       5568       5579       5578  
      5447       5448       5459       5458       5568       5569       5580       5579  
      5448       5449       5460       5459       5569       5570       5581       5580  
      5449       5450       5461       5460       5570       5571       5582       5581  
      5450       5451       5462       5461       5571       5572       5583       5582  
      5451       5452       5463       5462       5572       5573       5584       5583  
      5452       5453       5464       5463       5573       5574       5585       5584  
      5453       5454       5465       5464       5574       5575       5586       5585  
      5454       5455       5466       5465       5575       5576       5587       5586  
      5455       5456       5467       5466       5576       5577       5588       5587  
      5457       5458       5469       5468       5578       5579       5590       5589  
      5458       5459       5470       5469       5579       5580       5591       5590  
      5459       5460       5471       5470       5580       5581       5592       5591  
      5460       5461       5472       5471       5581       5582       5593       5592  
      5461       5462       5473       5472       5582       5583       5594       5593  
      5462       5463       5474       5473       5583       5584       5595       5594  
      5463       5464       5475       5474       5584       5585       5596       5595  
      5464       5465       5476       5475       5585       5586       5597       5596  
      5465       5466       5477       5476       5586       5587       5598       5597  
      5466       5467       5478       5477       5587       5588       5599       5598  
      5468       5469       5480       5479       5589       5590       5601       5600  
      5469       5470       5481       5480       5590       5591       5602       5601  
      5470       5471       5482       5481       5591       5592       5603       5602  
      5471       5472       5483       5482       5592       5593       5604       5603  
      5472       5473       5484       5483       5593       5594       5605       5604  
      5473       5474       5485       5484       5594       5595       5606       5605  
      5474       5475       5486       5485       5595       5596       5607       5606  
      5475       5476       5487       5486       5596       5597       5608       5607  
      5476       5477       5488       5487       5597       5598       5609       5608  
      5477       5478       5489       5488       5598       5599       5610       5609  
      5479       5480       5491       5490       5600       5601       5612       5611  
      5480       5481       5492       5491       5601       5602       5613       5612  
      5481       5482       5493       5492       5602       5603       5614       5613  
      5482       5483       5494       5493       5603       5604       5615       5614  
      5483       5484       5495       5494       5604       5605       5616       5615  
      5484       5485       5496       5495       5605       5606       5617       5616  
      5485       5486       5497       5496       5606       5607       5618       5617  
      5486       5487       5498       5497       5607       5608       5619       5618  
      5487       5488       5499       5498       5608       5609       5620       5619  
      5488       5489       5500       5499       5609       5610       5621       5620  
      5490       5491       5502       5501       5611       5612       5623       5622  
      5491       5492       5503       5502       5612       5613       5624       5623  
      5492       5493       5504       5503       5613       5614       5625       5624  
      5493       5494       5505       5504       5614       5615       5626       5625  
      5494       5495       5506       5505       5615       5616       5627       5626  
      5495       5496       5507       5506       5616       5617       5628       5627  
      5496       5497       5508       5507       5617       5618       5629       5628  
      5497       5498       5509       5508       5618       5619       5630       5629  
      5498       5499       5510       5509       5619       5620       5631       5630  
      5499       5500       5511       5510       5620       5621       5632       5631  
      5501       5502       5513       5512       5622       5623       5634       5633  
      5502       5503       5514       5513       5623       5624       5635       5634  
      5503       5504       5515       5514       5624       5625       5636       5635  
      5504       5505       5516       5515       5625       5626       5637       5636  
      5505       5506       5517       5516       5626       5627       5638       5637  
      5506       5507       5518       5517       5627       5628       5639       5638  
      5507       5508       5519       5518       5628       5629       5640       5639  
      5508       5509       5520       5519       5629       5630       5641       5640  
      5509       5510       5521       5520       5630       5631       5642       5641  
      5510       5511       5522       5521       5631       5632       5643       5642  
      5512       5513       5524       5523       5633       5634       5645       5644  
      5513       5514       5525       5524       5634       5635       5646       5645  
      5514       5515       5526       5525       5635       5636       5647       5646  
      5515       5516       5527       5526       5636       5637       5648       5647  
      5516       5517       5528       5527       5637       5638       5649       5648  
      5517       5518       5529       5528       5638       5639       5650       5649  
      5518       5519       5530       5529       5639       5640       5651       5650  
      5519       5520       5531       5530       5640       5641       5652       5651  
      5520       5521       5532       5531       5641       5642       5653       5652  
      5521       5522       5533       5532       5642       5643       5654       5653  
      5523       5524       5535       5534       5644       5645       5656       5655  
      5524       5525       5536       5535       5645       5646       5657       5656  
      5525       5526       5537       5536       5646       5647       5658       5657  
      5526       5527       5538       5537       5647       5648       5659       5658  
      5527       5528       5539       5538       5648       5649       5660       5659  
      5528       5529       5540       5539       5649       5650       5661       5660  
      5529       5530       5541       5540       5650       5651       5662       5661  
      5530       5531       5542       5541       5651       5652       5663       5662  
      5531       5532       5543       5542       5652       5653       5664       5663  
      5532       5533       5544       5543       5653       5654       5665       5664  
      5534       5535       5546       5545       5655       5656       5667       5666  
      5535       5536       5547       5546       5656       5657       5668       5667  
      5536       5537       5548       5547       5657       5658       5669       5668  
      5537       5538       5549       5548       5658       5659       5670       5669  
      5538       5539       5550       5549       5659       5660       5671       5670  
      5539       5540       5551       5550       5660       5661       5672       5671  
      5540       5541       5552       5551       5661       5662       5673       5672  
      5541       5542       5553       5552       5662       5663       5674       5673  
      5542       5543       5554       5553       5663       5664       5675       5674  
      5543       5544       5555       5554       5664       5665       5676       5675  
      5545       5546       5557       5556       5666       5667       5678       5677  
      5546       5547       5558       5557       5667       5668       5679       5678  
      5547       5548       5559       5558       5668       5669       5680       5679  
      5548       5549       5560       5559       5669       5670       5681       5680  
      5549       5550       5561       5560       5670       5671       5682       5681  
      5550       5551       5562       5561       5671       5672       5683       5682  
      5551       5552       5563       5562       5672       5673       5684       5683  
      5552       5553       5564       5563       5673       5674       5685       5684  
      5553       5554       5565       5564       5674       5675       5686       5685  
      5554       5555       5566       5565       5675       5676       5687       5686  
      5567       5568       5579       5578       5688       5689       5700       5699  
      5568       5569       5580       5579       5689       5690       5701       5700  
      5569       5570       5581       5580       5690       5691       5702       5701  
      5570       5571       5582       5581       5691       5692       5703       5702  
      5571       5572       5583       5582       5692       5693       5704       5703  
      5572       5573       5584       5583       5693       5694       5705       5704  
      5573       5574       5585       5584       5694       5695       5706       5705  
      5574       5575       5586       5585       5695       5696       5707       5706  
      5575       5576       5587       5586       5696       5697       5708       5707  
      5576       5577       5588       5587       5697       5698       5709       5708  
      5578       5579       5590       5589       5699       5700       5711       5710  
      5579       5580       5591       5590       5700       5701       5712       5711  
      5580       5581       5592       5591       5701       5702       5713       5712  
      5581       5582       5593       5592       5702       5703       5714       5713  
      5582       5583       5594       5593       5703       5704       5715       5714  
      5583       5584       5595       5594       5704       5705       5716       5715  
      5584       5585       5596       5595       5705       5706       5717       5716  
      5585       5586       5597       5596       5706       5707       5718       5717  
      5586       5587       5598       5597       5707       5708       5719       5718  
      5587       5588       5599       5598       5708       5709       5720       5719  
      5589       5590       5601       5600       5710       5711       5722       5721  
      5590       5591       5602       5601       5711       5712       5723       5722  
      5591       5592       5603       5602       5712       5713       5724       5723  
      5592       5593       5604       5603       5713       5714       5725       5724  
      5593       5594       5605       5604       5714       5715       5726       5725  
      5594       5595       5606       5605       5715       5716       5727       5726  
      5595       5596       5607       5606       5716       5717       5728       5727  
      5596       5597       5608       5607       5717       5718       5729       5728  
      5597       5598       5609       5608       5718       5719       5730       5729  
      5598       5599       5610       5609       5719       5720       5731       5730  
      5600       5601       5612       5611       5721       5722       5733       5732  
      5601       5602       5613       5612       5722       5723       5734       5733  
      5602       5603       5614       5613       5723       5724       5735       5734  
      5603       5604       5615       5614       5724       5725       5736       5735  
      5604       5605       5616       5615       5725       5726       5737       5736  
      5605       5606       5617       5616       5726       5727       5738       5737  
      5606       5607       5618       5617       5727       5728       5739       5738  
      5607       5608       5619       5618       5728       5729       5740       5739  
      5608       5609       5620       5619       5729       5730       5741       5740  
      5609       5610       5621       5620       5730       5731       5742       5741  
      5611       5612       5623       5622       5732       5733       5744       5743  
      5612       5613       5624       5623       5733       5734       5745       5744  
      5613       5614       5625       5624       5734       5735       5746       5745  
      5614       5615       5626       5625       5735       5736       5747       5746  
      5615       5616       5627       5626       5736       5737       5748       5747  
      5616       5617       5628       5627       5737       5738       5749       5748  
      5617       5618       5629       5628       5738       5739       5750       5749  
      5618       5619       5630       5629       5739       5740       5751       5750  
      5619       5620       5631       5630       5740       5741       5752       5751  
      5620       5621       5632       5631       5741       5742       5753       5752  
      5622       5623       5634       5633       5743       5744       5755       5754  
      5623       5624       5635       5634       5744       5745       5756       5755  
      5624       5625       5636       5635       5745       5746       5757       5756  
      5625       5626       5637       5636       5746       5747       5758       5757  
      5626       5627       5638       5637       5747       5748       5759       5758  
      5627       5628       5639       5638       5748       5749       5760       5759  
      5628       5629       5640       5639       5749       5750       5761       5760  
      5629       5630       5641       5640       5750       5751       5762       5761  
      5630       5631       5642       5641       5751       5752       5763       5762  
      5631       5632       5643       5642       5752       5753       5764       5763  
      5633       5634       5645       5644       5754       5755       5766       5765  
      5634       5635       5646       5645       5755       5756       5767       5766  
      5635       5636       5647       5646       5756       5757       5768       5767  
      5636       5637       5648       5647       5757       5758       5769       5768  
      5637       5638       5649       5648       5758       5759       5770       5769  
      5638       5639       5650       5649       5759       5760       5771       5770  
      5639       5640       5651       5650       5760       5761       5772       5771  
      5640       5641       5652       5651       5761       5762       5773       5772  
      5641       5642       5653       5652       5762       5763       5774       5773  
      5642       5643       5654       5653       5763       5764       5775       5774  
      5644       5645       5656       5655       5765       5766       5777       5776  
      5645       5646       5657       5656       5766       5767       5778       5777  
      5646       5647       5658       5657       5767       5768       5779       5778  
      5647       5648       5659       5658       5768       5769       5780       5779  
      5648       5649       5660       5659       5769       5770       5781       5780  
      5649       5650       5661       5660       5770       5771       5782       5781  
      5650       5651       5662       5661       5771       5772       5783       5782  
      5651       5652       5663       5662       5772       5773       5784       5783  
      5652       5653       5664       5663       5773       5774       5785       5784  
      5653       5654       5665       5664       5774       5775       5786       5785  
      5655       5656       5667       5666       5776       5777       5788       5787  
      5656       5657       5668       5667       5777       5778       5789       5788  
      5657       5658       5669       5668       5778       5779       5790       5789  
      5658       5659       5670       5669       5779       5780       5791       5790  
      5659       5660       5671       5670       5780       5781       5792       5791  
      5660       5661       5672       5671       5781       5782       5793       5792  
      5661       5662       5673       5672       5782       5783       5794       5793  
      5662       5663       5674       5673       5783       5784       5795       5794  
      5663       5664       5675       5674       5784       5785       5796       5795  
      5664       5665       5676       5675       5785       5786       5797       5796  
      5666       5667       5678       5677       5787       5788       5799       5798  
      5667       5668       5679       5678       5788       5789       5800       5799  
      5668       5669       5680       5679       5789       5790       5801       5800  
      5669       5670       5681       5680       5790       5791       5802       5801  
      5670       5671       5682       5681       5791       5792       5803       5802  
      5671       5672       5683       5682       5792       5793       5804       5803  
      5672       5673       5684       5683       5793       5794       5805       5804  
      5673       5674       5685       5684       5794       5795       5806       5805  
      5674       5675       5686       5685       5795       5796       5807       5806  
      5675       5676       5687       5686       5796       5797       5808       5807  
      5688       5689       5700       5699       5809       5810       5821       5820  
      5689       5690       5701       5700       5810       5811       5822       5821  
      5690       5691       5702       5701       5811       5812       5823       5822  
      5691       5692       5703       5702       5812       5813       5824       5823  
      5692       5693       5704       5703       5813       5814       5825       5824  
      5693       5694       5705       5704       5814       5815       5826       5825  
      5694       5695       5706       5705       5815       5816       5827       5826  
      5695       5696       5707       5706       5816       5817       5828       5827  
      5696       5697       5708       5707       5817       5818       5829       5828  
      5697       5698       5709       5708       5818       5819       5830       5829  
      5699       5700       5711       5710       5820       5821       5832       5831  
      5700       5701       5712       5711       5821       5822       5833       5832  
      5701       5702       5713       5712       5822       5823       5834       5833  
      5702       5703       5714       5713       5823       5824       5835       5834  
      5703       5704       5715       5714       5824       5825       5836       5835  
      5704       5705       5716       5715       5825       5826       5837       5836  
      5705       5706       5717       5716       5826       5827       5838       5837  
      5706       5707       5718       5717       5827       5828       5839       5838  
      5707       5708       5719       5718       5828       5829       5840       5839  
      5708       5709       5720       5719       5829       5830       5841       5840  
      5710       5711       5722       5721       5831       5832       5843       5842  
      5711       5712       5723       5722       5832       5833       5844       5843  
      5712       5713       5724       5723       5833       5834       5845       5844  
      5713       5714       5725       5724       5834       5835       5846       5845  
      5714       5715       5726       5725       5835       5836       5847       5846  
      5715       5716       5727       5726       5836       5837       5848       5847  
      5716       5717       5728       5727       5837       5838       5849       5848  
      5717       5718       5729       5728       5838       5839       5850       5849  
      5718       5719       5730       5729       5839       5840       5851       5850  
      5719       5720       5731       5730       5840       5841       5852       5851  
      5721       5722       5733       5732       5842       5843       5854       5853  
      5722       5723       5734       5733       5843       5844       5855       5854  
      5723       5724       5735       5734       5844       5845       5856       5855  
      5724       5725       5736       5735       5845       5846       5857       5856  
      5725       5726       5737       5736       5846       5847       5858       5857  
      5726       5727       5738       5737       5847       5848       5859       5858  
      5727       5728       5739       5738       5848       5849       5860       5859  
      5728       5729       5740       5739       5849       5850       5861       5860  
      5729       5730       5741       5740       5850       5851       5862       5861  
      5730       5731       5742       5741       5851       5852       5863       5862  
      5732       5733       5744       5743       5853       5854       5865       5864  
      5733       5734       5745       5744       5854       5855       5866       5865  
      5734       5735       5746       5745       5855       5856       5867       5866  
      5735       5736       5747       5746       5856       5857       5868       5867  
      5736       5737       5748       5747       5857       5858       5869       5868  
      5737       5738       5749       5748       5858       5859       5870       5869  
      5738       5739       5750       5749       5859       5860       5871       5870  
      5739       5740       5751       5750       5860       5861       5872       5871  
      5740       5741       5752       5751       5861       5862       5873       5872  
      5741       5742       5753       5752       5862       5863       5874       5873  
      5743       5744       5755       5754       5864       5865       5876       5875  
      5744       5745       5756       5755       5865       5866       5877       5876  
      5745       5746       5757       5756       5866       5867       5878       5877  
      5746       5747       5758       5757       5867       5868       5879       5878  
      5747       5748       5759       5758       5868       5869       5880       5879  
      5748       5749       5760       5759       5869       5870       5881       5880  
      5749       5750       5761       5760       5870       5871       5882       5881  
      5750       5751       5762       5761       5871       5872       5883       5882  
      5751       5752       5763       5762       5872       5873       5884       5883  
      5752       5753       5764       5763       5873       5874       5885       5884  
      5754       5755       5766       5765       5875       5876       5887       5886  
      5755       5756       5767       5766       5876       5877       5888       5887  
      5756       5757       5768       5767       5877       5878       5889       5888  
      5757       5758       5769       5768       5878       5879       5890       5889  
      5758       5759       5770       5769       5879       5880       5891       5890  
      5759       5760       5771       5770       5880       5881       5892       5891  
      5760       5761       5772       5771       5881       5882       5893       5892  
      5761       5762       5773       5772       5882       5883       5894       5893  
      5762       5763       5774       5773       5883       5884       5895       5894  
      5763       5764       5775       5774       5884       5885       5896       5895  
      5765       5766       5777       5776       5886       5887       5898       5897  
      5766       5767       5778       5777       5887       5888       5899       5898  
      5767       5768       5779       5778       5888       5889       5900       5899  
      5768       5769       5780       5779       5889       5890       5901       5900  
      5769       5770       5781       5780       5890       5891       5902       5901  
      5770       5771       5782       5781       5891       5892       5903       5902  
      5771       5772       5783       5782       5892       5893       5904       5903  
      5772       5773       5784       5783       5893       5894       5905       5904  
      5773       5774       5785       5784       5894       5895       5906       5905  
      5774       5775       5786       5785       5895       5896       5907       5906  
      5776       5777       5788       5787       5897       5898       5909       5908  
      5777       5778       5789       5788       5898       5899       5910       5909  
      5778       5779       5790       5789       5899       5900       5911       5910  
      5779       5780       5791       5790       5900       5901       5912       5911  
      5780       5781       5792       5791       5901       5902       5913       5912  
      5781       5782       5793       5792       5902       5903       5914       5913  
      5782       5783       5794       5793       5903       5904       5915       5914  
      5783       5784       5795       5794       5904       5905       5916       5915  
      5784       5785       5796       5795       5905       5906       5917       5916  
      5785       5786       5797       5796       5906       5907       5918       5917  
      5787       5788       5799       5798       5908       5909       5920       5919  
      5788       5789       5800       5799       5909       5910       5921       5920  
      5789       5790       5801       5800       5910       5911       5922       5921  
      5790       5791       5802       5801       5911       5912       5923       5922  
      5791       5792       5803       5802       5912       5913       5924       5923  
      5792       5793       5804       5803       5913       5914       5925       5924  
      5793       5794       5805       5804       5914       5915       5926       5925  
      5794       5795       5806       5805       5915       5916       5927       5926  
      5795       5796       5807       5806       5916       5917       5928       5927  
      5796       5797       5808       5807       5917       5918       5929       5928  
      5809       5810       5821       5820       5930       5931       5942       5941  
      5810       5811       5822       5821       5931       5932       5943       5942  
      5811       5812       5823       5822       5932       5933       5944       5943  
      5812       5813       5824       5823       5933       5934       5945       5944  
      5813       5814       5825       5824       5934       5935       5946       5945  
      5814       5815       5826       5825       5935       5936       5947       5946  
      5815       5816       5827       5826       5936       5937       5948       5947  
      5816       5817       5828       5827       5937       5938       5949       5948  
      5817       5818       5829       5828       5938       5939       5950       5949  
      5818       5819       5830       5829       5939       5940       5951       5950  
      5820       5821       5832       5831       5941       5942       5953       5952  
      5821       5822       5833       5832       5942       5943       5954       5953  
      5822       5823       5834       5833       5943       5944       5955       5954  
      5823       5824       5835       5834       5944       5945       5956       5955  
      5824       5825       5836       5835       5945       5946       5957       5956  
      5825       5826       5837       5836       5946       5947       5958       5957  
      5826       5827       5838       5837       5947       5948       5959       5958  
      5827       5828       5839       5838       5948       5949       5960       5959  
      5828       5829       5840       5839       5949       5950       5961       5960  
      5829       5830       5841       5840       5950       5951       5962       5961  
      5831       5832       5843       5842       5952       5953       5964       5963  
      5832       5833       5844       5843       5953       5954       5965       5964  
      5833       5834       5845       5844       5954       5955       5966       5965  
      5834       5835       5846       5845       5955       5956       5967       5966  
      5835       5836       5847       5846       5956       5957       5968       5967  
      5836       5837       5848       5847       5957       5958       5969       5968  
      5837       5838       5849       5848       5958       5959       5970       5969  
      5838       5839       5850       5849       5959       5960       5971       5970  
      5839       5840       5851       5850       5960       5961       5972       5971  
      5840       5841       5852       5851       5961       5962       5973       5972  
      5842       5843       5854       5853       5963       5964       5975       5974  
      5843       5844       5855       5854       5964       5965       5976       5975  
      5844       5845       5856       5855       5965       5966       5977       5976  
      5845       5846       5857       5856       5966       5967       5978       5977  
      5846       5847       5858       5857       5967       5968       5979       5978  
      5847       5848       5859       5858       5968       5969       5980       5979  
      5848       5849       5860       5859       5969       5970       5981       5980  
      5849       5850       5861       5860       5970       5971       5982       5981  
      5850       5851       5862       5861       5971       5972       5983       5982  
      5851       5852       5863       5862       5972       5973       5984       5983  
      5853       5854       5865       5864       5974       5975       5986       5985  
      5854       5855       5866       5865       5975       5976       5987       5986  
      5855       5856       5867       5866       5976       5977       5988       5987  
      5856       5857       5868       5867       5977       5978       5989       5988  
      5857       5858       5869       5868       5978       5979       5990       5989  
      5858       5859       5870       5869       5979       5980       5991       5990  
      5859       5860       5871       5870       5980       5981       5992       5991  
      5860       5861       5872       5871       5981       5982       5993       5992  
      5861       5862       5873       5872       5982       5983       5994       5993  
      5862       5863       5874       5873       5983       5984       5995       5994  
      5864       5865       5876       5875       5985       5986       5997       5996  
      5865       5866       5877       5876       5986       5987       5998       5997  
      5866       5867       5878       5877       5987       5988       5999       5998  
      5867       5868       5879       5878       5988       5989       6000       5999  
      5868       5869       5880       5879       5989       5990       6001       6000  
      5869       5870       5881       5880       5990       5991       6002       6001  
      5870       5871       5882       5881       5991       5992       6003       6002  
      5871       5872       5883       5882       5992       5993       6004       6003  
      5872       5873       5884       5883       5993       5994       6005       6004  
      5873       5874       5885       5884       5994       5995       6006       6005  
      5875       5876       5887       5886       5996       5997       6008       6007  
      5876       5877       5888       5887       5997       5998       6009       6008  
      5877       5878       5889       5888       5998       5999       6010       6009  
      5878       5879       5890       5889       5999       6000       6011       6010  
      5879       5880       5891       5890       6000       6001       6012       6011  
      5880       5881       5892       5891       6001       6002       6013       6012  
      5881       5882       5893       5892       6002       6003       6014       6013  
      5882       5883       5894       5893       6003       6004       6015       6014  
      5883       5884       5895       5894       6004       6005       6016       6015  
      5884       5885       5896       5895       6005       6006       6017       6016  
      5886       5887       5898       5897       6007       6008       6019       6018  
      5887       5888       5899       5898       6008       6009       6020       6019  
      5888       5889       5900       5899       6009       6010       6021       6020  
      5889       5890       5901       5900       6010       6011       6022       6021  
      5890       5891       5902       5901       6011       6012       6023       6022  
      5891       5892       5903       5902       6012       6013       6024       6023  
      5892       5893       5904       5903       6013       6014       6025       6024  
      5893       5894       5905       5904       6014       6015       6026       6025  
      5894       5895       5906       5905       6015       6016       6027       6026  
      5895       5896       5907       5906       6016       6017       6028       6027  
      5897       5898       5909       5908       6018       6019       6030       6029  
      5898       5899       5910       5909       6019       6020       6031       6030  
      5899       5900       5911       5910       6020       6021       6032       6031  
      5900       5901       5912       5911       6021       6022       6033       6032  
      5901       5902       5913       5912       6022       6023       6034       6033  
      5902       5903       5914       5913       6023       6024       6035       6034  
      5903       5904       5915       5914       6024       6025       6036       6035  
      5904       5905       5916       5915       6025       6026       6037       6036  
      5905       5906       5917       5916       6026       6027       6038       6037  
      5906       5907       5918       5917       6027       6028       6039       6038  
      5908       5909       5920       5919       6029       6030       6041       6040  
      5909       5910       5921       5920       6030       6031       6042       6041  
      5910       5911       5922       5921       6031       6032       6043       6042  
      5911       5912       5923       5922       6032       6033       6044       6043  
      5912       5913       5924       5923       6033       6034       6045       6044  
      5913       5914       5925       5924       6034       6035       6046       6045  
      5914       5915       5926       5925       6035       6036       6047       6046  
      5915       5916       5927       5926       6036       6037       6048       6047  
      5916       5917       5928       5927       6037       6038       6049       6048  
      5917       5918       5929       5928       6038       6039       6050       6049  
      5930       5931       5942       5941       6051       6052       6063       6062  
      5931       5932       5943       5942       6052       6053       6064       6063  
      5932       5933       5944       5943       6053       6054       6065       6064  
      5933       5934       5945       5944       6054       6055       6066       6065  
      5934       5935       5946       5945       6055       6056       6067       6066  
      5935       5936       5947       5946       6056       6057       6068       6067  
      5936       5937       5948       5947       6057       6058       6069       6068  
      5937       5938       5949       5948       6058       6059       6070       6069  
      5938       5939       5950       5949       6059       6060       6071       6070  
      5939       5940       5951       5950       6060       6061       6072       6071  
      5941       5942       5953       5952       6062       6063       6074       6073  
      5942       5943       5954       5953       6063       6064       6075       6074  
      5943       5944       5955       5954       6064       6065       6076       6075  
      5944       5945       5956       5955       6065       6066       6077       6076  
      5945       5946       5957       5956       6066       6067       6078       6077  
      5946       5947       5958       5957       6067       6068       6079       6078  
      5947       5948       5959       5958       6068       6069       6080       6079  
      5948       5949       5960       5959       6069       6070       6081       6080  
      5949       5950       5961       5960       6070       6071       6082       6081  
      5950       5951       5962       5961       6071       6072       6083       6082  
      5952       5953       5964       5963       6073       6074       6085       6084  
      5953       5954       5965       5964       6074       6075       6086       6085  
      5954       5955       5966       5965       6075       6076       6087       6086  
      5955       5956       5967       5966       6076       6077       6088       6087  
      5956       5957       5968       5967       6077       6078       6089       6088  
      5957       5958       5969       5968       6078       6079       6090       6089  
      5958       5959       5970       5969       6079       6080       6091       6090  
      5959       5960       5971       5970       6080       6081       6092       6091  
      5960       5961       5972       5971       6081       6082       6093       6092  
      5961       5962       5973       5972       6082       6083       6094       6093  
      5963       5964       5975       5974       6084       6085       6096       6095  
      5964       5965       5976       5975       6085       6086       6097       6096  
      5965       5966       5977       5976       6086       6087       6098       6097  
      5966       5967       5978       5977       6087       6088       6099       6098  
      5967       5968       5979       5978       6088       6089       6100       6099  
      5968       5969       5980       5979       6089       6090       6101       6100  
      5969       5970       5981       5980       6090       6091       6102       6101  
      5970       5971       5982       5981       6091       6092       6103       6102  
      5971       5972       5983       5982       6092       6093       6104       6103  
      5972       5973       5984       5983       6093       6094       6105       6104  
      5974       5975       5986       5985       6095       6096       6107       6106  
      5975       5976       5987       5986       6096       6097       6108       6107  
      5976       5977       5988       5987       6097       6098       6109       6108  
      5977       5978       5989       5988       6098       6099       6110       6109  
      5978       5979       5990       5989       6099       6100       6111       6110  
      5979       5980       5991       5990       6100       6101       6112       6111  
      5980       5981       5992       5991       6101       6102       6113       6112  
      5981       5982       5993       5992       6102       6103       6114       6113  
      5982       5983       5994       5993       6103       6104       6115       6114  
      5983       5984       5995       5994       6104       6105       6116       6115  
      5985       5986       5997       5996       6106       6107       6118       6117  
      5986       5987       5998       5997       6107       6108       6119       6118  
      5987       5988       5999       5998       6108       6109       6120       6119  
      5988       5989       6000       5999       6109       6110       6121       6120  
      5989       5990       6001       6000       6110       6111       6122       6121  
      5990       5991       6002       6001       6111       6112       6123       6122  
      5991       5992       6003       6002       6112       6113       6124       6123  
      5992       5993       6004       6003       6113       6114       6125       6124  
      5993       5994       6005       6004       6114       6115       6126       6125  
      5994       5995       6006       6005       6115       6116       6127       6126  
      5996       5997       6008       6007       6117       6118       6129       6128  
      5997       5998       6009       6008       6118       6119       6130       6129  
      5998       5999       6010       6009       6119       6120       6131       6130  
      5999       6000       6011       6010       6120       6121       6132       6131  
      6000       6001       6012       6011       6121       6122       6133       6132  
      6001       6002       6013       6012       6122       6123       6134       6133  
      6002       6003       6014       6013       6123       6124       6135       6134  
      6003       6004       6015       6014       6124       6125       6136       6135  
      6004       6005       6016       6015       6125       6126       6137       6136  
      6005       6006       6017       6016       6126       6127       6138       6137  
      6007       6008       6019       6018       6128       6129       6140       6139  
      6008       6009       6020       6019       6129       6130       6141       6140  
      6009       6010       6021       6020       6130       6131       6142       6141  
      6010       6011       6022       6021       6131       6132       6143       6142  
      6011       6012       6023       6022       6132       6133       6144       6143  
      6012       6013       6024       6023       6133       6134       6145       6144  
      6013       6014       6025       6024       6134       6135       6146       6145  
      6014       6015       6026       6025       6135       6136       6147       6146  
      6015       6016       6027       6026       6136       6137       6148       6147  
      6016       6017       6028       6027       6137       6138       6149       6148  
      6018       6019       6030       6029       6139       6140       6151       6150  
      6019       6020       6031       6030       6140       6141       6152       6151  
      6020       6021       6032       6031       6141       6142       6153       6152  
      6021       6022       6033       6032       6142       6143       6154       6153  
      6022       6023       6034       6033       6143       6144       6155       6154  
      6023       6024       6035       6034       6144       6145       6156       6155  
      6024       6025       6036       6035       6145       6146       6157       6156  
      6025       6026       6037       6036       6146       6147       6158       6157  
      6026       6027       6038       6037       6147       6148       6159       6158  
      6027       6028       6039       6038       6148       6149       6160       6159  
      6029       6030       6041       6040       6150       6151       6162       6161  
      6030       6031       6042       6041       6151       6152       6163       6162  
      6031       6032       6043       6042       6152       6153       6164       6163  
      6032       6033       6044       6043       6153       6154       6165       6164  
      6033       6034       6045       6044       6154       6155       6166       6165  
      6034       6035       6046       6045       6155       6156       6167       6166  
      6035       6036       6047       6046       6156       6157       6168       6167  
      6036       6037       6048       6047       6157       6158       6169       6168  
      6037       6038       6049       6048       6158       6159       6170       6169  
      6038       6039       6050       6049       6159       6160       6171       6170  
      6051       6052       6063       6062       6172       6173       6184       6183  
      6052       6053       6064       6063       6173       6174       6185       6184  
      6053       6054       6065       6064       6174       6175       6186       6185  
      6054       6055       6066       6065       6175       6176       6187       6186  
      6055       6056       6067       6066       6176       6177       6188       6187  
      6056       6057       6068       6067       6177       6178       6189       6188  
      6057       6058       6069       6068       6178       6179       6190       6189  
      6058       6059       6070       6069       6179       6180       6191       6190  
      6059       6060       6071       6070       6180       6181       6192       6191  
      6060       6061       6072       6071       6181       6182       6193       6192  
      6062       6063       6074       6073       6183       6184       6195       6194  
      6063       6064       6075       6074       6184       6185       6196       6195  
      6064       6065       6076       6075       6185       6186       6197       6196  
      6065       6066       6077       6076       6186       6187       6198       6197  
      6066       6067       6078       6077       6187       6188       6199       6198  
      6067       6068       6079       6078       6188       6189       6200       6199  
      6068       6069       6080       6079       6189       6190       6201       6200  
      6069       6070       6081       6080       6190       6191       6202       6201  
      6070       6071       6082       6081       6191       6192       6203       6202  
      6071       6072       6083       6082       6192       6193       6204       6203  
      6073       6074       6085       6084       6194       6195       6206       6205  
      6074       6075       6086       6085       6195       6196       6207       6206  
      6075       6076       6087       6086       6196       6197       6208       6207  
      6076       6077       6088       6087       6197       6198       6209       6208  
      6077       6078       6089       6088       6198       6199       6210       6209  
      6078       6079       6090       6089       6199       6200       6211       6210  
      6079       6080       6091       6090       6200       6201       6212       6211  
      6080       6081       6092       6091       6201       6202       6213       6212  
      6081       6082       6093       6092       6202       6203       6214       6213  
      6082       6083       6094       6093       6203       6204       6215       6214  
      6084       6085       6096       6095       6205       6206       6217       6216  
      6085       6086       6097       6096       6206       6207       6218       6217  
      6086       6087       6098       6097       6207       6208       6219       6218  
      6087       6088       6099       6098       6208       6209       6220       6219  
      6088       6089       6100       6099       6209       6210       6221       6220  
      6089       6090       6101       6100       6210       6211       6222       6221  
      6090       6091       6102       6101       6211       6212       6223       6222  
      6091       6092       6103       6102       6212       6213       6224       6223  
      6092       6093       6104       6103       6213       6214       6225       6224  
      6093       6094       6105       6104       6214       6215       6226       6225  
      6095       6096       6107       6106       6216       6217       6228       6227  
      6096       6097       6108       6107       6217       6218       6229       6228  
      6097       6098       6109       6108       6218       6219       6230       6229  
      6098       6099       6110       6109       6219       6220       6231       6230  
      6099       6100       6111       6110       6220       6221       6232       6231  
      6100       6101       6112       6111       6221       6222       6233       6232  
      6101       6102       6113       6112       6222       6223       6234       6233  
      6102       6103       6114       6113       6223       6224       6235       6234  
      6103       6104       6115       6114       6224       6225       6236       6235  
      6104       6105       6116       6115       6225       6226       6237       6236  
      6106       6107       6118       6117       6227       6228       6239       6238  
      6107       6108       6119       6118       6228       6229       6240       6239  
      6108       6109       6120       6119       6229       6230       6241       6240  
      6109       6110       6121       6120       6230       6231       6242       6241  
      6110       6111       6122       6121       6231       6232       6243       6242  
      6111       6112       6123       6122       6232       6233       6244       6243  
      6112       6113       6124       6123       6233       6234       6245       6244  
      6113       6114       6125       6124       6234       6235       6246       6245  
      6114       6115       6126       6125       6235       6236       6247       6246  
      6115       6116       6127       6126       6236       6237       6248       6247  
      6117       6118       6129       6128       6238       6239       6250       6249  
      6118       6119       6130       6129       6239       6240       6251       6250  
      6119       6120       6131       6130       6240       6241       6252       6251  
      6120       6121       6132       6131       6241       6242       6253       6252  
      6121       6122       6133       6132       6242       6243       6254       6253  
      6122       6123       6134       6133       6243       6244       6255       6254  
      6123       6124       6135       6134       6244       6245       6256       6255  
      6124       6125       6136       6135       6245       6246       6257       6256  
      6125       6126       6137       6136       6246       6247       6258       6257  
      6126       6127       6138       6137       6247       6248       6259       6258  
      6128       6129       6140       6139       6249       6250       6261       6260  
      6129       6130       6141       6140       6250       6251       6262       6261  
      6130       6131       6142       6141       6251       6252       6263       6262  
      6131       6132       6143       6142       6252       6253       6264       6263  
      6132       6133       6144       6143       6253       6254       6265       6264  
      6133       6134       6145       6144       6254       6255       6266       6265  
      6134       6135       6146       6145       6255       6256       6267       6266  
      6135       6136       6147       6146       6256       6257       6268       6267  
      6136       6137       6148       6147       6257       6258       6269       6268  
      6137       6138       6149       6148       6258       6259       6270       6269  
      6139       6140       6151       6150       6260       6261       6272       6271  
      6140       6141       6152       6151       6261       6262       6273       6272  
      6141       6142       6153       6152       6262       6263       6274       6273  
      6142       6143       6154       6153       6263       6264       6275       6274  
      6143       6144       6155       6154       6264       6265       6276       6275  
      6144       6145       6156       6155       6265       6266       6277       6276  
      6145       6146       6157       6156       6266       6267       6278       6277  
      6146       6147       6158       6157       6267       6268       6279       6278  
      6147       6148       6159       6158       6268       6269       6280       6279  
      6148       6149       6160       6159       6269       6270       6281       6280  
      6150       6151       6162       6161       6271       6272       6283       6282  
      6151       6152       6163       6162       6272       6273       6284       6283  
      6152       6153       6164       6163       6273       6274       6285       6284  
      6153       6154       6165       6164       6274       6275       6286       6285  
      6154       6155       6166       6165       6275       6276       6287       6286  
      6155       6156       6167       6166       6276       6277       6288       6287  
      6156       6157       6168       6167       6277       6278       6289       6288  
      6157       6158       6169       6168       6278       6279       6290       6289  
      6158       6159       6170       6169       6279       6280       6291       6290  
      6159       6160       6171       6170       6280       6281       6292       6291  
      6172       6173       6184       6183       6293       6294       6305       6304  
      6173       6174       6185       6184       6294       6295       6306       6305  
      6174       6175       6186       6185       6295       6296       6307       6306  
      6175       6176       6187       6186       6296       6297       6308       6307  
      6176       6177       6188       6187       6297       6298       6309       6308  
      6177       6178       6189       6188       6298       6299       6310       6309  
      6178       6179       6190       6189       6299       6300       6311       6310  
      6179       6180       6191       6190       6300       6301       6312       6311  
      6180       6181       6192       6191       6301       6302       6313       6312  
      6181       6182       6193       6192       6302       6303       6314       6313  
      6183       6184       6195       6194       6304       6305       6316       6315  
      6184       6185       6196       6195       6305       6306       6317       6316  
      6185       6186       6197       6196       6306       6307       6318       6317  
      6186       6187       6198       6197       6307       6308       6319       6318  
      6187       6188       6199       6198       6308       6309       6320       6319  
      6188       6189       6200       6199       6309       6310       6321       6320  
      6189       6190       6201       6200       6310       6311       6322       6321  
      6190       6191       6202       6201       6311       6312       6323       6322  
      6191       6192       6203       6202       6312       6313       6324       6323  
      6192       6193       6204       6203       6313       6314       6325       6324  
      6194       6195       6206       6205       6315       6316       6327       6326  
      6195       6196       6207       6206       6316       6317       6328       6327  
      6196       6197       6208       6207       6317       6318       6329       6328  
      6197       6198       6209       6208       6318       6319       6330       6329  
      6198       6199       6210       6209       6319       6320       6331       6330  
      6199       6200       6211       6210       6320       6321       6332       6331  
      6200       6201       6212       6211       6321       6322       6333       6332  
      6201       6202       6213       6212       6322       6323       6334       6333  
      6202       6203       6214       6213       6323       6324       6335       6334  
      6203       6204       6215       6214       6324       6325       6336       6335  
      6205       6206       6217       6216       6326       6327       6338       6337  
      6206       6207       6218       6217       6327       6328       6339       6338  
      6207       6208       6219       6218       6328       6329       6340       6339  
      6208       6209       6220       6219       6329       6330       6341       6340  
      6209       6210       6221       6220       6330       6331       6342       6341  
      6210       6211       6222       6221       6331       6332       6343       6342  
      6211       6212       6223       6222       6332       6333       6344       6343  
      6212       6213       6224       6223       6333       6334       6345       6344  
      6213       6214       6225       6224       6334       6335       6346       6345  
      6214       6215       6226       6225       6335       6336       6347       6346  
      6216       6217       6228       6227       6337       6338       6349       6348  
      6217       6218       6229       6228       6338       6339       6350       6349  
      6218       6219       6230       6229       6339       6340       6351       6350  
      6219       6220       6231       6230       6340       6341       6352       6351  
      6220       6221       6232       6231       6341       6342       6353       6352  
      6221       6222       6233       6232       6342       6343       6354       6353  
      6222       6223       6234       6233       6343       6344       6355       6354  
      6223       6224       6235       6234       6344       6345       6356       6355  
      6224       6225       6236       6235       6345       6346       6357       6356  
      6225       6226       6237       6236       6346       6347       6358       6357  
      6227       6228       6239       6238       6348       6349       6360       6359  
      6228       6229       6240       6239       6349       6350       6361       6360  
      6229       6230       6241       6240       6350       6351       6362       6361  
      6230       6231       6242       6241       6351       6352       6363       6362  
      6231       6232       6243       6242       6352       6353       6364       6363  
      6232       6233       6244       6243       6353       6354       6365       6364  
      6233       6234       6245       6244       6354       6355       6366       6365  
      6234       6235       6246       6245       6355       6356       6367       6366  
      6235       6236       6247       6246       6356       6357       6368       6367  
      6236       6237       6248       6247       6357       6358       6369       6368  
      6238       6239       6250       6249       6359       6360       6371       6370  
      6239       6240       6251       6250       6360       6361       6372       6371  
      6240       6241       6252       6251       6361       6362       6373       6372  
      6241       6242       6253       6252       6362       6363       6374       6373  
      6242       6243       6254       6253       6363       6364       6375       6374  
      6243       6244       6255       6254       6364       6365       6376       6375  
      6244       6245       6256       6255       6365       6366       6377       6376  
      6245       6246       6257       6256       6366       6367       6378       6377  
      6246       6247       6258       6257       6367       6368       6379       6378  
      6247       6248       6259       6258       6368       6369       6380       6379  
      6249       6250       6261       6260       6370       6371       6382       6381  
      6250       6251       6262       6261       6371       6372       6383       6382  
      6251       6252       6263       6262       6372       6373       6384       6383  
      6252       6253       6264       6263       6373       6374       6385       6384  
      6253       6254       6265       6264       6374       6375       6386       6385  
      6254       6255       6266       6265       6375       6376       6387       6386  
      6255       6256       6267       6266       6376       6377       6388       6387  
      6256       6257       6268       6267       6377       6378       6389       6388  
      6257       6258       6269       6268       6378       6379       6390       6389  
      6258       6259       6270       6269       6379       6380       6391       6390  
      6260       6261       6272       6271       6381       6382       6393       6392  
      6261       6262       6273       6272       6382       6383       6394       6393  
      6262       6263       6274       6273       6383       6384       6395       6394  
      6263       6264       6275       6274       6384       6385       6396       6395  
      6264       6265       6276       6275       6385       6386       6397       6396  
      6265       6266       6277       6276       6386       6387       6398       6397  
      6266       6267       6278       6277       6387       6388       6399       6398  
      6267       6268       6279       6278       6388       6389       6400       6399  
      6268       6269       6280       6279       6389       6390       6401       6400  
      6269       6270       6281       6280       6390       6391       6402       6401  
      6271       6272       6283       6282       6392       6393       6404       6403  
      6272       6273       6284       6283       6393       6394       6405       6404  
      6273       6274       6285       6284       6394       6395       6406       6405  
      6274       6275       6286       6285       6395       6396       6407       6406  
      6275       6276       6287       6286       6396       6397       6408       6407  
      6276       6277       6288       6287       6397       6398       6409       6408  
      6277       6278       6289       6288       6398       6399       6410       6409  
      6278       6279       6290       6289       6399       6400       6411       6410  
      6279       6280       6291       6290       6400       6401       6412       6411  
      6280       6281       6292       6291       6401       6402       6413       6412  
      6293       6294       6305       6304       6414       6415       6426       6425  
      6294       6295       6306       6305       6415       6416       6427       6426  
      6295       6296       6307       6306       6416       6417       6428       6427  
      6296       6297       6308       6307       6417       6418       6429       6428  
      6297       6298       6309       6308       6418       6419       6430       6429  
      6298       6299       6310       6309       6419       6420       6431       6430  
      6299       6300       6311       6310       6420       6421       6432       6431  
      6300       6301       6312       6311       6421       6422       6433       6432  
      6301       6302       6313       6312       6422       6423       6434       6433  
      6302       6303       6314       6313       6423       6424       6435       6434  
      6304       6305       6316       6315       6425       6426       6437       6436  
      6305       6306       6317       6316       6426       6427       6438       6437  
      6306       6307       6318       6317       6427       6428       6439       6438  
      6307       6308       6319       6318       6428       6429       6440       6439  
      6308       6309       6320       6319       6429       6430       6441       6440  
      6309       6310       6321       6320       6430       6431       6442       6441  
      6310       6311       6322       6321       6431       6432       6443       6442  
      6311       6312       6323       6322       6432       6433       6444       6443  
      6312       6313       6324       6323       6433       6434       6445       6444  
      6313       6314       6325       6324       6434       6435       6446       6445  
      6315       6316       6327       6326       6436       6437       6448       6447  
      6316       6317       6328       6327       6437       6438       6449       6448  
      6317       6318       6329       6328       6438       6439       6450       6449  
      6318       6319       6330       6329       6439       6440       6451       6450  
      6319       6320       6331       6330       6440       6441       6452       6451  
      6320       6321       6332       6331       6441       6442       6453       6452  
      6321       6322       6333       6332       6442       6443       6454       6453  
      6322       6323       6334       6333       6443       6444       6455       6454  
      6323       6324       6335       6334       6444       6445       6456       6455  
      6324       6325       6336       6335       6445       6446       6457       6456  
      6326       6327       6338       6337       6447       6448       6459       6458  
      6327       6328       6339       6338       6448       6449       6460       6459  
      6328       6329       6340       6339       6449       6450       6461       6460  
      6329       6330       6341       6340       6450       6451       6462       6461  
      6330       6331       6342       6341       6451       6452       6463       6462  
      6331       6332       6343       6342       6452       6453       6464       6463  
      6332       6333       6344       6343       6453       6454       6465       6464  
      6333       6334       6345       6344       6454       6455       6466       6465  
      6334       6335       6346       6345       6455       6456       6467       6466  
      6335       6336       6347       6346       6456       6457       6468       6467  
      6337       6338       6349       6348       6458       6459       6470       6469  
      6338       6339       6350       6349       6459       6460       6471       6470  
      6339       6340       6351       6350       6460       6461       6472       6471  
      6340       6341       6352       6351       6461       6462       6473       6472  
      6341       6342       6353       6352       6462       6463       6474       6473  
      6342       6343       6354       6353       6463       6464       6475       6474  
      6343       6344       6355       6354       6464       6465       6476       6475  
      6344       6345       6356       6355       6465       6466       6477       6476  
      6345       6346       6357       6356       6466       6467       6478       6477  
      6346       6347       6358       6357       6467       6468       6479       6478  
      6348       6349       6360       6359       6469       6470       6481       6480  
      6349       6350       6361       6360       6470       6471       6482       6481  
      6350       6351       6362       6361       6471       6472       6483       6482  
      6351       6352       6363       6362       6472       6473       6484       6483  
      6352       6353       6364       6363       6473       6474       6485       6484  
      6353       6354       6365       6364       6474       6475       6486       6485  
      6354       6355       6366       6365       6475       6476       6487       6486  
      6355       6356       6367       6366       6476       6477       6488       6487  
      6356       6357       6368       6367       6477       6478       6489       6488  
      6357       6358       6369       6368       6478       6479       6490       6489  
      6359       6360       6371       6370       6480       6481       6492       6491  
      6360       6361       6372       6371       6481       6482       6493       6492  
      6361       6362       6373       6372       6482       6483       6494       6493  
      6362       6363       6374       6373       6483       6484       6495       6494  
      6363       6364       6375       6374       6484       6485       6496       6495  
      6364       6365       6376       6375       6485       6486       6497       6496  
      6365       6366       6377       6376       6486       6487       6498       6497  
      6366       6367       6378       6377       6487       6488       6499       6498  
      6367       6368       6379       6378       6488       6489       6500       6499  
      6368       6369       6380       6379       6489       6490       6501       6500  
      6370       6371       6382       6381       6491       6492       6503       6502  
      6371       6372       6383       6382       6492       6493       6504       6503  
      6372       6373       6384       6383       6493       6494       6505       6504  
      6373       6374       6385       6384       6494       6495       6506       6505  
      6374       6375       6386       6385       6495       6496       6507       6506  
      6375       6376       6387       6386       6496       6497       6508       6507  
      6376       6377       6388       6387       6497       6498       6509       6508  
      6377       6378       6389       6388       6498       6499       6510       6509  
      6378       6379       6390       6389       6499       6500       6511       6510  
      6379       6380       6391       6390       6500       6501       6512       6511  
      6381       6382       6393       6392       6502       6503       6514       6513  
      6382       6383       6394       6393       6503       6504       6515       6514  
      6383       6384       6395       6394       6504       6505       6516       6515  
      6384       6385       6396       6395       6505       6506       6517       6516  
      6385       6386       6397       6396       6506       6507       6518       6517  
      6386       6387       6398       6397       6507       6508       6519       6518  
      6387       6388       6399       6398       6508       6509       6520       6519  
      6388       6389       6400       6399       6509       6510       6521       6520  
      6389       6390       6401       6400       6510       6511       6522       6521  
      6390       6391       6402       6401       6511       6512       6523       6522  
      6392       6393       6404       6403       6513       6514       6525       6524  
      6393       6394       6405       6404       6514       6515       6526       6525  
      6394       6395       6406       6405       6515       6516       6527       6526  
      6395       6396       6407       6406       6516       6517       6528       6527  
      6396       6397       6408       6407       6517       6518       6529       6528  
      6397       6398       6409       6408       6518       6519       6530       6529  
      6398       6399       6410       6409       6519       6520       6531       6530  
      6399       6400       6411       6410       6520       6521       6532       6531  
      6400       6401       6412       6411       6521       6522       6533       6532  
      6401       6402       6413       6412       6522       6523       6534       6533  
      6414       6415       6426       6425       6535       6536       6547       6546  
      6415       6416       6427       6426       6536       6537       6548       6547  
      6416       6417       6428       6427       6537       6538       6549       6548  
      6417       6418       6429       6428       6538       6539       6550       6549  
      6418       6419       6430       6429       6539       6540       6551       6550  
      6419       6420       6431       6430       6540       6541       6552       6551  
      6420       6421       6432       6431       6541       6542       6553       6552  
      6421       6422       6433       6432       6542       6543       6554       6553  
      6422       6423       6434       6433       6543       6544       6555       6554  
      6423       6424       6435       6434       6544       6545       6556       6555  
      6425       6426       6437       6436       6546       6547       6558       6557  
      6426       6427       6438       6437       6547       6548       6559       6558  
      6427       6428       6439       6438       6548       6549       6560       6559  
      6428       6429       6440       6439       6549       6550       6561       6560  
      6429       6430       6441       6440       6550       6551       6562       6561  
      6430       6431       6442       6441       6551       6552       6563       6562  
      6431       6432       6443       6442       6552       6553       6564       6563  
      6432       6433       6444       6443       6553       6554       6565       6564  
      6433       6434       6445       6444       6554       6555       6566       6565  
      6434       6435       6446       6445       6555       6556       6567       6566  
      6436       6437       6448       6447       6557       6558       6569       6568  
      6437       6438       6449       6448       6558       6559       6570       6569  
      6438       6439       6450       6449       6559       6560       6571       6570  
      6439       6440       6451       6450       6560       6561       6572       6571  
      6440       6441       6452       6451       6561       6562       6573       6572  
      6441       6442       6453       6452       6562       6563       6574       6573  
      6442       6443       6454       6453       6563       6564       6575       6574  
      6443       6444       6455       6454       6564       6565       6576       6575  
      6444       6445       6456       6455       6565       6566       6577       6576  
      6445       6446       6457       6456       6566       6567       6578       6577  
      6447       6448       6459       6458       6568       6569       6580       6579  
      6448       6449       6460       6459       6569       6570       6581       6580  
      6449       6450       6461       6460       6570       6571       6582       6581  
      6450       6451       6462       6461       6571       6572       6583       6582  
      6451       6452       6463       6462       6572       6573       6584       6583  
      6452       6453       6464       6463       6573       6574       6585       6584  
      6453       6454       6465       6464       6574       6575       6586       6585  
      6454       6455       6466       6465       6575       6576       6587       6586  
      6455       6456       6467       6466       6576       6577       6588       6587  
      6456       6457       6468       6467       6577       6578       6589       6588  
      6458       6459       6470       6469       6579       6580       6591       6590  
      6459       6460       6471       6470       6580       6581       6592       6591  
      6460       6461       6472       6471       6581       6582       6593       6592  
      6461       6462       6473       6472       6582       6583       6594       6593  
      6462       6463       6474       6473       6583       6584       6595       6594  
      6463       6464       6475       6474       6584       6585       6596       6595  
      6464       6465       6476       6475       6585       6586       6597       6596  
      6465       6466       6477       6476       6586       6587       6598       6597  
      6466       6467       6478       6477       6587       6588       6599       6598  
      6467       6468       6479       6478       6588       6589       6600       6599  
      6469       6470       6481       6480       6590       6591       6602       6601  
      6470       6471       6482       6481       6591       6592       6603       6602  
      6471       6472       6483       6482       6592       6593       6604       6603  
      6472       6473       6484       6483       6593       6594       6605       6604  
      6473       6474       6485       6484       6594       6595       6606       6605  
      6474       6475       6486       6485       6595       6596       6607       6606  
      6475       6476       6487       6486       6596       6597       6608       6607  
      6476       6477       6488       6487       6597       6598       6609       6608  
      6477       6478       6489       6488       6598       6599       6610       6609  
      6478       6479       6490       6489       6599       6600       6611       6610  
      6480       6481       6492       6491       6601       6602       6613       6612  
      6481       6482       6493       6492       6602       6603       6614       6613  
      6482       6483       6494       6493       6603       6604       6615       6614  
      6483       6484       6495       6494       6604       6605       6616       6615  
      6484       6485       6496       6495       6605       6606       6617       6616  
      6485       6486       6497       6496       6606       6607       6618       6617  
      6486       6487       6498       6497       6607       6608       6619       6618  
      6487       6488       6499       6498       6608       6609       6620       6619  
      6488       6489       6500       6499       6609       6610       6621       6620  
      6489       6490       6501       6500       6610       6611       6622       6621  
      6491       6492       6503       6502       6612       6613       6624       6623  
      6492       6493       6504       6503       6613       6614       6625       6624  
      6493       6494       6505       6504       6614       6615       6626       6625  
      6494       6495       6506       6505       6615       6616       6627       6626  
      6495       6496       6507       6506       6616       6617       6628       6627  
      6496       6497       6508       6507       6617       6618       6629       6628  
      6497       6498       6509       6508       6618       6619       6630       6629  
      6498       6499       6510       6509       6619       6620       6631       6630  
      6499       6500       6511       6510       6620       6621       6632       6631  
      6500       6501       6512       6511       6621       6622       6633       6632  
      6502       6503       6514       6513       6623       6624       6635       6634  
      6503       6504       6515       6514       6624       6625       6636       6635  
      6504       6505       6516       6515       6625       6626       6637       6636  
      6505       6506       6517       6516       6626       6627       6638       6637  
      6506       6507       6518       6517       6627       6628       6639       6638  
      6507       6508       6519       6518       6628       6629       6640       6639  
      6508       6509       6520       6519       6629       6630       6641       6640  
      6509       6510       6521       6520       6630       6631       6642       6641  
      6510       6511       6522       6521       6631       6632       6643       6642  
      6511       6512       6523       6522       6632       6633       6644       6643  
      6513       6514       6525       6524       6634       6635       6646       6645  
      6514       6515       6526       6525       6635       6636       6647       6646  
      6515       6516       6527       6526       6636       6637       6648       6647  
      6516       6517       6528       6527       6637       6638       6649       6648  
      6517       6518       6529       6528       6638       6639       6650       6649  
      6518       6519       6530       6529       6639       6640       6651       6650  
      6519       6520       6531       6530       6640       6641       6652       6651  
      6520       6521       6532       6531       6641       6642       6653       6652  
      6521       6522       6533       6532       6642       6643       6654       6653  
      6522       6523       6534       6533       6643       6644       6655       6654  
      6535       6536       6547       6546       6656       6657       6668       6667  
      6536       6537       6548       6547       6657       6658       6669       6668  
      6537       6538       6549       6548       6658       6659       6670       6669  
      6538       6539       6550       6549       6659       6660       6671       6670  
      6539       6540       6551       6550       6660       6661       6672       6671  
      6540       6541       6552       6551       6661       6662       6673       6672  
      6541       6542       6553       6552       6662       6663       6674       6673  
      6542       6543       6554       6553       6663       6664       6675       6674  
      6543       6544       6555       6554       6664       6665       6676       6675  
      6544       6545       6556       6555       6665       6666       6677       6676  
      6546       6547       6558       6557       6667       6668       6679       6678  
      6547       6548       6559       6558       6668       6669       6680       6679  
      6548       6549       6560       6559       6669       6670       6681       6680  
      6549       6550       6561       6560       6670       6671       6682       6681  
      6550       6551       6562       6561       6671       6672       6683       6682  
      6551       6552       6563       6562       6672       6673       6684       6683  
      6552       6553       6564       6563       6673       6674       6685       6684  
      6553       6554       6565       6564       6674       6675       6686       6685  
      6554       6555       6566       6565       6675       6676       6687       6686  
      6555       6556       6567       6566       6676       6677       6688       6687  
      6557       6558       6569       6568       6678       6679       6690       6689  
      6558       6559       6570       6569       6679       6680       6691       6690  
      6559       6560       6571       6570       6680       6681       6692       6691  
      6560       6561       6572       6571       6681       6682       6693       6692  
      6561       6562       6573       6572       6682       6683       6694       6693  
      6562       6563       6574       6573       6683       6684       6695       6694  
      6563       6564       6575       6574       6684       6685       6696       6695  
      6564       6565       6576       6575       6685       6686       6697       6696  
      6565       6566       6577       6576       6686       6687       6698       6697  
      6566       6567       6578       6577       6687       6688       6699       6698  
      6568       6569       6580       6579       6689       6690       6701       6700  
      6569       6570       6581       6580       6690       6691       6702       6701  
      6570       6571       6582       6581       6691       6692       6703       6702  
      6571       6572       6583       6582       6692       6693       6704       6703  
      6572       6573       6584       6583       6693       6694       6705       6704  
      6573       6574       6585       6584       6694       6695       6706       6705  
      6574       6575       6586       6585       6695       6696       6707       6706  
      6575       6576       6587       6586       6696       6697       6708       6707  
      6576       6577       6588       6587       6697       6698       6709       6708  
      6577       6578       6589       6588       6698       6699       6710       6709  
      6579       6580       6591       6590       6700       6701       6712       6711  
      6580       6581       6592       6591       6701       6702       6713       6712  
      6581       6582       6593       6592       6702       6703       6714       6713  
      6582       6583       6594       6593       6703       6704       6715       6714  
      6583       6584       6595       6594       6704       6705       6716       6715  
      6584       6585       6596       6595       6705       6706       6717       6716  
      6585       6586       6597       6596       6706       6707       6718       6717  
      6586       6587       6598       6597       6707       6708       6719       6718  
      6587       6588       6599       6598       6708       6709       6720       6719  
      6588       6589       6600       6599       6709       6710       6721       6720  
      6590       6591       6602       6601       6711       6712       6723       6722  
      6591       6592       6603       6602       6712       6713       6724       6723  
      6592       6593       6604       6603       6713       6714       6725       6724  
      6593       6594       6605       6604       6714       6715       6726       6725  
      6594       6595       6606       6605       6715       6716       6727       6726  
      6595       6596       6607       6606       6716       6717       6728       6727  
      6596       6597       6608       6607       6717       6718       6729       6728  
      6597       6598       6609       6608       6718       6719       6730       6729  
      6598       6599       6610       6609       6719       6720       6731       6730  
      6599       6600       6611       6610       6720       6721       6732       6731  
      6601       6602       6613       6612       6722       6723       6734       6733  
      6602       6603       6614       6613       6723       6724       6735       6734  
      6603       6604       6615       6614       6724       6725       6736       6735  
      6604       6605       6616       6615       6725       6726       6737       6736  
      6605       6606       6617       6616       6726       6727       6738       6737  
      6606       6607       6618       6617       6727       6728       6739       6738  
      6607       6608       6619       6618       6728       6729       6740       6739  
      6608       6609       6620       6619       6729       6730       6741       6740  
      6609       6610       6621       6620       6730       6731       6742       6741  
      6610       6611       6622       6621       6731       6732       6743       6742  
      6612       6613       6624       6623       6733       6734       6745       6744  
      6613       6614       6625       6624       6734       6735       6746       6745  
      6614       6615       6626       6625       6735       6736       6747       6746  
      6615       6616       6627       6626       6736       6737       6748       6747  
      6616       6617       6628       6627       6737       6738       6749       6748  
      6617       6618       6629       6628       6738       6739       6750       6749  
      6618       6619       6630       6629       6739       6740       6751       6750  
      6619       6620       6631       6630       6740       6741       6752       6751  
      6620       6621       6632       6631       6741       6742       6753       6752  
      6621       6622       6633       6632       6742       6743       6754       6753  
      6623       6624       6635       6634       6744       6745       6756       6755  
      6624       6625       6636       6635       6745       6746       6757       6756  
      6625       6626       6637       6636       6746       6747       6758       6757  
      6626       6627       6638       6637       6747       6748       6759       6758  
      6627       6628       6639       6638       6748       6749       6760       6759  
      6628       6629       6640       6639       6749       6750       6761       6760  
      6629       6630       6641       6640       6750       6751       6762       6761  
      6630       6631       6642       6641       6751       6752       6763       6762  
      6631       6632       6643       6642       6752       6753       6764       6763  
      6632       6633       6644       6643       6753       6754       6765       6764  
      6634       6635       6646       6645       6755       6756       6767       6766  
      6635       6636       6647       6646       6756       6757       6768       6767  
      6636       6637       6648       6647       6757       6758       6769       6768  
      6637       6638       6649       6648       6758       6759       6770       6769  
      6638       6639       6650       6649       6759       6760       6771       6770  
      6639       6640       6651       6650       6760       6761       6772       6771  
      6640       6641       6652       6651       6761       6762       6773       6772  
      6641       6642       6653       6652       6762       6763       6774       6773  
      6642       6643       6654       6653       6763       6764       6775       6774  
      6643       6644       6655       6654       6764       6765       6776       6775  
      6656       6657       6668       6667       6777       6778       6789       6788  
      6657       6658       6669       6668       6778       6779       6790       6789  
      6658       6659       6670       6669       6779       6780       6791       6790  
      6659       6660       6671       6670       6780       6781       6792       6791  
      6660       6661       6672       6671       6781       6782       6793       6792  
      6661       6662       6673       6672       6782       6783       6794       6793  
      6662       6663       6674       6673       6783       6784       6795       6794  
      6663       6664       6675       6674       6784       6785       6796       6795  
      6664       6665       6676       6675       6785       6786       6797       6796  
      6665       6666       6677       6676       6786       6787       6798       6797  
      6667       6668       6679       6678       6788       6789       6800       6799  
      6668       6669       6680       6679       6789       6790       6801       6800  
      6669       6670       6681       6680       6790       6791       6802       6801  
      6670       6671       6682       6681       6791       6792       6803       6802  
      6671       6672       6683       6682       6792       6793       6804       6803  
      6672       6673       6684       6683       6793       6794       6805       6804  
      6673       6674       6685       6684       6794       6795       6806       6805  
      6674       6675       6686       6685       6795       6796       6807       6806  
      6675       6676       6687       6686       6796       6797       6808       6807  
      6676       6677       6688       6687       6797       6798       6809       6808  
      6678       6679       6690       6689       6799       6800       6811       6810  
      6679       6680       6691       6690       6800       6801       6812       6811  
      6680       6681       6692       6691       6801       6802       6813       6812  
      6681       6682       6693       6692       6802       6803       6814       6813  
      6682       6683       6694       6693       6803       6804       6815       6814  
      6683       6684       6695       6694       6804       6805       6816       6815  
      6684       6685       6696       6695       6805       6806       6817       6816  
      6685       6686       6697       6696       6806       6807       6818       6817  
      6686       6687       6698       6697       6807       6808       6819       6818  
      6687       6688       6699       6698       6808       6809       6820       6819  
      6689       6690       6701       6700       6810       6811       6822       6821  
      6690       6691       6702       6701       6811       6812       6823       6822  
      6691       6692       6703       6702       6812       6813       6824       6823  
      6692       6693       6704       6703       6813       6814       6825       6824  
      6693       6694       6705       6704       6814       6815       6826       6825  
      6694       6695       6706       6705       6815       6816       6827       6826  
      6695       6696       6707       6706       6816       6817       6828       6827  
      6696       6697       6708       6707       6817       6818       6829       6828  
      6697       6698       6709       6708       6818       6819       6830       6829  
      6698       6699       6710       6709       6819       6820       6831       6830  
      6700       6701       6712       6711       6821       6822       6833       6832  
      6701       6702       6713       6712       6822       6823       6834       6833  
      6702       6703       6714       6713       6823       6824       6835       6834  
      6703       6704       6715       6714       6824       6825       6836       6835  
      6704       6705       6716       6715       6825       6826       6837       6836  
      6705       6706       6717       6716       6826       6827       6838       6837  
      6706       6707       6718       6717       6827       6828       6839       6838  
      6707       6708       6719       6718       6828       6829       6840       6839  
      6708       6709       6720       6719       6829       6830       6841       6840  
      6709       6710       6721       6720       6830       6831       6842       6841  
      6711       6712       6723       6722       6832       6833       6844       6843  
      6712       6713       6724       6723       6833       6834       6845       6844  
      6713       6714       6725       6724       6834       6835       6846       6845  
      6714       6715       6726       6725       6835       6836       6847       6846  
      6715       6716       6727       6726       6836       6837       6848       6847  
      6716       6717       6728       6727       6837       6838       6849       6848  
      6717       6718       6729       6728       6838       6839       6850       6849  
      6718       6719       6730       6729       6839       6840       6851       6850  
      6719       6720       6731       6730       6840       6841       6852       6851  
      6720       6721       6732       6731       6841       6842       6853       6852  
      6722       6723       6734       6733       6843       6844       6855       6854  
      6723       6724       6735       6734       6844       6845       6856       6855  
      6724       6725       6736       6735       6845       6846       6857       6856  
      6725       6726       6737       6736       6846       6847       6858       6857  
      6726       6727       6738       6737       6847       6848       6859       6858  
      6727       6728       6739       6738       6848       6849       6860       6859  
      6728       6729       6740       6739       6849       6850       6861       6860  
      6729       6730       6741       6740       6850       6851       6862       6861  
      6730       6731       6742       6741       6851       6852       6863       6862  
      6731       6732       6743       6742       6852       6853       6864       6863  
      6733       6734       6745       6744       6854       6855       6866       6865  
      6734       6735       6746       6745       6855       6856       6867       6866  
      6735       6736       6747       6746       6856       6857       6868       6867  
      6736       6737       6748       6747       6857       6858       6869       6868  
      6737       6738       6749       6748       6858       6859       6870       6869  
      6738       6739       6750       6749       6859       6860       6871       6870  
      6739       6740       6751       6750       6860       6861       6872       6871  
      6740       6741       6752       6751       6861       6862       6873       6872  
      6741       6742       6753       6752       6862       6863       6874       6873  
      6742       6743       6754       6753       6863       6864       6875       6874  
      6744       6745       6756       6755       6865       6866       6877       6876  
      6745       6746       6757       6756       6866       6867       6878       6877  
      6746       6747       6758       6757       6867       6868       6879       6878  
      6747       6748       6759       6758       6868       6869       6880       6879  
      6748       6749       6760       6759       6869       6870       6881       6880  
      6749       6750       6761       6760       6870       6871       6882       6881  
      6750       6751       6762       6761       6871       6872       6883       6882  
      6751       6752       6763       6762       6872       6873       6884       6883  
      6752       6753       6764       6763       6873       6874       6885       6884  
      6753       6754       6765       6764       6874       6875       6886       6885  
      6755       6756       6767       6766       6876       6877       6888       6887  
      6756       6757       6768       6767       6877       6878       6889       6888  
      6757       6758       6769       6768       6878       6879       6890       6889  
      6758       6759       6770       6769       6879       6880       6891       6890  
      6759       6760       6771       6770       6880       6881       6892       6891  
      6760       6761       6772       6771       6881       6882       6893       6892  
      6761       6762       6773       6772       6882       6883       6894       6893  
      6762       6763       6774       6773       6883       6884       6895       6894  
      6763       6764       6775       6774       6884       6885       6896       6895  
      6764       6765       6776       6775       6885       6886       6897       6896  
      6777       6778       6789       6788       6898       6899       6910       6909  
      6778       6779       6790       6789       6899       6900       6911       6910  
      6779       6780       6791       6790       6900       6901       6912       6911  
      6780       6781       6792       6791       6901       6902       6913       6912  
      6781       6782       6793       6792       6902       6903       6914       6913  
      6782       6783       6794       6793       6903       6904       6915       6914  
      6783       6784       6795       6794       6904       6905       6916       6915  
      6784       6785       6796       6795       6905       6906       6917       6916  
      6785       6786       6797       6796       6906       6907       6918       6917  
      6786       6787       6798       6797       6907       6908       6919       6918  
      6788       6789       6800       6799       6909       6910       6921       6920  
      6789       6790       6801       6800       6910       6911       6922       6921  
      6790       6791       6802       6801       6911       6912       6923       6922  
      6791       6792       6803       6802       6912       6913       6924       6923  
      6792       6793       6804       6803       6913       6914       6925       6924  
      6793       6794       6805       6804       6914       6915       6926       6925  
      6794       6795       6806       6805       6915       6916       6927       6926  
      6795       6796       6807       6806       6916       6917       6928       6927  
      6796       6797       6808       6807       6917       6918       6929       6928  
      6797       6798       6809       6808       6918       6919       6930       6929  
      6799       6800       6811       6810       6920       6921       6932       6931  
      6800       6801       6812       6811       6921       6922       6933       6932  
      6801       6802       6813       6812       6922       6923       6934       6933  
      6802       6803       6814       6813       6923       6924       6935       6934  
      6803       6804       6815       6814       6924       6925       6936       6935  
      6804       6805       6816       6815       6925       6926       6937       6936  
      6805       6806       6817       6816       6926       6927       6938       6937  
      6806       6807       6818       6817       6927       6928       6939       6938  
      6807       6808       6819       6818       6928       6929       6940       6939  
      6808       6809       6820       6819       6929       6930       6941       6940  
      6810       6811       6822       6821       6931       6932       6943       6942  
      6811       6812       6823       6822       6932       6933       6944       6943  
      6812       6813       6824       6823       6933       6934       6945       6944  
      6813       6814       6825       6824       6934       6935       6946       6945  
      6814       6815       6826       6825       6935       6936       6947       6946  
      6815       6816       6827       6826       6936       6937       6948       6947  
      6816       6817       6828       6827       6937       6938       6949       6948  
      6817       6818       6829       6828       6938       6939       6950       6949  
      6818       6819       6830       6829       6939       6940       6951       6950  
      6819       6820       6831       6830       6940       6941       6952       6951  
      6821       6822       6833       6832       6942       6943       6954       6953  
      6822       6823       6834       6833       6943       6944       6955       6954  
      6823       6824       6835       6834       6944       6945       6956       6955  
      6824       6825       6836       6835       6945       6946       6957       6956  
      6825       6826       6837       6836       6946       6947       6958       6957  
      6826       6827       6838       6837       6947       6948       6959       6958  
      6827       6828       6839       6838       6948       6949       6960       6959  
      6828       6829       6840       6839       6949       6950       6961       6960  
      6829       6830       6841       6840       6950       6951       6962       6961  
      6830       6831       6842       6841       6951       6952       6963       6962  
      6832       6833       6844       6843       6953       6954       6965       6964  
      6833       6834       6845       6844       6954       6955       6966       6965  
      6834       6835       6846       6845       6955       6956       6967       6966  
      6835       6836       6847       6846       6956       6957       6968       6967  
      6836       6837       6848       6847       6957       6958       6969       6968  
      6837       6838       6849       6848       6958       6959       6970       6969  
      6838       6839       6850       6849       6959       6960       6971       6970  
      6839       6840       6851       6850       6960       6961       6972       6971  
      6840       6841       6852       6851       6961       6962       6973       6972  
      6841       6842       6853       6852       6962       6963       6974       6973  
      6843       6844       6855       6854       6964       6965       6976       6975  
      6844       6845       6856       6855       6965       6966       6977       6976  
      6845       6846       6857       6856       6966       6967       6978       6977  
      6846       6847       6858       6857       6967       6968       6979       6978  
      6847       6848       6859       6858       6968       6969       6980       6979  
      6848       6849       6860       6859       6969       6970       6981       6980  
      6849       6850       6861       6860       6970       6971       6982       6981  
      6850       6851       6862       6861       6971       6972       6983       6982  
      6851       6852       6863       6862       6972       6973       6984       6983  
      6852       6853       6864       6863       6973       6974       6985       6984  
      6854       6855       6866       6865       6975       6976       6987       6986  
      6855       6856       6867       6866       6976       6977       6988       6987  
      6856       6857       6868       6867       6977       6978       6989       6988  
      6857       6858       6869       6868       6978       6979       6990       6989  
      6858       6859       6870       6869       6979       6980       6991       6990  
      6859       6860       6871       6870       6980       6981       6992       6991  
      6860       6861       6872       6871       6981       6982       6993       6992  
      6861       6862       6873       6872       6982       6983       6994       6993  
      6862       6863       6874       6873       6983       6984       6995       6994  
      6863       6864       6875       6874       6984       6985       6996       6995  
      6865       6866       6877       6876       6986       6987       6998       6997  
      6866       6867       6878       6877       6987       6988       6999       6998  
      6867       6868       6879       6878       6988       6989       7000       6999  
      6868       6869       6880       6879       6989       6990       7001       7000  
      6869       6870       6881       6880       6990       6991       7002       7001  
      6870       6871       6882       6881       6991       6992       7003       7002  
      6871       6872       6883       6882       6992       6993       7004       7003  
      6872       6873       6884       6883       6993       6994       7005       7004  
      6873       6874       6885       6884       6994       6995       7006       7005  
      6874       6875       6886       6885       6995       6996       7007       7006  
      6876       6877       6888       6887       6997       6998       7009       7008  
      6877       6878       6889       6888       6998       6999       7010       7009  
      6878       6879       6890       6889       6999       7000       7011       7010  
      6879       6880       6891       6890       7000       7001       7012       7011  
      6880       6881       6892       6891       7001       7002       7013       7012  
      6881       6882       6893       6892       7002       7003       7014       7013  
      6882       6883       6894       6893       7003       7004       7015       7014  
      6883       6884       6895       6894       7004       7005       7016       7015  
      6884       6885       6896       6895       7005       7006       7017       7016  
      6885       6886       6897       6896       7006       7007       7018       7017  
      6898       6899       6910       6909       7019       7020       7031       7030  
      6899       6900       6911       6910       7020       7021       7032       7031  
      6900       6901       6912       6911       7021       7022       7033       7032  
      6901       6902       6913       6912       7022       7023       7034       7033  
      6902       6903       6914       6913       7023       7024       7035       7034  
      6903       6904       6915       6914       7024       7025       7036       7035  
      6904       6905       6916       6915       7025       7026       7037       7036  
      6905       6906       6917       6916       7026       7027       7038       7037  
      6906       6907       6918       6917       7027       7028       7039       7038  
      6907       6908       6919       6918       7028       7029       7040       7039  
      6909       6910       6921       6920       7030       7031       7042       7041  
      6910       6911       6922       6921       7031       7032       7043       7042  
      6911       6912       6923       6922       7032       7033       7044       7043  
      6912       6913       6924       6923       7033       7034       7045       7044  
      6913       6914       6925       6924       7034       7035       7046       7045  
      6914       6915       6926       6925       7035       7036       7047       7046  
      6915       6916       6927       6926       7036       7037       7048       7047  
      6916       6917       6928       6927       7037       7038       7049       7048  
      6917       6918       6929       6928       7038       7039       7050       7049  
      6918       6919       6930       6929       7039       7040       7051       7050  
      6920       6921       6932       6931       7041       7042       7053       7052  
      6921       6922       6933       6932       7042       7043       7054       7053  
      6922       6923       6934       6933       7043       7044       7055       7054  
      6923       6924       6935       6934       7044       7045       7056       7055  
      6924       6925       6936       6935       7045       7046       7057       7056  
      6925       6926       6937       6936       7046       7047       7058       7057  
      6926       6927       6938       6937       7047       7048       7059       7058  
      6927       6928       6939       6938       7048       7049       7060       7059  
      6928       6929       6940       6939       7049       7050       7061       7060  
      6929       6930       6941       6940       7050       7051       7062       7061  
      6931       6932       6943       6942       7052       7053       7064       7063  
      6932       6933       6944       6943       7053       7054       7065       7064  
      6933       6934       6945       6944       7054       7055       7066       7065  
      6934       6935       6946       6945       7055       7056       7067       7066  
      6935       6936       6947       6946       7056       7057       7068       7067  
      6936       6937       6948       6947       7057       7058       7069       7068  
      6937       6938       6949       6948       7058       7059       7070       7069  
      6938       6939       6950       6949       7059       7060       7071       7070  
      6939       6940       6951       6950       7060       7061       7072       7071  
      6940       6941       6952       6951       7061       7062       7073       7072  
      6942       6943       6954       6953       7063       7064       7075       7074  
      6943       6944       6955       6954       7064       7065       7076       7075  
      6944       6945       6956       6955       7065       7066       7077       7076  
      6945       6946       6957       6956       7066       7067       7078       7077  
      6946       6947       6958       6957       7067       7068       7079       7078  
      6947       6948       6959       6958       7068       7069       7080       7079  
      6948       6949       6960       6959       7069       7070       7081       7080  
      6949       6950       6961       6960       7070       7071       7082       7081  
      6950       6951       6962       6961       7071       7072       7083       7082  
      6951       6952       6963       6962       7072       7073       7084       7083  
      6953       6954       6965       6964       7074       7075       7086       7085  
      6954       6955       6966       6965       7075       7076       7087       7086  
      6955       6956       6967       6966       7076       7077       7088       7087  
      6956       6957       6968       6967       7077       7078       7089       7088  
      6957       6958       6969       6968       7078       7079       7090       7089  
      6958       6959       6970       6969       7079       7080       7091       7090  
      6959       6960       6971       6970       7080       7081       7092       7091  
      6960       6961       6972       6971       7081       7082       7093       7092  
      6961       6962       6973       6972       7082       7083       7094       7093  
      6962       6963       6974       6973       7083       7084       7095       7094  
      6964       6965       6976       6975       7085       7086       7097       7096  
      6965       6966       6977       6976       7086       7087       7098       7097  
      6966       6967       6978       6977       7087       7088       7099       7098  
      6967       6968       6979       6978       7088       7089       7100       7099  
      6968       6969       6980       6979       7089       7090       7101       7100  
      6969       6970       6981       6980       7090       7091       7102       7101  
      6970       6971       6982       6981       7091       7092       7103       7102  
      6971       6972       6983       6982       7092       7093       7104       7103  
      6972       6973       6984       6983       7093       7094       7105       7104  
      6973       6974       6985       6984       7094       7095       7106       7105  
      6975       6976       6987       6986       7096       7097       7108       7107  
      6976       6977       6988       6987       7097       7098       7109       7108  
      6977       6978       6989       6988       7098       7099       7110       7109  
      6978       6979       6990       6989       7099       7100       7111       7110  
      6979       6980       6991       6990       7100       7101       7112       7111  
      6980       6981       6992       6991       7101       7102       7113       7112  
      6981       6982       6993       6992       7102       7103       7114       7113  
      6982       6983       6994       6993       7103       7104       7115       7114  
      6983       6984       6995       6994       7104       7105       7116       7115  
      6984       6985       6996       6995       7105       7106       7117       7116  
      6986       6987       6998       6997       7107       7108       7119       7118  
      6987       6988       6999       6998       7108       7109       7120       7119  
      6988       6989       7000       6999       7109       7110       7121       7120  
      6989       6990       7001       7000       7110       7111       7122       7121  
      6990       6991       7002       7001       7111       7112       7123       7122  
      6991       6992       7003       7002       7112       7113       7124       7123  
      6992       6993       7004       7003       7113       7114       7125       7124  
      6993       6994       7005       7004       7114       7115       7126       7125  
      6994       6995       7006       7005       7115       7116       7127       7126  
      6995       6996       7007       7006       7116       7117       7128       7127  
      6997       6998       7009       7008       7118       7119       7130       7129  
      6998       6999       7010       7009       7119       7120       7131       7130  
      6999       7000       7011       7010       7120       7121       7132       7131  
      7000       7001       7012       7011       7121       7122       7133       7132  
      7001       7002       7013       7012       7122       7123       7134       7133  
      7002       7003       7014       7013       7123       7124       7135       7134  
      7003       7004       7015       7014       7124       7125       7136       7135  
      7004       7005       7016       7015       7125       7126       7137       7136  
      7005       7006       7017       7016       7126       7127       7138       7137  
      7006       7007       7018       7017       7127       7128       7139       7138  
      7019       7020       7031       7030       7140       7141       7152       7151  
      7020       7021       7032       7031       7141       7142       7153       7152  
      7021       7022       7033       7032       7142       7143       7154       7153  
      7022       7023       7034       7033       7143       7144       7155       7154  
      7023       7024       7035       7034       7144       7145       7156       7155  
      7024       7025       7036       7035       7145       7146       7157       7156  
      7025       7026       7037       7036       7146       7147       7158       7157  
      7026       7027       7038       7037       7147       7148       7159       7158  
      7027       7028       7039       7038       7148       7149       7160       7159  
      7028       7029       7040       7039       7149       7150       7161       7160  
      7030       7031       7042       7041       7151       7152       7163       7162  
      7031       7032       7043       7042       7152       7153       7164       7163  
      7032       7033       7044       7043       7153       7154       7165       7164  
      7033       7034       7045       7044       7154       7155       7166       7165  
      7034       7035       7046       7045       7155       7156       7167       7166  
      7035       7036       7047       7046       7156       7157       7168       7167  
      7036       7037       7048       7047       7157       7158       7169       7168  
      7037       7038       7049       7048       7158       7159       7170       7169  
      7038       7039       7050       7049       7159       7160       7171       7170  
      7039       7040       7051       7050       7160       7161       7172       7171  
      7041       7042       7053       7052       7162       7163       7174       7173  
      7042       7043       7054       7053       7163       7164       7175       7174  
      7043       7044       7055       7054       7164       7165       7176       7175  
      7044       7045       7056       7055       7165       7166       7177       7176  
      7045       7046       7057       7056       7166       7167       7178       7177  
      7046       7047       7058       7057       7167       7168       7179       7178  
      7047       7048       7059       7058       7168       7169       7180       7179  
      7048       7049       7060       7059       7169       7170       7181       7180  
      7049       7050       7061       7060       7170       7171       7182       7181  
      7050       7051       7062       7061       7171       7172       7183       7182  
      7052       7053       7064       7063       7173       7174       7185       7184  
      7053       7054       7065       7064       7174       7175       7186       7185  
      7054       7055       7066       7065       7175       7176       7187       7186  
      7055       7056       7067       7066       7176       7177       7188       7187  
      7056       7057       7068       7067       7177       7178       7189       7188  
      7057       7058       7069       7068       7178       7179       7190       7189  
      7058       7059       7070       7069       7179       7180       7191       7190  
      7059       7060       7071       7070       7180       7181       7192       7191  
      7060       7061       7072       7071       7181       7182       7193       7192  
      7061       7062       7073       7072       7182       7183       7194       7193  
      7063       7064       7075       7074       7184       7185       7196       7195  
      7064       7065       7076       7075       7185       7186       7197       7196  
      7065       7066       7077       7076       7186       7187       7198       7197  
      7066       7067       7078       7077       7187       7188       7199       7198  
      7067       7068       7079       7078       7188       7189       7200       7199  
      7068       7069       7080       7079       7189       7190       7201       7200  
      7069       7070       7081       7080       7190       7191       7202       7201  
      7070       7071       7082       7081       7191       7192       7203       7202  
      7071       7072       7083       7082       7192       7193       7204       7203  
      7072       7073       7084       7083       7193       7194       7205       7204  
      7074       7075       7086       7085       7195       7196       7207       7206  
      7075       7076       7087       7086       7196       7197       7208       7207  
      7076       7077       7088       7087       7197       7198       7209       7208  
      7077       7078       7089       7088       7198       7199       7210       7209  
      7078       7079       7090       7089       7199       7200       7211       7210  
      7079       7080       7091       7090       7200       7201       7212       7211  
      7080       7081       7092       7091       7201       7202       7213       7212  
      7081       7082       7093       7092       7202       7203       7214       7213  
      7082       7083       7094       7093       7203       7204       7215       7214  
      7083       7084       7095       7094       7204       7205       7216       7215  
      7085       7086       7097       7096       7206       7207       7218       7217  
      7086       7087       7098       7097       7207       7208       7219       7218  
      7087       7088       7099       7098       7208       7209       7220       7219  
      7088       7089       7100       7099       7209       7210       7221       7220  
      7089       7090       7101       7100       7210       7211       7222       7221  
      7090       7091       7102       7101       7211       7212       7223       7222  
      7091       7092       7103       7102       7212       7213       7224       7223  
      7092       7093       7104       7103       7213       7214       7225       7224  
      7093       7094       7105       7104       7214       7215       7226       7225  
      7094       7095       7106       7105       7215       7216       7227       7226  
      7096       7097       7108       7107       7217       7218       7229       7228  
      7097       7098       7109       7108       7218       7219       7230       7229  
      7098       7099       7110       7109       7219       7220       7231       7230  
      7099       7100       7111       7110       7220       7221       7232       7231  
      7100       7101       7112       7111       7221       7222       7233       7232  
      7101       7102       7113       7112       7222       7223       7234       7233  
      7102       7103       7114       7113       7223       7224       7235       7234  
      7103       7104       7115       7114       7224       7225       7236       7235  
      7104       7105       7116       7115       7225       7226       7237       7236  
      7105       7106       7117       7116       7226       7227       7238       7237  
      7107       7108       7119       7118       7228       7229       7240       7239  
      7108       7109       7120       7119       7229       7230       7241       7240  
      7109       7110       7121       7120       7230       7231       7242       7241  
      7110       7111       7122       7121       7231       7232       7243       7242  
      7111       7112       7123       7122       7232       7233       7244       7243  
      7112       7113       7124       7123       7233       7234       7245       7244  
      7113       7114       7125       7124       7234       7235       7246       7245  
      7114       7115       7126       7125       7235       7236       7247       7246  
      7115       7116       7127       7126       7236       7237       7248       7247  
      7116       7117       7128       7127       7237       7238       7249       7248  
      7118       7119       7130       7129       7239       7240       7251       7250  
      7119       7120       7131       7130       7240       7241       7252       7251  
      7120       7121       7132       7131       7241       7242       7253       7252  
      7121       7122       7133       7132       7242       7243       7254       7253  
      7122       7123       7134       7133       7243       7244       7255       7254  
      7123       7124       7135       7134       7244       7245       7256       7255  
      7124       7125       7136       7135       7245       7246       7257       7256  
      7125       7126       7137       7136       7246       7247       7258       7257  
      7126       7127       7138       7137       7247       7248       7259       7258  
      7127       7128       7139       7138       7248       7249       7260       7259  
      7140       7141       7152       7151       7261       7262       7273       7272  
      7141       7142       7153       7152       7262       7263       7274       7273  
      7142       7143       7154       7153       7263       7264       7275       7274  
      7143       7144       7155       7154       7264       7265       7276       7275  
      7144       7145       7156       7155       7265       7266       7277       7276  
      7145       7146       7157       7156       7266       7267       7278       7277  
      7146       7147       7158       7157       7267       7268       7279       7278  
      7147       7148       7159       7158       7268       7269       7280       7279  
      7148       7149       7160       7159       7269       7270       7281       7280  
      7149       7150       7161       7160       7270       7271       7282       7281  
      7151       7152       7163       7162       7272       7273       7284       7283  
      7152       7153       7164       7163       7273       7274       7285       7284  
      7153       7154       7165       7164       7274       7275       7286       7285  
      7154       7155       7166       7165       7275       7276       7287       7286  
      7155       7156       7167       7166       7276       7277       7288       7287  
      7156       7157       7168       7167       7277       7278       7289       7288  
      7157       7158       7169       7168       7278       7279       7290       7289  
      7158       7159       7170       7169       7279       7280       7291       7290  
      7159       7160       7171       7170       7280       7281       7292       7291  
      7160       7161       7172       7171       7281       7282       7293       7292  
      7162       7163       7174       7173       7283       7284       7295       7294  
      7163       7164       7175       7174       7284       7285       7296       7295  
      7164       7165       7176       7175       7285       7286       7297       7296  
      7165       7166       7177       7176       7286       7287       7298       7297  
      7166       7167       7178       7177       7287       7288       7299       7298  
      7167       7168       7179       7178       7288       7289       7300       7299  
      7168       7169       7180       7179       7289       7290       7301       7300  
      7169       7170       7181       7180       7290       7291       7302       7301  
      7170       7171       7182       7181       7291       7292       7303       7302  
      7171       7172       7183       7182       7292       7293       7304       7303  
      7173       7174       7185       7184       7294       7295       7306       7305  
      7174       7175       7186       7185       7295       7296       7307       7306  
      7175       7176       7187       7186       7296       7297       7308       7307  
      7176       7177       7188       7187       7297       7298       7309       7308  
      7177       7178       7189       7188       7298       7299       7310       7309  
      7178       7179       7190       7189       7299       7300       7311       7310  
      7179       7180       7191       7190       7300       7301       7312       7311  
      7180       7181       7192       7191       7301       7302       7313       7312  
      7181       7182       7193       7192       7302       7303       7314       7313  
      7182       7183       7194       7193       7303       7304       7315       7314  
      7184       7185       7196       7195       7305       7306       7317       7316  
      7185       7186       7197       7196       7306       7307       7318       7317  
      7186       7187       7198       7197       7307       7308       7319       7318  
      7187       7188       7199       7198       7308       7309       7320       7319  
      7188       7189       7200       7199       7309       7310       7321       7320  
      7189       7190       7201       7200       7310       7311       7322       7321  
      7190       7191       7202       7201       7311       7312       7323       7322  
      7191       7192       7203       7202       7312       7313       7324       7323  
      7192       7193       7204       7203       7313       7314       7325       7324  
      7193       7194       7205       7204       7314       7315       7326       7325  
      7195       7196       7207       7206       7316       7317       7328       7327  
      7196       7197       7208       7207       7317       7318       7329       7328  
      7197       7198       7209       7208       7318       7319       7330       7329  
      7198       7199       7210       7209       7319       7320       7331       7330  
      7199       7200       7211       7210       7320       7321       7332       7331  
      7200       7201       7212       7211       7321       7322       7333       7332  
      7201       7202       7213       7212       7322       7323       7334       7333  
      7202       7203       7214       7213       7323       7324       7335       7334  
      7203       7204       7215       7214       7324       7325       7336       7335  
      7204       7205       7216       7215       7325       7326       7337       7336  
      7206       7207       7218       7217       7327       7328       7339       7338  
      7207       7208       7219       7218       7328       7329       7340       7339  
      7208       7209       7220       7219       7329       7330       7341       7340  
      7209       7210       7221       7220       7330       7331       7342       7341  
      7210       7211       7222       7221       7331       7332       7343       7342  
      7211       7212       7223       7222       7332       7333       7344       7343  
      7212       7213       7224       7223       7333       7334       7345       7344  
      7213       7214       7225       7224       7334       7335       7346       7345  
      7214       7215       7226       7225       7335       7336       7347       7346  
      7215       7216       7227       7226       7336       7337       7348       7347  
      7217       7218       7229       7228       7338       7339       7350       7349  
      7218       7219       7230       7229       7339       7340       7351       7350  
      7219       7220       7231       7230       7340       7341       7352       7351  
      7220       7221       7232       7231       7341       7342       7353       7352  
      7221       7222       7233       7232       7342       7343       7354       7353  
      7222       7223       7234       7233       7343       7344       7355       7354  
      7223       7224       7235       7234       7344       7345       7356       7355  
      7224       7225       7236       7235       7345       7346       7357       7356  
      7225       7226       7237       7236       7346       7347       7358       7357  
      7226       7227       7238       7237       7347       7348       7359       7358  
      7228       7229       7240       7239       7349       7350       7361       7360  
      7229       7230       7241       7240       7350       7351       7362       7361  
      7230       7231       7242       7241       7351       7352       7363       7362  
      7231       7232       7243       7242       7352       7353       7364       7363  
      7232       7233       7244       7243       7353       7354       7365       7364  
      7233       7234       7245       7244       7354       7355       7366       7365  
      7234       7235       7246       7245       7355       7356       7367       7366  
      7235       7236       7247       7246       7356       7357       7368       7367  
      7236       7237       7248       7247       7357       7358       7369       7368  
      7237       7238       7249       7248       7358       7359       7370       7369  
      7239       7240       7251       7250       7360       7361       7372       7371  
      7240       7241       7252       7251       7361       7362       7373       7372  
      7241       7242       7253       7252       7362       7363       7374       7373  
      7242       7243       7254       7253       7363       7364       7375       7374  
      7243       7244       7255       7254       7364       7365       7376       7375  
      7244       7245       7256       7255       7365       7366       7377       7376  
      7245       7246       7257       7256       7366       7367       7378       7377  
      7246       7247       7258       7257       7367       7368       7379       7378  
      7247       7248       7259       7258       7368       7369       7380       7379  
      7248       7249       7260       7259       7369       7370       7381       7380  
      7261       7262       7273       7272       7382       7383       7394       7393  
      7262       7263       7274       7273       7383       7384       7395       7394  
      7263       7264       7275       7274       7384       7385       7396       7395  
      7264       7265       7276       7275       7385       7386       7397       7396  
      7265       7266       7277       7276       7386       7387       7398       7397  
      7266       7267       7278       7277       7387       7388       7399       7398  
      7267       7268       7279       7278       7388       7389       7400       7399  
      7268       7269       7280       7279       7389       7390       7401       7400  
      7269       7270       7281       7280       7390       7391       7402       7401  
      7270       7271       7282       7281       7391       7392       7403       7402  
      7272       7273       7284       7283       7393       7394       7405       7404  
      7273       7274       7285       7284       7394       7395       7406       7405  
      7274       7275       7286       7285       7395       7396       7407       7406  
      7275       7276       7287       7286       7396       7397       7408       7407  
      7276       7277       7288       7287       7397       7398       7409       7408  
      7277       7278       7289       7288       7398       7399       7410       7409  
      7278       7279       7290       7289       7399       7400       7411       7410  
      7279       7280       7291       7290       7400       7401       7412       7411  
      7280       7281       7292       7291       7401       7402       7413       7412  
      7281       7282       7293       7292       7402       7403       7414       7413  
      7283       7284       7295       7294       7404       7405       7416       7415  
      7284       7285       7296       7295       7405       7406       7417       7416  
      7285       7286       7297       7296       7406       7407       7418       7417  
      7286       7287       7298       7297       7407       7408       7419       7418  
      7287       7288       7299       7298       7408       7409       7420       7419  
      7288       7289       7300       7299       7409       7410       7421       7420  
      7289       7290       7301       7300       7410       7411       7422       7421  
      7290       7291       7302       7301       7411       7412       7423       7422  
      7291       7292       7303       7302       7412       7413       7424       7423  
      7292       7293       7304       7303       7413       7414       7425       7424  
      7294       7295       7306       7305       7415       7416       7427       7426  
      7295       7296       7307       7306       7416       7417       7428       7427  
      7296       7297       7308       7307       7417       7418       7429       7428  
      7297       7298       7309       7308       7418       7419       7430       7429  
      7298       7299       7310       7309       7419       7420       7431       7430  
      7299       7300       7311       7310       7420       7421       7432       7431  
      7300       7301       7312       7311       7421       7422       7433       7432  
      7301       7302       7313       7312       7422       7423       7434       7433  
      7302       7303       7314       7313       7423       7424       7435       7434  
      7303       7304       7315       7314       7424       7425       7436       7435  
      7305       7306       7317       7316       7426       7427       7438       7437  
      7306       7307       7318       7317       7427       7428       7439       7438  
      7307       7308       7319       7318       7428       7429       7440       7439  
      7308       7309       7320       7319       7429       7430       7441       7440  
      7309       7310       7321       7320       7430       7431       7442       7441  
      7310       7311       7322       7321       7431       7432       7443       7442  
      7311       7312       7323       7322       7432       7433       7444       7443  
      7312       7313       7324       7323       7433       7434       7445       7444  
      7313       7314       7325       7324       7434       7435       7446       7445  
      7314       7315       7326       7325       7435       7436       7447       7446  
      7316       7317       7328       7327       7437       7438       7449       7448  
      7317       7318       7329       7328       7438       7439       7450       7449  
      7318       7319       7330       7329       7439       7440       7451       7450  
      7319       7320       7331       7330       7440       7441       7452       7451  
      7320       7321       7332       7331       7441       7442       7453       7452  
      7321       7322       7333       7332       7442       7443       7454       7453  
      7322       7323       7334       7333       7443       7444       7455       7454  
      7323       7324       7335       7334       7444       7445       7456       7455  
      7324       7325       7336       7335       7445       7446       7457       7456  
      7325       7326       7337       7336       7446       7447       7458       7457  
      7327       7328       7339       7338       7448       7449       7460       7459  
      7328       7329       7340       7339       7449       7450       7461       7460  
      7329       7330       7341       7340       7450       7451       7462       7461  
      7330       7331       7342       7341       7451       7452       7463       7462  
      7331       7332       7343       7342       7452       7453       7464       7463  
      7332       7333       7344       7343       7453       7454       7465       7464  
      7333       7334       7345       7344       7454       7455       7466       7465  
      7334       7335       7346       7345       7455       7456       7467       7466  
      7335       7336       7347       7346       7456       7457       7468       7467  
      7336       7337       7348       7347       7457       7458       7469       7468  
      7338       7339       7350       7349       7459       7460       7471       7470  
      7339       7340       7351       7350       7460       7461       7472       7471  
      7340       7341       7352       7351       7461       7462       7473       7472  
      7341       7342       7353       7352       7462       7463       7474       7473  
      7342       7343       7354       7353       7463       7464       7475       7474  
      7343       7344       7355       7354       7464       7465       7476       7475  
      7344       7345       7356       7355       7465       7466       7477       7476  
      7345       7346       7357       7356       7466       7467       7478       7477  
      7346       7347       7358       7357       7467       7468       7479       7478  
      7347       7348       7359       7358       7468       7469       7480       7479  
      7349       7350       7361       7360       7470       7471       7482       7481  
      7350       7351       7362       7361       7471       7472       7483       7482  
      7351       7352       7363       7362       7472       7473       7484       7483  
      7352       7353       7364       7363       7473       7474       7485       7484  
      7353       7354       7365       7364       7474       7475       7486       7485  
      7354       7355       7366       7365       7475       7476       7487       7486  
      7355       7356       7367       7366       7476       7477       7488       7487  
      7356       7357       7368       7367       7477       7478       7489       7488  
      7357       7358       7369       7368       7478       7479       7490       7489  
      7358       7359       7370       7369       7479       7480       7491       7490  
      7360       7361       7372       7371       7481       7482       7493       7492  
      7361       7362       7373       7372       7482       7483       7494       7493  
      7362       7363       7374       7373       7483       7484       7495       7494  
      7363       7364       7375       7374       7484       7485       7496       7495  
      7364       7365       7376       7375       7485       7486       7497       7496  
      7365       7366       7377       7376       7486       7487       7498       7497  
      7366       7367       7378       7377       7487       7488       7499       7498  
      7367       7368       7379       7378       7488       7489       7500       7499  
      7368       7369       7380       7379       7489       7490       7501       7500  
      7369       7370       7381       7380       7490       7491       7502       7501  
      7382       7383       7394       7393       7503       7504       7515       7514  
      7383       7384       7395       7394       7504       7505       7516       7515  
      7384       7385       7396       7395       7505       7506       7517       7516  
      7385       7386       7397       7396       7506       7507       7518       7517  
      7386       7387       7398       7397       7507       7508       7519       7518  
      7387       7388       7399       7398       7508       7509       7520       7519  
      7388       7389       7400       7399       7509       7510       7521       7520  
      7389       7390       7401       7400       7510       7511       7522       7521  
      7390       7391       7402       7401       7511       7512       7523       7522  
      7391       7392       7403       7402       7512       7513       7524       7523  
      7393       7394       7405       7404       7514       7515       7526       7525  
      7394       7395       7406       7405       7515       7516       7527       7526  
      7395       7396       7407       7406       7516       7517       7528       7527  
      7396       7397       7408       7407       7517       7518       7529       7528  
      7397       7398       7409       7408       7518       7519       7530       7529  
      7398       7399       7410       7409       7519       7520       7531       7530  
      7399       7400       7411       7410       7520       7521       7532       7531  
      7400       7401       7412       7411       7521       7522       7533       7532  
      7401       7402       7413       7412       7522       7523       7534       7533  
      7402       7403       7414       7413       7523       7524       7535       7534  
      7404       7405       7416       7415       7525       7526       7537       7536  
      7405       7406       7417       7416       7526       7527       7538       7537  
      7406       7407       7418       7417       7527       7528       7539       7538  
      7407       7408       7419       7418       7528       7529       7540       7539  
      7408       7409       7420       7419       7529       7530       7541       7540  
      7409       7410       7421       7420       7530       7531       7542       7541  
      7410       7411       7422       7421       7531       7532       7543       7542  
      7411       7412       7423       7422       7532       7533       7544       7543  
      7412       7413       7424       7423       7533       7534       7545       7544  
      7413       7414       7425       7424       7534       7535       7546       7545  
      7415       7416       7427       7426       7536       7537       7548       7547  
      7416       7417       7428       7427       7537       7538       7549       7548  
      7417       7418       7429       7428       7538       7539       7550       7549  
      7418       7419       7430       7429       7539       7540       7551       7550  
      7419       7420       7431       7430       7540       7541       7552       7551  
      7420       7421       7432       7431       7541       7542       7553       7552  
      7421       7422       7433       7432       7542       7543       7554       7553  
      7422       7423       7434       7433       7543       7544       7555       7554  
      7423       7424       7435       7434       7544       7545       7556       7555  
      7424       7425       7436       7435       7545       7546       7557       7556  
      7426       7427       7438       7437       7547       7548       7559       7558  
      7427       7428       7439       7438       7548       7549       7560       7559  
      7428       7429       7440       7439       7549       7550       7561       7560  
      7429       7430       7441       7440       7550       7551       7562       7561  
      7430       7431       7442       7441       7551       7552       7563       7562  
      7431       7432       7443       7442       7552       7553       7564       7563  
      7432       7433       7444       7443       7553       7554       7565       7564  
      7433       7434       7445       7444       7554       7555       7566       7565  
      7434       7435       7446       7445       7555       7556       7567       7566  
      7435       7436       7447       7446       7556       7557       7568       7567  
      7437       7438       7449       7448       7558       7559       7570       7569  
      7438       7439       7450       7449       7559       7560       7571       7570  
      7439       7440       7451       7450       7560       7561       7572       7571  
      7440       7441       7452       7451       7561       7562       7573       7572  
      7441       7442       7453       7452       7562       7563       7574       7573  
      7442       7443       7454       7453       7563       7564       7575       7574  
      7443       7444       7455       7454       7564       7565       7576       7575  
      7444       7445       7456       7455       7565       7566       7577       7576  
      7445       7446       7457       7456       7566       7567       7578       7577  
      7446       7447       7458       7457       7567       7568       7579       7578  
      7448       7449       7460       7459       7569       7570       7581       7580  
      7449       7450       7461       7460       7570       7571       7582       7581  
      7450       7451       7462       7461       7571       7572       7583       7582  
      7451       7452       7463       7462       7572       7573       7584       7583  
      7452       7453       7464       7463       7573       7574       7585       7584  
      7453       7454       7465       7464       7574       7575       7586       7585  
      7454       7455       7466       7465       7575       7576       7587       7586  
      7455       7456       7467       7466       7576       7577       7588       7587  
      7456       7457       7468       7467       7577       7578       7589       7588  
      7457       7458       7469       7468       7578       7579       7590       7589  
      7459       7460       7471       7470       7580       7581       7592       7591  
      7460       7461       7472       7471       7581       7582       7593       7592  
      7461       7462       7473       7472       7582       7583       7594       7593  
      7462       7463       7474       7473       7583       7584       7595       7594  
      7463       7464       7475       7474       7584       7585       7596       7595  
      7464       7465       7476       7475       7585       7586       7597       7596  
      7465       7466       7477       7476       7586       7587       7598       7597  
      7466       7467       7478       7477       7587       7588       7599       7598  
      7467       7468       7479       7478       7588       7589       7600       7599  
      7468       7469       7480       7479       7589       7590       7601       7600  
      7470       7471       7482       7481       7591       7592       7603       7602  
      7471       7472       7483       7482       7592       7593       7604       7603  
      7472       7473       7484       7483       7593       7594       7605       7604  
      7473       7474       7485       7484       7594       7595       7606       7605  
      7474       7475       7486       7485       7595       7596       7607       7606  
      7475       7476       7487       7486       7596       7597       7608       7607  
      7476       7477       7488       7487       7597       7598       7609       7608  
      7477       7478       7489       7488       7598       7599       7610       7609  
      7478       7479       7490       7489       7599       7600       7611       7610  
      7479       7480       7491       7490       7600       7601       7612       7611  
      7481       7482       7493       7492       7602       7603       7614       7613  
      7482       7483       7494       7493       7603       7604       7615       7614  
      7483       7484       7495       7494       7604       7605       7616       7615  
      7484       7485       7496       7495       7605       7606       7617       7616  
      7485       7486       7497       7496       7606       7607       7618       7617  
      7486       7487       7498       7497       7607       7608       7619       7618  
      7487       7488       7499       7498       7608       7609       7620       7619  
      7488       7489       7500       7499       7609       7610       7621       7620  
      7489       7490       7501       7500       7610       7611       7622       7621  
      7490       7491       7502       7501       7611       7612       7623       7622  
      7503       7504       7515       7514       7624       7625       7636       7635  
      7504       7505       7516       7515       7625       7626       7637       7636  
      7505       7506       7517       7516       7626       7627       7638       7637  
      7506       7507       7518       7517       7627       7628       7639       7638  
      7507       7508       7519       7518       7628       7629       7640       7639  
      7508       7509       7520       7519       7629       7630       7641       7640  
      7509       7510       7521       7520       7630       7631       7642       7641  
      7510       7511       7522       7521       7631       7632       7643       7642  
      7511       7512       7523       7522       7632       7633       7644       7643  
      7512       7513       7524       7523       7633       7634       7645       7644  
      7514       7515       7526       7525       7635       7636       7647       7646  
      7515       7516       7527       7526       7636       7637       7648       7647  
      7516       7517       7528       7527       7637       7638       7649       7648  
      7517       7518       7529       7528       7638       7639       7650       7649  
      7518       7519       7530       7529       7639       7640       7651       7650  
      7519       7520       7531       7530       7640       7641       7652       7651  
      7520       7521       7532       7531       7641       7642       7653       7652  
      7521       7522       7533       7532       7642       7643       7654       7653  
      7522       7523       7534       7533       7643       7644       7655       7654  
      7523       7524       7535       7534       7644       7645       7656       7655  
      7525       7526       7537       7536       7646       7647       7658       7657  
      7526       7527       7538       7537       7647       7648       7659       7658  
      7527       7528       7539       7538       7648       7649       7660       7659  
      7528       7529       7540       7539       7649       7650       7661       7660  
      7529       7530       7541       7540       7650       7651       7662       7661  
      7530       7531       7542       7541       7651       7652       7663       7662  
      7531       7532       7543       7542       7652       7653       7664       7663  
      7532       7533       7544       7543       7653       7654       7665       7664  
      7533       7534       7545       7544       7654       7655       7666       7665  
      7534       7535       7546       7545       7655       7656       7667       7666  
      7536       7537       7548       7547       7657       7658       7669       7668  
      7537       7538       7549       7548       7658       7659       7670       7669  
      7538       7539       7550       7549       7659       7660       7671       7670  
      7539       7540       7551       7550       7660       7661       7672       7671  
      7540       7541       7552       7551       7661       7662       7673       7672  
      7541       7542       7553       7552       7662       7663       7674       7673  
      7542       7543       7554       7553       7663       7664       7675       7674  
      7543       7544       7555       7554       7664       7665       7676       7675  
      7544       7545       7556       7555       7665       7666       7677       7676  
      7545       7546       7557       7556       7666       7667       7678       7677  
      7547       7548       7559       7558       7668       7669       7680       7679  
      7548       7549       7560       7559       7669       7670       7681       7680  
      7549       7550       7561       7560       7670       7671       7682       7681  
      7550       7551       7562       7561       7671       7672       7683       7682  
      7551       7552       7563       7562       7672       7673       7684       7683  
      7552       7553       7564       7563       7673       7674       7685       7684  
      7553       7554       7565       7564       7674       7675       7686       7685  
      7554       7555       7566       7565       7675       7676       7687       7686  
      7555       7556       7567       7566       7676       7677       7688       7687  
      7556       7557       7568       7567       7677       7678       7689       7688  
      7558       7559       7570       7569       7679       7680       7691       7690  
      7559       7560       7571       7570       7680       7681       7692       7691  
      7560       7561       7572       7571       7681       7682       7693       7692  
      7561       7562       7573       7572       7682       7683       7694       7693  
      7562       7563       7574       7573       7683       7684       7695       7694  
      7563       7564       7575       7574       7684       7685       7696       7695  
      7564       7565       7576       7575       7685       7686       7697       7696  
      7565       7566       7577       7576       7686       7687       7698       7697  
      7566       7567       7578       7577       7687       7688       7699       7698  
      7567       7568       7579       7578       7688       7689       7700       7699  
      7569       7570       7581       7580       7690       7691       7702       7701  
      7570       7571       7582       7581       7691       7692       7703       7702  
      7571       7572       7583       7582       7692       7693       7704       7703  
      7572       7573       7584       7583       7693       7694       7705       7704  
      7573       7574       7585       7584       7694       7695       7706       7705  
      7574       7575       7586       7585       7695       7696       7707       7706  
      7575       7576       7587       7586       7696       7697       7708       7707  
      7576       7577       7588       7587       7697       7698       7709       7708  
      7577       7578       7589       7588       7698       7699       7710       7709  
      7578       7579       7590       7589       7699       7700       7711       7710  
      7580       7581       7592       7591       7701       7702       7713       7712  
      7581       7582       7593       7592       7702       7703       7714       7713  
      7582       7583       7594       7593       7703       7704       7715       7714  
      7583       7584       7595       7594       7704       7705       7716       7715  
      7584       7585       7596       7595       7705       7706       7717       7716  
      7585       7586       7597       7596       7706       7707       7718       7717  
      7586       7587       7598       7597       7707       7708       7719       7718  
      7587       7588       7599       7598       7708       7709       7720       7719  
      7588       7589       7600       7599       7709       7710       7721       7720  
      7589       7590       7601       7600       7710       7711       7722       7721  
      7591       7592       7603       7602       7712       7713       7724       7723  
      7592       7593       7604       7603       7713       7714       7725       7724  
      7593       7594       7605       7604       7714       7715       7726       7725  
      7594       7595       7606       7605       7715       7716       7727       7726  
      7595       7596       7607       7606       7716       7717       7728       7727  
      7596       7597       7608       7607       7717       7718       7729       7728  
      7597       7598       7609       7608       7718       7719       7730       7729  
      7598       7599       7610       7609       7719       7720       7731       7730  
      7599       7600       7611       7610       7720       7721       7732       7731  
      7600       7601       7612       7611       7721       7722       7733       7732  
      7602       7603       7614       7613       7723       7724       7735       7734  
      7603       7604       7615       7614       7724       7725       7736       7735  
      7604       7605       7616       7615       7725       7726       7737       7736  
      7605       7606       7617       7616       7726       7727       7738       7737  
      7606       7607       7618       7617       7727       7728       7739       7738  
      7607       7608       7619       7618       7728       7729       7740       7739  
      7608       7609       7620       7619       7729       7730       7741       7740  
      7609       7610       7621       7620       7730       7731       7742       7741  
      7610       7611       7622       7621       7731       7732       7743       7742  
      7611       7612       7623       7622       7732       7733       7744       7743  
      7624       7625       7636       7635       7745       7746       7757       7756  
      7625       7626       7637       7636       7746       7747       7758       7757  
      7626       7627       7638       7637       7747       7748       7759       7758  
      7627       7628       7639       7638       7748       7749       7760       7759  
      7628       7629       7640       7639       7749       7750       7761       7760  
      7629       7630       7641       7640       7750       7751       7762       7761  
      7630       7631       7642       7641       7751       7752       7763       7762  
      7631       7632       7643       7642       7752       7753       7764       7763  
      7632       7633       7644       7643       7753       7754       7765       7764  
      7633       7634       7645       7644       7754       7755       7766       7765  
      7635       7636       7647       7646       7756       7757       7768       7767  
      7636       7637       7648       7647       7757       7758       7769       7768  
      7637       7638       7649       7648       7758       7759       7770       7769  
      7638       7639       7650       7649       7759       7760       7771       7770  
      7639       7640       7651       7650       7760       7761       7772       7771  
      7640       7641       7652       7651       7761       7762       7773       7772  
      7641       7642       7653       7652       7762       7763       7774       7773  
      7642       7643       7654       7653       7763       7764       7775       7774  
      7643       7644       7655       7654       7764       7765       7776       7775  
      7644       7645       7656       7655       7765       7766       7777       7776  
      7646       7647       7658       7657       7767       7768       7779       7778  
      7647       7648       7659       7658       7768       7769       7780       7779  
      7648       7649       7660       7659       7769       7770       7781       7780  
      7649       7650       7661       7660       7770       7771       7782       7781  
      7650       7651       7662       7661       7771       7772       7783       7782  
      7651       7652       7663       7662       7772       7773       7784       7783  
      7652       7653       7664       7663       7773       7774       7785       7784  
      7653       7654       7665       7664       7774       7775       7786       7785  
      7654       7655       7666       7665       7775       7776       7787       7786  
      7655       7656       7667       7666       7776       7777       7788       7787  
      7657       7658       7669       7668       7778       7779       7790       7789  
      7658       7659       7670       7669       7779       7780       7791       7790  
      7659       7660       7671       7670       7780       7781       7792       7791  
      7660       7661       7672       7671       7781       7782       7793       7792  
      7661       7662       7673       7672       7782       7783       7794       7793  
      7662       7663       7674       7673       7783       7784       7795       7794  
      7663       7664       7675       7674       7784       7785       7796       7795  
      7664       7665       7676       7675       7785       7786       7797       7796  
      7665       7666       7677       7676       7786       7787       7798       7797  
      7666       7667       7678       7677       7787       7788       7799       7798  
      7668       7669       7680       7679       7789       7790       7801       7800  
      7669       7670       7681       7680       7790       7791       7802       7801  
      7670       7671       7682       7681       7791       7792       7803       7802  
      7671       7672       7683       7682       7792       7793       7804       7803  
      7672       7673       7684       7683       7793       7794       7805       7804  
      7673       7674       7685       7684       7794       7795       7806       7805  
      7674       7675       7686       7685       7795       7796       7807       7806  
      7675       7676       7687       7686       7796       7797       7808       7807  
      7676       7677       7688       7687       7797       7798       7809       7808  
      7677       7678       7689       7688       7798       7799       7810       7809  
      7679       7680       7691       7690       7800       7801       7812       7811  
      7680       7681       7692       7691       7801       7802       7813       7812  
      7681       7682       7693       7692       7802       7803       7814       7813  
      7682       7683       7694       7693       7803       7804       7815       7814  
      7683       7684       7695       7694       7804       7805       7816       7815  
      7684       7685       7696       7695       7805       7806       7817       7816  
      7685       7686       7697       7696       7806       7807       7818       7817  
      7686       7687       7698       7697       7807       7808       7819       7818  
      7687       7688       7699       7698       7808       7809       7820       7819  
      7688       7689       7700       7699       7809       7810       7821       7820  
      7690       7691       7702       7701       7811       7812       7823       7822  
      7691       7692       7703       7702       7812       7813       7824       7823  
      7692       7693       7704       7703       7813       7814       7825       7824  
      7693       7694       7705       7704       7814       7815       7826       7825  
      7694       7695       7706       7705       7815       7816       7827       7826  
      7695       7696       7707       7706       7816       7817       7828       7827  
      7696       7697       7708       7707       7817       7818       7829       7828  
      7697       7698       7709       7708       7818       7819       7830       7829  
      7698       7699       7710       7709       7819       7820       7831       7830  
      7699       7700       7711       7710       7820       7821       7832       7831  
      7701       7702       7713       7712       7822       7823       7834       7833  
      7702       7703       7714       7713       7823       7824       7835       7834  
      7703       7704       7715       7714       7824       7825       7836       7835  
      7704       7705       7716       7715       7825       7826       7837       7836  
      7705       7706       7717       7716       7826       7827       7838       7837  
      7706       7707       7718       7717       7827       7828       7839       7838  
      7707       7708       7719       7718       7828       7829       7840       7839  
      7708       7709       7720       7719       7829       7830       7841       7840  
      7709       7710       7721       7720       7830       7831       7842       7841  
      7710       7711       7722       7721       7831       7832       7843       7842  
      7712       7713       7724       7723       7833       7834       7845       7844  
      7713       7714       7725       7724       7834       7835       7846       7845  
      7714       7715       7726       7725       7835       7836       7847       7846  
      7715       7716       7727       7726       7836       7837       7848       7847  
      7716       7717       7728       7727       7837       7838       7849       7848  
      7717       7718       7729       7728       7838       7839       7850       7849  
      7718       7719       7730       7729       7839       7840       7851       7850  
      7719       7720       7731       7730       7840       7841       7852       7851  
      7720       7721       7732       7731       7841       7842       7853       7852  
      7721       7722       7733       7732       7842       7843       7854       7853  
      7723       7724       7735       7734       7844       7845       7856       7855  
      7724       7725       7736       7735       7845       7846       7857       7856  
      7725       7726       7737       7736       7846       7847       7858       7857  
      7726       7727       7738       7737       7847       7848       7859       7858  
      7727       7728       7739       7738       7848       7849       7860       7859  
      7728       7729       7740       7739       7849       7850       7861       7860  
      7729       7730       7741       7740       7850       7851       7862       7861  
      7730       7731       7742       7741       7851       7852       7863       7862  
      7731       7732       7743       7742       7852       7853       7864       7863  
      7732       7733       7744       7743       7853       7854       7865       7864  
      7745       7746       7757       7756       7866       7867       7878       7877  
      7746       7747       7758       7757       7867       7868       7879       7878  
      7747       7748       7759       7758       7868       7869       7880       7879  
      7748       7749       7760       7759       7869       7870       7881       7880  
      7749       7750       7761       7760       7870       7871       7882       7881  
      7750       7751       7762       7761       7871       7872       7883       7882  
      7751       7752       7763       7762       7872       7873       7884       7883  
      7752       7753       7764       7763       7873       7874       7885       7884  
      7753       7754       7765       7764       7874       7875       7886       7885  
      7754       7755       7766       7765       7875       7876       7887       7886  
      7756       7757       7768       7767       7877       7878       7889       7888  
      7757       7758       7769       7768       7878       7879       7890       7889  
      7758       7759       7770       7769       7879       7880       7891       7890  
      7759       7760       7771       7770       7880       7881       7892       7891  
      7760       7761       7772       7771       7881       7882       7893       7892  
      7761       7762       7773       7772       7882       7883       7894       7893  
      7762       7763       7774       7773       7883       7884       7895       7894  
      7763       7764       7775       7774       7884       7885       7896       7895  
      7764       7765       7776       7775       7885       7886       7897       7896  
      7765       7766       7777       7776       7886       7887       7898       7897  
      7767       7768       7779       7778       7888       7889       7900       7899  
      7768       7769       7780       7779       7889       7890       7901       7900  
      7769       7770       7781       7780       7890       7891       7902       7901  
      7770       7771       7782       7781       7891       7892       7903       7902  
      7771       7772       7783       7782       7892       7893       7904       7903  
      7772       7773       7784       7783       7893       7894       7905       7904  
      7773       7774       7785       7784       7894       7895       7906       7905  
      7774       7775       7786       7785       7895       7896       7907       7906  
      7775       7776       7787       7786       7896       7897       7908       7907  
      7776       7777       7788       7787       7897       7898       7909       7908  
      7778       7779       7790       7789       7899       7900       7911       7910  
      7779       7780       7791       7790       7900       7901       7912       7911  
      7780       7781       7792       7791       7901       7902       7913       7912  
      7781       7782       7793       7792       7902       7903       7914       7913  
      7782       7783       7794       7793       7903       7904       7915       7914  
      7783       7784       7795       7794       7904       7905       7916       7915  
      7784       7785       7796       7795       7905       7906       7917       7916  
      7785       7786       7797       7796       7906       7907       7918       7917  
      7786       7787       7798       7797       7907       7908       7919       7918  
      7787       7788       7799       7798       7908       7909       7920       7919  
      7789       7790       7801       7800       7910       7911       7922       7921  
      7790       7791       7802       7801       7911       7912       7923       7922  
      7791       7792       7803       7802       7912       7913       7924       7923  
      7792       7793       7804       7803       7913       7914       7925       7924  
      7793       7794       7805       7804       7914       7915       7926       7925  
      7794       7795       7806       7805       7915       7916       7927       7926  
      7795       7796       7807       7806       7916       7917       7928       7927  
      7796       7797       7808       7807       7917       7918       7929       7928  
      7797       7798       7809       7808       7918       7919       7930       7929  
      7798       7799       7810       7809       7919       7920       7931       7930  
      7800       7801       7812       7811       7921       7922       7933       7932  
      7801       7802       7813       7812       7922       7923       7934       7933  
      7802       7803       7814       7813       7923       7924       7935       7934  
      7803       7804       7815       7814       7924       7925       7936       7935  
      7804       7805       7816       7815       7925       7926       7937       7936  
      7805       7806       7817       7816       7926       7927       7938       7937  
      7806       7807       7818       7817       7927       7928       7939       7938  
      7807       7808       7819       7818       7928       7929       7940       7939  
      7808       7809       7820       7819       7929       7930       7941       7940  
      7809       7810       7821       7820       7930       7931       7942       7941  
      7811       7812       7823       7822       7932       7933       7944       7943  
      7812       7813       7824       7823       7933       7934       7945       7944  
      7813       7814       7825       7824       7934       7935       7946       7945  
      7814       7815       7826       7825       7935       7936       7947       7946  
      7815       7816       7827       7826       7936       7937       7948       7947  
      7816       7817       7828       7827       7937       7938       7949       7948  
      7817       7818       7829       7828       7938       7939       7950       7949  
      7818       7819       7830       7829       7939       7940       7951       7950  
      7819       7820       7831       7830       7940       7941       7952       7951  
      7820       7821       7832       7831       7941       7942       7953       7952  
      7822       7823       7834       7833       7943       7944       7955       7954  
      7823       7824       7835       7834       7944       7945       7956       7955  
      7824       7825       7836       7835       7945       7946       7957       7956  
      7825       7826       7837       7836       7946       7947       7958       7957  
      7826       7827       7838       7837       7947       7948       7959       7958  
      7827       7828       7839       7838       7948       7949       7960       7959  
      7828       7829       7840       7839       7949       7950       7961       7960  
      7829       7830       7841       7840       7950       7951       7962       7961  
      7830       7831       7842       7841       7951       7952       7963       7962  
      7831       7832       7843       7842       7952       7953       7964       7963  
      7833       7834       7845       7844       7954       7955       7966       7965  
      7834       7835       7846       7845       7955       7956       7967       7966  
      7835       7836       7847       7846       7956       7957       7968       7967  
      7836       7837       7848       7847       7957       7958       7969       7968  
      7837       7838       7849       7848       7958       7959       7970       7969  
      7838       7839       7850       7849       7959       7960       7971       7970  
      7839       7840       7851       7850       7960       7961       7972       7971  
      7840       7841       7852       7851       7961       7962       7973       7972  
      7841       7842       7853       7852       7962       7963       7974       7973  
      7842       7843       7854       7853       7963       7964       7975       7974  
      7844       7845       7856       7855       7965       7966       7977       7976  
      7845       7846       7857       7856       7966       7967       7978       7977  
      7846       7847       7858       7857       7967       7968       7979       7978  
      7847       7848       7859       7858       7968       7969       7980       7979  
      7848       7849       7860       7859       7969       7970       7981       7980  
      7849       7850       7861       7860       7970       7971       7982       7981  
      7850       7851       7862       7861       7971       7972       7983       7982  
      7851       7852       7863       7862       7972       7973       7984       7983  
      7852       7853       7864       7863       7973       7974       7985       7984  
      7853       7854       7865       7864       7974       7975       7986       7985  
      7866       7867       7878       7877       7987       7988       7999       7998  
      7867       7868       7879       7878       7988       7989       8000       7999  
      7868       7869       7880       7879       7989       7990       8001       8000  
      7869       7870       7881       7880       7990       7991       8002       8001  
      7870       7871       7882       7881       7991       7992       8003       8002  
      7871       7872       7883       7882       7992       7993       8004       8003  
      7872       7873       7884       7883       7993       7994       8005       8004  
      7873       7874       7885       7884       7994       7995       8006       8005  
      7874       7875       7886       7885       7995       7996       8007       8006  
      7875       7876       7887       7886       7996       7997       8008       8007  
      7877       7878       7889       7888       7998       7999       8010       8009  
      7878       7879       7890       7889       7999       8000       8011       8010  
      7879       7880       7891       7890       8000       8001       8012       8011  
      7880       7881       7892       7891       8001       8002       8013       8012  
      7881       7882       7893       7892       8002       8003       8014       8013  
      7882       7883       7894       7893       8003       8004       8015       8014  
      7883       7884       7895       7894       8004       8005       8016       8015  
      7884       7885       7896       7895       8005       8006       8017       8016  
      7885       7886       7897       7896       8006       8007       8018       8017  
      7886       7887       7898       7897       8007       8008       8019       8018  
      7888       7889       7900       7899       8009       8010       8021       8020  
      7889       7890       7901       7900       8010       8011       8022       8021  
      7890       7891       7902       7901       8011       8012       8023       8022  
      7891       7892       7903       7902       8012       8013       8024       8023  
      7892       7893       7904       7903       8013       8014       8025       8024  
      7893       7894       7905       7904       8014       8015       8026       8025  
      7894       7895       7906       7905       8015       8016       8027       8026  
      7895       7896       7907       7906       8016       8017       8028       8027  
      7896       7897       7908       7907       8017       8018       8029       8028  
      7897       7898       7909       7908       8018       8019       8030       8029  
      7899       7900       7911       7910       8020       8021       8032       8031  
      7900       7901       7912       7911       8021       8022       8033       8032  
      7901       7902       7913       7912       8022       8023       8034       8033  
      7902       7903       7914       7913       8023       8024       8035       8034  
      7903       7904       7915       7914       8024       8025       8036       8035  
      7904       7905       7916       7915       8025       8026       8037       8036  
      7905       7906       7917       7916       8026       8027       8038       8037  
      7906       7907       7918       7917       8027       8028       8039       8038  
      7907       7908       7919       7918       8028       8029       8040       8039  
      7908       7909       7920       7919       8029       8030       8041       8040  
      7910       7911       7922       7921       8031       8032       8043       8042  
      7911       7912       7923       7922       8032       8033       8044       8043  
      7912       7913       7924       7923       8033       8034       8045       8044  
      7913       7914       7925       7924       8034       8035       8046       8045  
      7914       7915       7926       7925       8035       8036       8047       8046  
      7915       7916       7927       7926       8036       8037       8048       8047  
      7916       7917       7928       7927       8037       8038       8049       8048  
      7917       7918       7929       7928       8038       8039       8050       8049  
      7918       7919       7930       7929       8039       8040       8051       8050  
      7919       7920       7931       7930       8040       8041       8052       8051  
      7921       7922       7933       7932       8042       8043       8054       8053  
      7922       7923       7934       7933       8043       8044       8055       8054  
      7923       7924       7935       7934       8044       8045       8056       8055  
      7924       7925       7936       7935       8045       8046       8057       8056  
      7925       7926       7937       7936       8046       8047       8058       8057  
      7926       7927       7938       7937       8047       8048       8059       8058  
      7927       7928       7939       7938       8048       8049       8060       8059  
      7928       7929       7940       7939       8049       8050       8061       8060  
      7929       7930       7941       7940       8050       8051       8062       8061  
      7930       7931       7942       7941       8051       8052       8063       8062  
      7932       7933       7944       7943       8053       8054       8065       8064  
      7933       7934       7945       7944       8054       8055       8066       8065  
      7934       7935       7946       7945       8055       8056       8067       8066  
      7935       7936       7947       7946       8056       8057       8068       8067  
      7936       7937       7948       7947       8057       8058       8069       8068  
      7937       7938       7949       7948       8058       8059       8070       8069  
      7938       7939       7950       7949       8059       8060       8071       8070  
      7939       7940       7951       7950       8060       8061       8072       8071  
      7940       7941       7952       7951       8061       8062       8073       8072  
      7941       7942       7953       7952       8062       8063       8074       8073  
      7943       7944       7955       7954       8064       8065       8076       8075  
      7944       7945       7956       7955       8065       8066       8077       8076  
      7945       7946       7957       7956       8066       8067       8078       8077  
      7946       7947       7958       7957       8067       8068       8079       8078  
      7947       7948       7959       7958       8068       8069       8080       8079  
      7948       7949       7960       7959       8069       8070       8081       8080  
      7949       7950       7961       7960       8070       8071       8082       8081  
      7950       7951       7962       7961       8071       8072       8083       8082  
      7951       7952       7963       7962       8072       8073       8084       8083  
      7952       7953       7964       7963       8073       8074       8085       8084  
      7954       7955       7966       7965       8075       8076       8087       8086  
      7955       7956       7967       7966       8076       8077       8088       8087  
      7956       7957       7968       7967       8077       8078       8089       8088  
      7957       7958       7969       7968       8078       8079       8090       8089  
      7958       7959       7970       7969       8079       8080       8091       8090  
      7959       7960       7971       7970       8080       8081       8092       8091  
      7960       7961       7972       7971       8081       8082       8093       8092  
      7961       7962       7973       7972       8082       8083       8094       8093  
      7962       7963       7974       7973       8083       8084       8095       8094  
      7963       7964       7975       7974       8084       8085       8096       8095  
      7965       7966       7977       7976       8086       8087       8098       8097  
      7966       7967       7978       7977       8087       8088       8099       8098  
      7967       7968       7979       7978       8088       8089       8100       8099  
      7968       7969       7980       7979       8089       8090       8101       8100  
      7969       7970       7981       7980       8090       8091       8102       8101  
      7970       7971       7982       7981       8091       8092       8103       8102  
      7971       7972       7983       7982       8092       8093       8104       8103  
      7972       7973       7984       7983       8093       8094       8105       8104  
      7973       7974       7985       7984       8094       8095       8106       8105  
      7974       7975       7986       7985       8095       8096       8107       8106  
      7987       7988       7999       7998       8108       8109       8120       8119  
      7988       7989       8000       7999       8109       8110       8121       8120  
      7989       7990       8001       8000       8110       8111       8122       8121  
      7990       7991       8002       8001       8111       8112       8123       8122  
      7991       7992       8003       8002       8112       8113       8124       8123  
      7992       7993       8004       8003       8113       8114       8125       8124  
      7993       7994       8005       8004       8114       8115       8126       8125  
      7994       7995       8006       8005       8115       8116       8127       8126  
      7995       7996       8007       8006       8116       8117       8128       8127  
      7996       7997       8008       8007       8117       8118       8129       8128  
      7998       7999       8010       8009       8119       8120       8131       8130  
      7999       8000       8011       8010       8120       8121       8132       8131  
      8000       8001       8012       8011       8121       8122       8133       8132  
      8001       8002       8013       8012       8122       8123       8134       8133  
      8002       8003       8014       8013       8123       8124       8135       8134  
      8003       8004       8015       8014       8124       8125       8136       8135  
      8004       8005       8016       8015       8125       8126       8137       8136  
      8005       8006       8017       8016       8126       8127       8138       8137  
      8006       8007       8018       8017       8127       8128       8139       8138  
      8007       8008       8019       8018       8128       8129       8140       8139  
      8009       8010       8021       8020       8130       8131       8142       8141  
      8010       8011       8022       8021       8131       8132       8143       8142  
      8011       8012       8023       8022       8132       8133       8144       8143  
      8012       8013       8024       8023       8133       8134       8145       8144  
      8013       8014       8025       8024       8134       8135       8146       8145  
      8014       8015       8026       8025       8135       8136       8147       8146  
      8015       8016       8027       8026       8136       8137       8148       8147  
      8016       8017       8028       8027       8137       8138       8149       8148  
      8017       8018       8029       8028       8138       8139       8150       8149  
      8018       8019       8030       8029       8139       8140       8151       8150  
      8020       8021       8032       8031       8141       8142       8153       8152  
      8021       8022       8033       8032       8142       8143       8154       8153  
      8022       8023       8034       8033       8143       8144       8155       8154  
      8023       8024       8035       8034       8144       8145       8156       8155  
      8024       8025       8036       8035       8145       8146       8157       8156  
      8025       8026       8037       8036       8146       8147       8158       8157  
      8026       8027       8038       8037       8147       8148       8159       8158  
      8027       8028       8039       8038       8148       8149       8160       8159  
      8028       8029       8040       8039       8149       8150       8161       8160  
      8029       8030       8041       8040       8150       8151       8162       8161  
      8031       8032       8043       8042       8152       8153       8164       8163  
      8032       8033       8044       8043       8153       8154       8165       8164  
      8033       8034       8045       8044       8154       8155       8166       8165  
      8034       8035       8046       8045       8155       8156       8167       8166  
      8035       8036       8047       8046       8156       8157       8168       8167  
      8036       8037       8048       8047       8157       8158       8169       8168  
      8037       8038       8049       8048       8158       8159       8170       8169  
      8038       8039       8050       8049       8159       8160       8171       8170  
      8039       8040       8051       8050       8160       8161       8172       8171  
      8040       8041       8052       8051       8161       8162       8173       8172  
      8042       8043       8054       8053       8163       8164       8175       8174  
      8043       8044       8055       8054       8164       8165       8176       8175  
      8044       8045       8056       8055       8165       8166       8177       8176  
      8045       8046       8057       8056       8166       8167       8178       8177  
      8046       8047       8058       8057       8167       8168       8179       8178  
      8047       8048       8059       8058       8168       8169       8180       8179  
      8048       8049       8060       8059       8169       8170       8181       8180  
      8049       8050       8061       8060       8170       8171       8182       8181  
      8050       8051       8062       8061       8171       8172       8183       8182  
      8051       8052       8063       8062       8172       8173       8184       8183  
      8053       8054       8065       8064       8174       8175       8186       8185  
      8054       8055       8066       8065       8175       8176       8187       8186  
      8055       8056       8067       8066       8176       8177       8188       8187  
      8056       8057       8068       8067       8177       8178       8189       8188  
      8057       8058       8069       8068       8178       8179       8190       8189  
      8058       8059       8070       8069       8179       8180       8191       8190  
      8059       8060       8071       8070       8180       8181       8192       8191  
      8060       8061       8072       8071       8181       8182       8193       8192  
      8061       8062       8073       8072       8182       8183       8194       8193  
      8062       8063       8074       8073       8183       8184       8195       8194  
      8064       8065       8076       8075       8185       8186       8197       8196  
      8065       8066       8077       8076       8186       8187       8198       8197  
      8066       8067       8078       8077       8187       8188       8199       8198  
      8067       8068       8079       8078       8188       8189       8200       8199  
      8068       8069       8080       8079       8189       8190       8201       8200  
      8069       8070       8081       8080       8190       8191       8202       8201  
      8070       8071       8082       8081       8191       8192       8203       8202  
      8071       8072       8083       8082       8192       8193       8204       8203  
      8072       8073       8084       8083       8193       8194       8205       8204  
      8073       8074       8085       8084       8194       8195       8206       8205  
      8075       8076       8087       8086       8196       8197       8208       8207  
      8076       8077       8088       8087       8197       8198       8209       8208  
      8077       8078       8089       8088       8198       8199       8210       8209  
      8078       8079       8090       8089       8199       8200       8211       8210  
      8079       8080       8091       8090       8200       8201       8212       8211  
      8080       8081       8092       8091       8201       8202       8213       8212  
      8081       8082       8093       8092       8202       8203       8214       8213  
      8082       8083       8094       8093       8203       8204       8215       8214  
      8083       8084       8095       8094       8204       8205       8216       8215  
      8084       8085       8096       8095       8205       8206       8217       8216  
      8086       8087       8098       8097       8207       8208       8219       8218  
      8087       8088       8099       8098       8208       8209       8220       8219  
      8088       8089       8100       8099       8209       8210       8221       8220  
      8089       8090       8101       8100       8210       8211       8222       8221  
      8090       8091       8102       8101       8211       8212       8223       8222  
      8091       8092       8103       8102       8212       8213       8224       8223  
      8092       8093       8104       8103       8213       8214       8225       8224  
      8093       8094       8105       8104       8214       8215       8226       8225  
      8094       8095       8106       8105       8215       8216       8227       8226  
      8095       8096       8107       8106       8216       8217       8228       8227  
      8108       8109       8120       8119       8229       8230       8241       8240  
      8109       8110       8121       8120       8230       8231       8242       8241  
      8110       8111       8122       8121       8231       8232       8243       8242  
      8111       8112       8123       8122       8232       8233       8244       8243  
      8112       8113       8124       8123       8233       8234       8245       8244  
      8113       8114       8125       8124       8234       8235       8246       8245  
      8114       8115       8126       8125       8235       8236       8247       8246  
      8115       8116       8127       8126       8236       8237       8248       8247  
      8116       8117       8128       8127       8237       8238       8249       8248  
      8117       8118       8129       8128       8238       8239       8250       8249  
      8119       8120       8131       8130       8240       8241       8252       8251  
      8120       8121       8132       8131       8241       8242       8253       8252  
      8121       8122       8133       8132       8242       8243       8254       8253  
      8122       8123       8134       8133       8243       8244       8255       8254  
      8123       8124       8135       8134       8244       8245       8256       8255  
      8124       8125       8136       8135       8245       8246       8257       8256  
      8125       8126       8137       8136       8246       8247       8258       8257  
      8126       8127       8138       8137       8247       8248       8259       8258  
      8127       8128       8139       8138       8248       8249       8260       8259  
      8128       8129       8140       8139       8249       8250       8261       8260  
      8130       8131       8142       8141       8251       8252       8263       8262  
      8131       8132       8143       8142       8252       8253       8264       8263  
      8132       8133       8144       8143       8253       8254       8265       8264  
      8133       8134       8145       8144       8254       8255       8266       8265  
      8134       8135       8146       8145       8255       8256       8267       8266  
      8135       8136       8147       8146       8256       8257       8268       8267  
      8136       8137       8148       8147       8257       8258       8269       8268  
      8137       8138       8149       8148       8258       8259       8270       8269  
      8138       8139       8150       8149       8259       8260       8271       8270  
      8139       8140       8151       8150       8260       8261       8272       8271  
      8141       8142       8153       8152       8262       8263       8274       8273  
      8142       8143       8154       8153       8263       8264       8275       8274  
      8143       8144       8155       8154       8264       8265       8276       8275  
      8144       8145       8156       8155       8265       8266       8277       8276  
      8145       8146       8157       8156       8266       8267       8278       8277  
      8146       8147       8158       8157       8267       8268       8279       8278  
      8147       8148       8159       8158       8268       8269       8280       8279  
      8148       8149       8160       8159       8269       8270       8281       8280  
      8149       8150       8161       8160       8270       8271       8282       8281  
      8150       8151       8162       8161       8271       8272       8283       8282  
      8152       8153       8164       8163       8273       8274       8285       8284  
      8153       8154       8165       8164       8274       8275       8286       8285  
      8154       8155       8166       8165       8275       8276       8287       8286  
      8155       8156       8167       8166       8276       8277       8288       8287  
      8156       8157       8168       8167       8277       8278       8289       8288  
      8157       8158       8169       8168       8278       8279       8290       8289  
      8158       8159       8170       8169       8279       8280       8291       8290  
      8159       8160       8171       8170       8280       8281       8292       8291  
      8160       8161       8172       8171       8281       8282       8293       8292  
      8161       8162       8173       8172       8282       8283       8294       8293  
      8163       8164       8175       8174       8284       8285       8296       8295  
      8164       8165       8176       8175       8285       8286       8297       8296  
      8165       8166       8177       8176       8286       8287       8298       8297  
      8166       8167       8178       8177       8287       8288       8299       8298  
      8167       8168       8179       8178       8288       8289       8300       8299  
      8168       8169       8180       8179       8289       8290       8301       8300  
      8169       8170       8181       8180       8290       8291       8302       8301  
      8170       8171       8182       8181       8291       8292       8303       8302  
      8171       8172       8183       8182       8292       8293       8304       8303  
      8172       8173       8184       8183       8293       8294       8305       8304  
      8174       8175       8186       8185       8295       8296       8307       8306  
      8175       8176       8187       8186       8296       8297       8308       8307  
      8176       8177       8188       8187       8297       8298       8309       8308  
      8177       8178       8189       8188       8298       8299       8310       8309  
      8178       8179       8190       8189       8299       8300       8311       8310  
      8179       8180       8191       8190       8300       8301       8312       8311  
      8180       8181       8192       8191       8301       8302       8313       8312  
      8181       8182       8193       8192       8302       8303       8314       8313  
      8182       8183       8194       8193       8303       8304       8315       8314  
      8183       8184       8195       8194       8304       8305       8316       8315  
      8185       8186       8197       8196       8306       8307       8318       8317  
      8186       8187       8198       8197       8307       8308       8319       8318  
      8187       8188       8199       8198       8308       8309       8320       8319  
      8188       8189       8200       8199       8309       8310       8321       8320  
      8189       8190       8201       8200       8310       8311       8322       8321  
      8190       8191       8202       8201       8311       8312       8323       8322  
      8191       8192       8203       8202       8312       8313       8324       8323  
      8192       8193       8204       8203       8313       8314       8325       8324  
      8193       8194       8205       8204       8314       8315       8326       8325  
      8194       8195       8206       8205       8315       8316       8327       8326  
      8196       8197       8208       8207       8317       8318       8329       8328  
      8197       8198       8209       8208       8318       8319       8330       8329  
      8198       8199       8210       8209       8319       8320       8331       8330  
      8199       8200       8211       8210       8320       8321       8332       8331  
      8200       8201       8212       8211       8321       8322       8333       8332  
      8201       8202       8213       8212       8322       8323       8334       8333  
      8202       8203       8214       8213       8323       8324       8335       8334  
      8203       8204       8215       8214       8324       8325       8336       8335  
      8204       8205       8216       8215       8325       8326       8337       8336  
      8205       8206       8217       8216       8326       8327       8338       8337  
      8207       8208       8219       8218       8328       8329       8340       8339  
      8208       8209       8220       8219       8329       8330       8341       8340  
      8209       8210       8221       8220       8330       8331       8342       8341  
      8210       8211       8222       8221       8331       8332       8343       8342  
      8211       8212       8223       8222       8332       8333       8344       8343  
      8212       8213       8224       8223       8333       8334       8345       8344  
      8213       8214       8225       8224       8334       8335       8346       8345  
      8214       8215       8226       8225       8335       8336       8347       8346  
      8215       8216       8227       8226       8336       8337       8348       8347  
      8216       8217       8228       8227       8337       8338       8349       8348  
      8229       8230       8241       8240       8350       8351       8362       8361  
      8230       8231       8242       8241       8351       8352       8363       8362  
      8231       8232       8243       8242       8352       8353       8364       8363  
      8232       8233       8244       8243       8353       8354       8365       8364  
      8233       8234       8245       8244       8354       8355       8366       8365  
      8234       8235       8246       8245       8355       8356       8367       8366  
      8235       8236       8247       8246       8356       8357       8368       8367  
      8236       8237       8248       8247       8357       8358       8369       8368  
      8237       8238       8249       8248       8358       8359       8370       8369  
      8238       8239       8250       8249       8359       8360       8371       8370  
      8240       8241       8252       8251       8361       8362       8373       8372  
      8241       8242       8253       8252       8362       8363       8374       8373  
      8242       8243       8254       8253       8363       8364       8375       8374  
      8243       8244       8255       8254       8364       8365       8376       8375  
      8244       8245       8256       8255       8365       8366       8377       8376  
      8245       8246       8257       8256       8366       8367       8378       8377  
      8246       8247       8258       8257       8367       8368       8379       8378  
      8247       8248       8259       8258       8368       8369       8380       8379  
      8248       8249       8260       8259       8369       8370       8381       8380  
      8249       8250       8261       8260       8370       8371       8382       8381  
      8251       8252       8263       8262       8372       8373       8384       8383  
      8252       8253       8264       8263       8373       8374       8385       8384  
      8253       8254       8265       8264       8374       8375       8386       8385  
      8254       8255       8266       8265       8375       8376       8387       8386  
      8255       8256       8267       8266       8376       8377       8388       8387  
      8256       8257       8268       8267       8377       8378       8389       8388  
      8257       8258       8269       8268       8378       8379       8390       8389  
      8258       8259       8270       8269       8379       8380       8391       8390  
      8259       8260       8271       8270       8380       8381       8392       8391  
      8260       8261       8272       8271       8381       8382       8393       8392  
      8262       8263       8274       8273       8383       8384       8395       8394  
      8263       8264       8275       8274       8384       8385       8396       8395  
      8264       8265       8276       8275       8385       8386       8397       8396  
      8265       8266       8277       8276       8386       8387       8398       8397  
      8266       8267       8278       8277       8387       8388       8399       8398  
      8267       8268       8279       8278       8388       8389       8400       8399  
      8268       8269       8280       8279       8389       8390       8401       8400  
      8269       8270       8281       8280       8390       8391       8402       8401  
      8270       8271       8282       8281       8391       8392       8403       8402  
      8271       8272       8283       8282       8392       8393       8404       8403  
      8273       8274       8285       8284       8394       8395       8406       8405  
      8274       8275       8286       8285       8395       8396       8407       8406  
      8275       8276       8287       8286       8396       8397       8408       8407  
      8276       8277       8288       8287       8397       8398       8409       8408  
      8277       8278       8289       8288       8398       8399       8410       8409  
      8278       8279       8290       8289       8399       8400       8411       8410  
      8279       8280       8291       8290       8400       8401       8412       8411  
      8280       8281       8292       8291       8401       8402       8413       8412  
      8281       8282       8293       8292       8402       8403       8414       8413  
      8282       8283       8294       8293       8403       8404       8415       8414  
      8284       8285       8296       8295       8405       8406       8417       8416  
      8285       8286       8297       8296       8406       8407       8418       8417  
      8286       8287       8298       8297       8407       8408       8419       8418  
      8287       8288       8299       8298       8408       8409       8420       8419  
      8288       8289       8300       8299       8409       8410       8421       8420  
      8289       8290       8301       8300       8410       8411       8422       8421  
      8290       8291       8302       8301       8411       8412       8423       8422  
      8291       8292       8303       8302       8412       8413       8424       8423  
      8292       8293       8304       8303       8413       8414       8425       8424  
      8293       8294       8305       8304       8414       8415       8426       8425  
      8295       8296       8307       8306       8416       8417       8428       8427  
      8296       8297       8308       8307       8417       8418       8429       8428  
      8297       8298       8309       8308       8418       8419       8430       8429  
      8298       8299       8310       8309       8419       8420       8431       8430  
      8299       8300       8311       8310       8420       8421       8432       8431  
      8300       8301       8312       8311       8421       8422       8433       8432  
      8301       8302       8313       8312       8422       8423       8434       8433  
      8302       8303       8314       8313       8423       8424       8435       8434  
      8303       8304       8315       8314       8424       8425       8436       8435  
      8304       8305       8316       8315       8425       8426       8437       8436  
      8306       8307       8318       8317       8427       8428       8439       8438  
      8307       8308       8319       8318       8428       8429       8440       8439  
      8308       8309       8320       8319       8429       8430       8441       8440  
      8309       8310       8321       8320       8430       8431       8442       8441  
      8310       8311       8322       8321       8431       8432       8443       8442  
      8311       8312       8323       8322       8432       8433       8444       8443  
      8312       8313       8324       8323       8433       8434       8445       8444  
      8313       8314       8325       8324       8434       8435       8446       8445  
      8314       8315       8326       8325       8435       8436       8447       8446  
      8315       8316       8327       8326       8436       8437       8448       8447  
      8317       8318       8329       8328       8438       8439       8450       8449  
      8318       8319       8330       8329       8439       8440       8451       8450  
      8319       8320       8331       8330       8440       8441       8452       8451  
      8320       8321       8332       8331       8441       8442       8453       8452  
      8321       8322       8333       8332       8442       8443       8454       8453  
      8322       8323       8334       8333       8443       8444       8455       8454  
      8323       8324       8335       8334       8444       8445       8456       8455  
      8324       8325       8336       8335       8445       8446       8457       8456  
      8325       8326       8337       8336       8446       8447       8458       8457  
      8326       8327       8338       8337       8447       8448       8459       8458  
      8328       8329       8340       8339       8449       8450       8461       8460  
      8329       8330       8341       8340       8450       8451       8462       8461  
      8330       8331       8342       8341       8451       8452       8463       8462  
      8331       8332       8343       8342       8452       8453       8464       8463  
      8332       8333       8344       8343       8453       8454       8465       8464  
      8333       8334       8345       8344       8454       8455       8466       8465  
      8334       8335       8346       8345       8455       8456       8467       8466  
      8335       8336       8347       8346       8456       8457       8468       8467  
      8336       8337       8348       8347       8457       8458       8469       8468  
      8337       8338       8349       8348       8458       8459       8470       8469  
      8350       8351       8362       8361       8471       8472       8483       8482  
      8351       8352       8363       8362       8472       8473       8484       8483  
      8352       8353       8364       8363       8473       8474       8485       8484  
      8353       8354       8365       8364       8474       8475       8486       8485  
      8354       8355       8366       8365       8475       8476       8487       8486  
      8355       8356       8367       8366       8476       8477       8488       8487  
      8356       8357       8368       8367       8477       8478       8489       8488  
      8357       8358       8369       8368       8478       8479       8490       8489  
      8358       8359       8370       8369       8479       8480       8491       8490  
      8359       8360       8371       8370       8480       8481       8492       8491  
      8361       8362       8373       8372       8482       8483       8494       8493  
      8362       8363       8374       8373       8483       8484       8495       8494  
      8363       8364       8375       8374       8484       8485       8496       8495  
      8364       8365       8376       8375       8485       8486       8497       8496  
      8365       8366       8377       8376       8486       8487       8498       8497  
      8366       8367       8378       8377       8487       8488       8499       8498  
      8367       8368       8379       8378       8488       8489       8500       8499  
      8368       8369       8380       8379       8489       8490       8501       8500  
      8369       8370       8381       8380       8490       8491       8502       8501  
      8370       8371       8382       8381       8491       8492       8503       8502  
      8372       8373       8384       8383       8493       8494       8505       8504  
      8373       8374       8385       8384       8494       8495       8506       8505  
      8374       8375       8386       8385       8495       8496       8507       8506  
      8375       8376       8387       8386       8496       8497       8508       8507  
      8376       8377       8388       8387       8497       8498       8509       8508  
      8377       8378       8389       8388       8498       8499       8510       8509  
      8378       8379       8390       8389       8499       8500       8511       8510  
      8379       8380       8391       8390       8500       8501       8512       8511  
      8380       8381       8392       8391       8501       8502       8513       8512  
      8381       8382       8393       8392       8502       8503       8514       8513  
      8383       8384       8395       8394       8504       8505       8516       8515  
      8384       8385       8396       8395       8505       8506       8517       8516  
      8385       8386       8397       8396       8506       8507       8518       8517  
      8386       8387       8398       8397       8507       8508       8519       8518  
      8387       8388       8399       8398       8508       8509       8520       8519  
      8388       8389       8400       8399       8509       8510       8521       8520  
      8389       8390       8401       8400       8510       8511       8522       8521  
      8390       8391       8402       8401       8511       8512       8523       8522  
      8391       8392       8403       8402       8512       8513       8524       8523  
      8392       8393       8404       8403       8513       8514       8525       8524  
      8394       8395       8406       8405       8515       8516       8527       8526  
      8395       8396       8407       8406       8516       8517       8528       8527  
      8396       8397       8408       8407       8517       8518       8529       8528  
      8397       8398       8409       8408       8518       8519       8530       8529  
      8398       8399       8410       8409       8519       8520       8531       8530  
      8399       8400       8411       8410       8520       8521       8532       8531  
      8400       8401       8412       8411       8521       8522       8533       8532  
      8401       8402       8413       8412       8522       8523       8534       8533  
      8402       8403       8414       8413       8523       8524       8535       8534  
      8403       8404       8415       8414       8524       8525       8536       8535  
      8405       8406       8417       8416       8526       8527       8538       8537  
      8406       8407       8418       8417       8527       8528       8539       8538  
      8407       8408       8419       8418       8528       8529       8540       8539  
      8408       8409       8420       8419       8529       8530       8541       8540  
      8409       8410       8421       8420       8530       8531       8542       8541  
      8410       8411       8422       8421       8531       8532       8543       8542  
      8411       8412       8423       8422       8532       8533       8544       8543  
      8412       8413       8424       8423       8533       8534       8545       8544  
      8413       8414       8425       8424       8534       8535       8546       8545  
      8414       8415       8426       8425       8535       8536       8547       8546  
      8416       8417       8428       8427       8537       8538       8549       8548  
      8417       8418       8429       8428       8538       8539       8550       8549  
      8418       8419       8430       8429       8539       8540       8551       8550  
      8419       8420       8431       8430       8540       8541       8552       8551  
      8420       8421       8432       8431       8541       8542       8553       8552  
      8421       8422       8433       8432       8542       8543       8554       8553  
      8422       8423       8434       8433       8543       8544       8555       8554  
      8423       8424       8435       8434       8544       8545       8556       8555  
      8424       8425       8436       8435       8545       8546       8557       8556  
      8425       8426       8437       8436       8546       8547       8558       8557  
      8427       8428       8439       8438       8548       8549       8560       8559  
      8428       8429       8440       8439       8549       8550       8561       8560  
      8429       8430       8441       8440       8550       8551       8562       8561  
      8430       8431       8442       8441       8551       8552       8563       8562  
      8431       8432       8443       8442       8552       8553       8564       8563  
      8432       8433       8444       8443       8553       8554       8565       8564  
      8433       8434       8445       8444       8554       8555       8566       8565  
      8434       8435       8446       8445       8555       8556       8567       8566  
      8435       8436       8447       8446       8556       8557       8568       8567  
      8436       8437       8448       8447       8557       8558       8569       8568  
      8438       8439       8450       8449       8559       8560       8571       8570  
      8439       8440       8451       8450       8560       8561       8572       8571  
      8440       8441       8452       8451       8561       8562       8573       8572  
      8441       8442       8453       8452       8562       8563       8574       8573  
      8442       8443       8454       8453       8563       8564       8575       8574  
      8443       8444       8455       8454       8564       8565       8576       8575  
      8444       8445       8456       8455       8565       8566       8577       8576  
      8445       8446       8457       8456       8566       8567       8578       8577  
      8446       8447       8458       8457       8567       8568       8579       8578  
      8447       8448       8459       8458       8568       8569       8580       8579  
      8449       8450       8461       8460       8570       8571       8582       8581  
      8450       8451       8462       8461       8571       8572       8583       8582  
      8451       8452       8463       8462       8572       8573       8584       8583  
      8452       8453       8464       8463       8573       8574       8585       8584  
      8453       8454       8465       8464       8574       8575       8586       8585  
      8454       8455       8466       8465       8575       8576       8587       8586  
      8455       8456       8467       8466       8576       8577       8588       8587  
      8456       8457       8468       8467       8577       8578       8589       8588  
      8457       8458       8469       8468       8578       8579       8590       8589  
      8458       8459       8470       8469       8579       8580       8591       8590  
      8471       8472       8483       8482       8592       8593       8604       8603  
      8472       8473       8484       8483       8593       8594       8605       8604  
      8473       8474       8485       8484       8594       8595       8606       8605  
      8474       8475       8486       8485       8595       8596       8607       8606  
      8475       8476       8487       8486       8596       8597       8608       8607  
      8476       8477       8488       8487       8597       8598       8609       8608  
      8477       8478       8489       8488       8598       8599       8610       8609  
      8478       8479       8490       8489       8599       8600       8611       8610  
      8479       8480       8491       8490       8600       8601       8612       8611  
      8480       8481       8492       8491       8601       8602       8613       8612  
      8482       8483       8494       8493       8603       8604       8615       8614  
      8483       8484       8495       8494       8604       8605       8616       8615  
      8484       8485       8496       8495       8605       8606       8617       8616  
      8485       8486       8497       8496       8606       8607       8618       8617  
      8486       8487       8498       8497       8607       8608       8619       8618  
      8487       8488       8499       8498       8608       8609       8620       8619  
      8488       8489       8500       8499       8609       8610       8621       8620  
      8489       8490       8501       8500       8610       8611       8622       8621  
      8490       8491       8502       8501       8611       8612       8623       8622  
      8491       8492       8503       8502       8612       8613       8624       8623  
      8493       8494       8505       8504       8614       8615       8626       8625  
      8494       8495       8506       8505       8615       8616       8627       8626  
      8495       8496       8507       8506       8616       8617       8628       8627  
      8496       8497       8508       8507       8617       8618       8629       8628  
      8497       8498       8509       8508       8618       8619       8630       8629  
      8498       8499       8510       8509       8619       8620       8631       8630  
      8499       8500       8511       8510       8620       8621       8632       8631  
      8500       8501       8512       8511       8621       8622       8633       8632  
      8501       8502       8513       8512       8622       8623       8634       8633  
      8502       8503       8514       8513       8623       8624       8635       8634  
      8504       8505       8516       8515       8625       8626       8637       8636  
      8505       8506       8517       8516       8626       8627       8638       8637  
      8506       8507       8518       8517       8627       8628       8639       8638  
      8507       8508       8519       8518       8628       8629       8640       8639  
      8508       8509       8520       8519       8629       8630       8641       8640  
      8509       8510       8521       8520       8630       8631       8642       8641  
      8510       8511       8522       8521       8631       8632       8643       8642  
      8511       8512       8523       8522       8632       8633       8644       8643  
      8512       8513       8524       8523       8633       8634       8645       8644  
      8513       8514       8525       8524       8634       8635       8646       8645  
      8515       8516       8527       8526       8636       8637       8648       8647  
      8516       8517       8528       8527       8637       8638       8649       8648  
      8517       8518       8529       8528       8638       8639       8650       8649  
      8518       8519       8530       8529       8639       8640       8651       8650  
      8519       8520       8531       8530       8640       8641       8652       8651  
      8520       8521       8532       8531       8641       8642       8653       8652  
      8521       8522       8533       8532       8642       8643       8654       8653  
      8522       8523       8534       8533       8643       8644       8655       8654  
      8523       8524       8535       8534       8644       8645       8656       8655  
      8524       8525       8536       8535       8645       8646       8657       8656  
      8526       8527       8538       8537       8647       8648       8659       8658  
      8527       8528       8539       8538       8648       8649       8660       8659  
      8528       8529       8540       8539       8649       8650       8661       8660  
      8529       8530       8541       8540       8650       8651       8662       8661  
      8530       8531       8542       8541       8651       8652       8663       8662  
      8531       8532       8543       8542       8652       8653       8664       8663  
      8532       8533       8544       8543       8653       8654       8665       8664  
      8533       8534       8545       8544       8654       8655       8666       8665  
      8534       8535       8546       8545       8655       8656       8667       8666  
      8535       8536       8547       8546       8656       8657       8668       8667  
      8537       8538       8549       8548       8658       8659       8670       8669  
      8538       8539       8550       8549       8659       8660       8671       8670  
      8539       8540       8551       8550       8660       8661       8672       8671  
      8540       8541       8552       8551       8661       8662       8673       8672  
      8541       8542       8553       8552       8662       8663       8674       8673  
      8542       8543       8554       8553       8663       8664       8675       8674  
      8543       8544       8555       8554       8664       8665       8676       8675  
      8544       8545       8556       8555       8665       8666       8677       8676  
      8545       8546       8557       8556       8666       8667       8678       8677  
      8546       8547       8558       8557       8667       8668       8679       8678  
      8548       8549       8560       8559       8669       8670       8681       8680  
      8549       8550       8561       8560       8670       8671       8682       8681  
      8550       8551       8562       8561       8671       8672       8683       8682  
      8551       8552       8563       8562       8672       8673       8684       8683  
      8552       8553       8564       8563       8673       8674       8685       8684  
      8553       8554       8565       8564       8674       8675       8686       8685  
      8554       8555       8566       8565       8675       8676       8687       8686  
      8555       8556       8567       8566       8676       8677       8688       8687  
      8556       8557       8568       8567       8677       8678       8689       8688  
      8557       8558       8569       8568       8678       8679       8690       8689  
      8559       8560       8571       8570       8680       8681       8692       8691  
      8560       8561       8572       8571       8681       8682       8693       8692  
      8561       8562       8573       8572       8682       8683       8694       8693  
      8562       8563       8574       8573       8683       8684       8695       8694  
      8563       8564       8575       8574       8684       8685       8696       8695  
      8564       8565       8576       8575       8685       8686       8697       8696  
      8565       8566       8577       8576       8686       8687       8698       8697  
      8566       8567       8578       8577       8687       8688       8699       8698  
      8567       8568       8579       8578       8688       8689       8700       8699  
      8568       8569       8580       8579       8689       8690       8701       8700  
      8570       8571       8582       8581       8691       8692       8703       8702  
      8571       8572       8583       8582       8692       8693       8704       8703  
      8572       8573       8584       8583       8693       8694       8705       8704  
      8573       8574       8585       8584       8694       8695       8706       8705  
      8574       8575       8586       8585       8695       8696       8707       8706  
      8575       8576       8587       8586       8696       8697       8708       8707  
      8576       8577       8588       8587       8697       8698       8709       8708  
      8577       8578       8589       8588       8698       8699       8710       8709  
      8578       8579       8590       8589       8699       8700       8711       8710  
      8579       8580       8591       8590       8700       8701       8712       8711  
      8592       8593       8604       8603       8713       8714       8725       8724  
      8593       8594       8605       8604       8714       8715       8726       8725  
      8594       8595       8606       8605       8715       8716       8727       8726  
      8595       8596       8607       8606       8716       8717       8728       8727  
      8596       8597       8608       8607       8717       8718       8729       8728  
      8597       8598       8609       8608       8718       8719       8730       8729  
      8598       8599       8610       8609       8719       8720       8731       8730  
      8599       8600       8611       8610       8720       8721       8732       8731  
      8600       8601       8612       8611       8721       8722       8733       8732  
      8601       8602       8613       8612       8722       8723       8734       8733  
      8603       8604       8615       8614       8724       8725       8736       8735  
      8604       8605       8616       8615       8725       8726       8737       8736  
      8605       8606       8617       8616       8726       8727       8738       8737  
      8606       8607       8618       8617       8727       8728       8739       8738  
      8607       8608       8619       8618       8728       8729       8740       8739  
      8608       8609       8620       8619       8729       8730       8741       8740  
      8609       8610       8621       8620       8730       8731       8742       8741  
      8610       8611       8622       8621       8731       8732       8743       8742  
      8611       8612       8623       8622       8732       8733       8744       8743  
      8612       8613       8624       8623       8733       8734       8745       8744  
      8614       8615       8626       8625       8735       8736       8747       8746  
      8615       8616       8627       8626       8736       8737       8748       8747  
      8616       8617       8628       8627       8737       8738       8749       8748  
      8617       8618       8629       8628       8738       8739       8750       8749  
      8618       8619       8630       8629       8739       8740       8751       8750  
      8619       8620       8631       8630       8740       8741       8752       8751  
      8620       8621       8632       8631       8741       8742       8753       8752  
      8621       8622       8633       8632       8742       8743       8754       8753  
      8622       8623       8634       8633       8743       8744       8755       8754  
      8623       8624       8635       8634       8744       8745       8756       8755  
      8625       8626       8637       8636       8746       8747       8758       8757  
      8626       8627       8638       8637       8747       8748       8759       8758  
      8627       8628       8639       8638       8748       8749       8760       8759  
      8628       8629       8640       8639       8749       8750       8761       8760  
      8629       8630       8641       8640       8750       8751       8762       8761  
      8630       8631       8642       8641       8751       8752       8763       8762  
      8631       8632       8643       8642       8752       8753       8764       8763  
      8632       8633       8644       8643       8753       8754       8765       8764  
      8633       8634       8645       8644       8754       8755       8766       8765  
      8634       8635       8646       8645       8755       8756       8767       8766  
      8636       8637       8648       8647       8757       8758       8769       8768  
      8637       8638       8649       8648       8758       8759       8770       8769  
      8638       8639       8650       8649       8759       8760       8771       8770  
      8639       8640       8651       8650       8760       8761       8772       8771  
      8640       8641       8652       8651       8761       8762       8773       8772  
      8641       8642       8653       8652       8762       8763       8774       8773  
      8642       8643       8654       8653       8763       8764       8775       8774  
      8643       8644       8655       8654       8764       8765       8776       8775  
      8644       8645       8656       8655       8765       8766       8777       8776  
      8645       8646       8657       8656       8766       8767       8778       8777  
      8647       8648       8659       8658       8768       8769       8780       8779  
      8648       8649       8660       8659       8769       8770       8781       8780  
      8649       8650       8661       8660       8770       8771       8782       8781  
      8650       8651       8662       8661       8771       8772       8783       8782  
      8651       8652       8663       8662       8772       8773       8784       8783  
      8652       8653       8664       8663       8773       8774       8785       8784  
      8653       8654       8665       8664       8774       8775       8786       8785  
      8654       8655       8666       8665       8775       8776       8787       8786  
      8655       8656       8667       8666       8776       8777       8788       8787  
      8656       8657       8668       8667       8777       8778       8789       8788  
      8658       8659       8670       8669       8779       8780       8791       8790  
      8659       8660       8671       8670       8780       8781       8792       8791  
      8660       8661       8672       8671       8781       8782       8793       8792  
      8661       8662       8673       8672       8782       8783       8794       8793  
      8662       8663       8674       8673       8783       8784       8795       8794  
      8663       8664       8675       8674       8784       8785       8796       8795  
      8664       8665       8676       8675       8785       8786       8797       8796  
      8665       8666       8677       8676       8786       8787       8798       8797  
      8666       8667       8678       8677       8787       8788       8799       8798  
      8667       8668       8679       8678       8788       8789       8800       8799  
      8669       8670       8681       8680       8790       8791       8802       8801  
      8670       8671       8682       8681       8791       8792       8803       8802  
      8671       8672       8683       8682       8792       8793       8804       8803  
      8672       8673       8684       8683       8793       8794       8805       8804  
      8673       8674       8685       8684       8794       8795       8806       8805  
      8674       8675       8686       8685       8795       8796       8807       8806  
      8675       8676       8687       8686       8796       8797       8808       8807  
      8676       8677       8688       8687       8797       8798       8809       8808  
      8677       8678       8689       8688       8798       8799       8810       8809  
      8678       8679       8690       8689       8799       8800       8811       8810  
      8680       8681       8692       8691       8801       8802       8813       8812  
      8681       8682       8693       8692       8802       8803       8814       8813  
      8682       8683       8694       8693       8803       8804       8815       8814  
      8683       8684       8695       8694       8804       8805       8816       8815  
      8684       8685       8696       8695       8805       8806       8817       8816  
      8685       8686       8697       8696       8806       8807       8818       8817  
      8686       8687       8698       8697       8807       8808       8819       8818  
      8687       8688       8699       8698       8808       8809       8820       8819  
      8688       8689       8700       8699       8809       8810       8821       8820  
      8689       8690       8701       8700       8810       8811       8822       8821  
      8691       8692       8703       8702       8812       8813       8824       8823  
      8692       8693       8704       8703       8813       8814       8825       8824  
      8693       8694       8705       8704       8814       8815       8826       8825  
      8694       8695       8706       8705       8815       8816       8827       8826  
      8695       8696       8707       8706       8816       8817       8828       8827  
      8696       8697       8708       8707       8817       8818       8829       8828  
      8697       8698       8709       8708       8818       8819       8830       8829  
      8698       8699       8710       8709       8819       8820       8831       8830  
      8699       8700       8711       8710       8820       8821       8832       8831  
      8700       8701       8712       8711       8821       8822       8833       8832  
      8713       8714       8725       8724       8834       8835       8846       8845  
      8714       8715       8726       8725       8835       8836       8847       8846  
      8715       8716       8727       8726       8836       8837       8848       8847  
      8716       8717       8728       8727       8837       8838       8849       8848  
      8717       8718       8729       8728       8838       8839       8850       8849  
      8718       8719       8730       8729       8839       8840       8851       8850  
      8719       8720       8731       8730       8840       8841       8852       8851  
      8720       8721       8732       8731       8841       8842       8853       8852  
      8721       8722       8733       8732       8842       8843       8854       8853  
      8722       8723       8734       8733       8843       8844       8855       8854  
      8724       8725       8736       8735       8845       8846       8857       8856  
      8725       8726       8737       8736       8846       8847       8858       8857  
      8726       8727       8738       8737       8847       8848       8859       8858  
      8727       8728       8739       8738       8848       8849       8860       8859  
      8728       8729       8740       8739       8849       8850       8861       8860  
      8729       8730       8741       8740       8850       8851       8862       8861  
      8730       8731       8742       8741       8851       8852       8863       8862  
      8731       8732       8743       8742       8852       8853       8864       8863  
      8732       8733       8744       8743       8853       8854       8865       8864  
      8733       8734       8745       8744       8854       8855       8866       8865  
      8735       8736       8747       8746       8856       8857       8868       8867  
      8736       8737       8748       8747       8857       8858       8869       8868  
      8737       8738       8749       8748       8858       8859       8870       8869  
      8738       8739       8750       8749       8859       8860       8871       8870  
      8739       8740       8751       8750       8860       8861       8872       8871  
      8740       8741       8752       8751       8861       8862       8873       8872  
      8741       8742       8753       8752       8862       8863       8874       8873  
      8742       8743       8754       8753       8863       8864       8875       8874  
      8743       8744       8755       8754       8864       8865       8876       8875  
      8744       8745       8756       8755       8865       8866       8877       8876  
      8746       8747       8758       8757       8867       8868       8879       8878  
      8747       8748       8759       8758       8868       8869       8880       8879  
      8748       8749       8760       8759       8869       8870       8881       8880  
      8749       8750       8761       8760       8870       8871       8882       8881  
      8750       8751       8762       8761       8871       8872       8883       8882  
      8751       8752       8763       8762       8872       8873       8884       8883  
      8752       8753       8764       8763       8873       8874       8885       8884  
      8753       8754       8765       8764       8874       8875       8886       8885  
      8754       8755       8766       8765       8875       8876       8887       8886  
      8755       8756       8767       8766       8876       8877       8888       8887  
      8757       8758       8769       8768       8878       8879       8890       8889  
      8758       8759       8770       8769       8879       8880       8891       8890  
      8759       8760       8771       8770       8880       8881       8892       8891  
      8760       8761       8772       8771       8881       8882       8893       8892  
      8761       8762       8773       8772       8882       8883       8894       8893  
      8762       8763       8774       8773       8883       8884       8895       8894  
      8763       8764       8775       8774       8884       8885       8896       8895  
      8764       8765       8776       8775       8885       8886       8897       8896  
      8765       8766       8777       8776       8886       8887       8898       8897  
      8766       8767       8778       8777       8887       8888       8899       8898  
      8768       8769       8780       8779       8889       8890       8901       8900  
      8769       8770       8781       8780       8890       8891       8902       8901  
      8770       8771       8782       8781       8891       8892       8903       8902  
      8771       8772       8783       8782       8892       8893       8904       8903  
      8772       8773       8784       8783       8893       8894       8905       8904  
      8773       8774       8785       8784       8894       8895       8906       8905  
      8774       8775       8786       8785       8895       8896       8907       8906  
      8775       8776       8787       8786       8896       8897       8908       8907  
      8776       8777       8788       8787       8897       8898       8909       8908  
      8777       8778       8789       8788       8898       8899       8910       8909  
      8779       8780       8791       8790       8900       8901       8912       8911  
      8780       8781       8792       8791       8901       8902       8913       8912  
      8781       8782       8793       8792       8902       8903       8914       8913  
      8782       8783       8794       8793       8903       8904       8915       8914  
      8783       8784       8795       8794       8904       8905       8916       8915  
      8784       8785       8796       8795       8905       8906       8917       8916  
      8785       8786       8797       8796       8906       8907       8918       8917  
      8786       8787       8798       8797       8907       8908       8919       8918  
      8787       8788       8799       8798       8908       8909       8920       8919  
      8788       8789       8800       8799       8909       8910       8921       8920  
      8790       8791       8802       8801       8911       8912       8923       8922  
      8791       8792       8803       8802       8912       8913       8924       8923  
      8792       8793       8804       8803       8913       8914       8925       8924  
      8793       8794       8805       8804       8914       8915       8926       8925  
      8794       8795       8806       8805       8915       8916       8927       8926  
      8795       8796       8807       8806       8916       8917       8928       8927  
      8796       8797       8808       8807       8917       8918       8929       8928  
      8797       8798       8809       8808       8918       8919       8930       8929  
      8798       8799       8810       8809       8919       8920       8931       8930  
      8799       8800       8811       8810       8920       8921       8932       8931  
      8801       8802       8813       8812       8922       8923       8934       8933  
      8802       8803       8814       8813       8923       8924       8935       8934  
      8803       8804       8815       8814       8924       8925       8936       8935  
      8804       8805       8816       8815       8925       8926       8937       8936  
      8805       8806       8817       8816       8926       8927       8938       8937  
      8806       8807       8818       8817       8927       8928       8939       8938  
      8807       8808       8819       8818       8928       8929       8940       8939  
      8808       8809       8820       8819       8929       8930       8941       8940  
      8809       8810       8821       8820       8930       8931       8942       8941  
      8810       8811       8822       8821       8931       8932       8943       8942  
      8812       8813       8824       8823       8933       8934       8945       8944  
      8813       8814       8825       8824       8934       8935       8946       8945  
      8814       8815       8826       8825       8935       8936       8947       8946  
      8815       8816       8827       8826       8936       8937       8948       8947  
      8816       8817       8828       8827       8937       8938       8949       8948  
      8817       8818       8829       8828       8938       8939       8950       8949  
      8818       8819       8830       8829       8939       8940       8951       8950  
      8819       8820       8831       8830       8940       8941       8952       8951  
      8820       8821       8832       8831       8941       8942       8953       8952  
      8821       8822       8833       8832       8942       8943       8954       8953  
      8834       8835       8846       8845       8955       8956       8967       8966  
      8835       8836       8847       8846       8956       8957       8968       8967  
      8836       8837       8848       8847       8957       8958       8969       8968  
      8837       8838       8849       8848       8958       8959       8970       8969  
      8838       8839       8850       8849       8959       8960       8971       8970  
      8839       8840       8851       8850       8960       8961       8972       8971  
      8840       8841       8852       8851       8961       8962       8973       8972  
      8841       8842       8853       8852       8962       8963       8974       8973  
      8842       8843       8854       8853       8963       8964       8975       8974  
      8843       8844       8855       8854       8964       8965       8976       8975  
      8845       8846       8857       8856       8966       8967       8978       8977  
      8846       8847       8858       8857       8967       8968       8979       8978  
      8847       8848       8859       8858       8968       8969       8980       8979  
      8848       8849       8860       8859       8969       8970       8981       8980  
      8849       8850       8861       8860       8970       8971       8982       8981  
      8850       8851       8862       8861       8971       8972       8983       8982  
      8851       8852       8863       8862       8972       8973       8984       8983  
      8852       8853       8864       8863       8973       8974       8985       8984  
      8853       8854       8865       8864       8974       8975       8986       8985  
      8854       8855       8866       8865       8975       8976       8987       8986  
      8856       8857       8868       8867       8977       8978       8989       8988  
      8857       8858       8869       8868       8978       8979       8990       8989  
      8858       8859       8870       8869       8979       8980       8991       8990  
      8859       8860       8871       8870       8980       8981       8992       8991  
      8860       8861       8872       8871       8981       8982       8993       8992  
      8861       8862       8873       8872       8982       8983       8994       8993  
      8862       8863       8874       8873       8983       8984       8995       8994  
      8863       8864       8875       8874       8984       8985       8996       8995  
      8864       8865       8876       8875       8985       8986       8997       8996  
      8865       8866       8877       8876       8986       8987       8998       8997  
      8867       8868       8879       8878       8988       8989       9000       8999  
      8868       8869       8880       8879       8989       8990       9001       9000  
      8869       8870       8881       8880       8990       8991       9002       9001  
      8870       8871       8882       8881       8991       8992       9003       9002  
      8871       8872       8883       8882       8992       8993       9004       9003  
      8872       8873       8884       8883       8993       8994       9005       9004  
      8873       8874       8885       8884       8994       8995       9006       9005  
      8874       8875       8886       8885       8995       8996       9007       9006  
      8875       8876       8887       8886       8996       8997       9008       9007  
      8876       8877       8888       8887       8997       8998       9009       9008  
      8878       8879       8890       8889       8999       9000       9011       9010  
      8879       8880       8891       8890       9000       9001       9012       9011  
      8880       8881       8892       8891       9001       9002       9013       9012  
      8881       8882       8893       8892       9002       9003       9014       9013  
      8882       8883       8894       8893       9003       9004       9015       9014  
      8883       8884       8895       8894       9004       9005       9016       9015  
      8884       8885       8896       8895       9005       9006       9017       9016  
      8885       8886       8897       8896       9006       9007       9018       9017  
      8886       8887       8898       8897       9007       9008       9019       9018  
      8887       8888       8899       8898       9008       9009       9020       9019  
      8889       8890       8901       8900       9010       9011       9022       9021  
      8890       8891       8902       8901       9011       9012       9023       9022  
      8891       8892       8903       8902       9012       9013       9024       9023  
      8892       8893       8904       8903       9013       9014       9025       9024  
      8893       8894       8905       8904       9014       9015       9026       9025  
      8894       8895       8906       8905       9015       9016       9027       9026  
      8895       8896       8907       8906       9016       9017       9028       9027  
      8896       8897       8908       8907       9017       9018       9029       9028  
      8897       8898       8909       8908       9018       9019       9030       9029  
      8898       8899       8910       8909       9019       9020       9031       9030  
      8900       8901       8912       8911       9021       9022       9033       9032  
      8901       8902       8913       8912       9022       9023       9034       9033  
      8902       8903       8914       8913       9023       9024       9035       9034  
      8903       8904       8915       8914       9024       9025       9036       9035  
      8904       8905       8916       8915       9025       9026       9037       9036  
      8905       8906       8917       8916       9026       9027       9038       9037  
      8906       8907       8918       8917       9027       9028       9039       9038  
      8907       8908       8919       8918       9028       9029       9040       9039  
      8908       8909       8920       8919       9029       9030       9041       9040  
      8909       8910       8921       8920       9030       9031       9042       9041  
      8911       8912       8923       8922       9032       9033       9044       9043  
      8912       8913       8924       8923       9033       9034       9045       9044  
      8913       8914       8925       8924       9034       9035       9046       9045  
      8914       8915       8926       8925       9035       9036       9047       9046  
      8915       8916       8927       8926       9036       9037       9048       9047  
      8916       8917       8928       8927       9037       9038       9049       9048  
      8917       8918       8929       8928       9038       9039       9050       9049  
      8918       8919       8930       8929       9039       9040       9051       9050  
      8919       8920       8931       8930       9040       9041       9052       9051  
      8920       8921       8932       8931       9041       9042       9053       9052  
      8922       8923       8934       8933       9043       9044       9055       9054  
      8923       8924       8935       8934       9044       9045       9056       9055  
      8924       8925       8936       8935       9045       9046       9057       9056  
      8925       8926       8937       8936       9046       9047       9058       9057  
      8926       8927       8938       8937       9047       9048       9059       9058  
      8927       8928       8939       8938       9048       9049       9060       9059  
      8928       8929       8940       8939       9049       9050       9061       9060  
      8929       8930       8941       8940       9050       9051       9062       9061  
      8930       8931       8942       8941       9051       9052       9063       9062  
      8931       8932       8943       8942       9052       9053       9064       9063  
      8933       8934       8945       8944       9054       9055       9066       9065  
      8934       8935       8946       8945       9055       9056       9067       9066  
      8935       8936       8947       8946       9056       9057       9068       9067  
      8936       8937       8948       8947       9057       9058       9069       9068  
      8937       8938       8949       8948       9058       9059       9070       9069  
      8938       8939       8950       8949       9059       9060       9071       9070  
      8939       8940       8951       8950       9060       9061       9072       9071  
      8940       8941       8952       8951       9061       9062       9073       9072  
      8941       8942       8953       8952       9062       9063       9074       9073  
      8942       8943       8954       8953       9063       9064       9075       9074  
      8955       8956       8967       8966       9076       9077       9088       9087  
      8956       8957       8968       8967       9077       9078       9089       9088  
      8957       8958       8969       8968       9078       9079       9090       9089  
      8958       8959       8970       8969       9079       9080       9091       9090  
      8959       8960       8971       8970       9080       9081       9092       9091  
      8960       8961       8972       8971       9081       9082       9093       9092  
      8961       8962       8973       8972       9082       9083       9094       9093  
      8962       8963       8974       8973       9083       9084       9095       9094  
      8963       8964       8975       8974       9084       9085       9096       9095  
      8964       8965       8976       8975       9085       9086       9097       9096  
      8966       8967       8978       8977       9087       9088       9099       9098  
      8967       8968       8979       8978       9088       9089       9100       9099  
      8968       8969       8980       8979       9089       9090       9101       9100  
      8969       8970       8981       8980       9090       9091       9102       9101  
      8970       8971       8982       8981       9091       9092       9103       9102  
      8971       8972       8983       8982       9092       9093       9104       9103  
      8972       8973       8984       8983       9093       9094       9105       9104  
      8973       8974       8985       8984       9094       9095       9106       9105  
      8974       8975       8986       8985       9095       9096       9107       9106  
      8975       8976       8987       8986       9096       9097       9108       9107  
      8977       8978       8989       8988       9098       9099       9110       9109  
      8978       8979       8990       8989       9099       9100       9111       9110  
      8979       8980       8991       8990       9100       9101       9112       9111  
      8980       8981       8992       8991       9101       9102       9113       9112  
      8981       8982       8993       8992       9102       9103       9114       9113  
      8982       8983       8994       8993       9103       9104       9115       9114  
      8983       8984       8995       8994       9104       9105       9116       9115  
      8984       8985       8996       8995       9105       9106       9117       9116  
      8985       8986       8997       8996       9106       9107       9118       9117  
      8986       8987       8998       8997       9107       9108       9119       9118  
      8988       8989       9000       8999       9109       9110       9121       9120  
      8989       8990       9001       9000       9110       9111       9122       9121  
      8990       8991       9002       9001       9111       9112       9123       9122  
      8991       8992       9003       9002       9112       9113       9124       9123  
      8992       8993       9004       9003       9113       9114       9125       9124  
      8993       8994       9005       9004       9114       9115       9126       9125  
      8994       8995       9006       9005       9115       9116       9127       9126  
      8995       8996       9007       9006       9116       9117       9128       9127  
      8996       8997       9008       9007       9117       9118       9129       9128  
      8997       8998       9009       9008       9118       9119       9130       9129  
      8999       9000       9011       9010       9120       9121       9132       9131  
      9000       9001       9012       9011       9121       9122       9133       9132  
      9001       9002       9013       9012       9122       9123       9134       9133  
      9002       9003       9014       9013       9123       9124       9135       9134  
      9003       9004       9015       9014       9124       9125       9136       9135  
      9004       9005       9016       9015       9125       9126       9137       9136  
      9005       9006       9017       9016       9126       9127       9138       9137  
      9006       9007       9018       9017       9127       9128       9139       9138  
      9007       9008       9019       9018       9128       9129       9140       9139  
      9008       9009       9020       9019       9129       9130       9141       9140  
      9010       9011       9022       9021       9131       9132       9143       9142  
      9011       9012       9023       9022       9132       9133       9144       9143  
      9012       9013       9024       9023       9133       9134       9145       9144  
      9013       9014       9025       9024       9134       9135       9146       9145  
      9014       9015       9026       9025       9135       9136       9147       9146  
      9015       9016       9027       9026       9136       9137       9148       9147  
      9016       9017       9028       9027       9137       9138       9149       9148  
      9017       9018       9029       9028       9138       9139       9150       9149  
      9018       9019       9030       9029       9139       9140       9151       9150  
      9019       9020       9031       9030       9140       9141       9152       9151  
      9021       9022       9033       9032       9142       9143       9154       9153  
      9022       9023       9034       9033       9143       9144       9155       9154  
      9023       9024       9035       9034       9144       9145       9156       9155  
      9024       9025       9036       9035       9145       9146       9157       9156  
      9025       9026       9037       9036       9146       9147       9158       9157  
      9026       9027       9038       9037       9147       9148       9159       9158  
      9027       9028       9039       9038       9148       9149       9160       9159  
      9028       9029       9040       9039       9149       9150       9161       9160  
      9029       9030       9041       9040       9150       9151       9162       9161  
      9030       9031       9042       9041       9151       9152       9163       9162  
      9032       9033       9044       9043       9153       9154       9165       9164  
      9033       9034       9045       9044       9154       9155       9166       9165  
      9034       9035       9046       9045       9155       9156       9167       9166  
      9035       9036       9047       9046       9156       9157       9168       9167  
      9036       9037       9048       9047       9157       9158       9169       9168  
      9037       9038       9049       9048       9158       9159       9170       9169  
      9038       9039       9050       9049       9159       9160       9171       9170  
      9039       9040       9051       9050       9160       9161       9172       9171  
      9040       9041       9052       9051       9161       9162       9173       9172  
      9041       9042       9053       9052       9162       9163       9174       9173  
      9043       9044       9055       9054       9164       9165       9176       9175  
      9044       9045       9056       9055       9165       9166       9177       9176  
      9045       9046       9057       9056       9166       9167       9178       9177  
      9046       9047       9058       9057       9167       9168       9179       9178  
      9047       9048       9059       9058       9168       9169       9180       9179  
      9048       9049       9060       9059       9169       9170       9181       9180  
      9049       9050       9061       9060       9170       9171       9182       9181  
      9050       9051       9062       9061       9171       9172       9183       9182  
      9051       9052       9063       9062       9172       9173       9184       9183  
      9052       9053       9064       9063       9173       9174       9185       9184  
      9054       9055       9066       9065       9175       9176       9187       9186  
      9055       9056       9067       9066       9176       9177       9188       9187  
      9056       9057       9068       9067       9177       9178       9189       9188  
      9057       9058       9069       9068       9178       9179       9190       9189  
      9058       9059       9070       9069       9179       9180       9191       9190  
      9059       9060       9071       9070       9180       9181       9192       9191  
      9060       9061       9072       9071       9181       9182       9193       9192  
      9061       9062       9073       9072       9182       9183       9194       9193  
      9062       9063       9074       9073       9183       9184       9195       9194  
      9063       9064       9075       9074       9184       9185       9196       9195  
      9076       9077       9088       9087       9197       9198       9209       9208  
      9077       9078       9089       9088       9198       9199       9210       9209  
      9078       9079       9090       9089       9199       9200       9211       9210  
      9079       9080       9091       9090       9200       9201       9212       9211  
      9080       9081       9092       9091       9201       9202       9213       9212  
      9081       9082       9093       9092       9202       9203       9214       9213  
      9082       9083       9094       9093       9203       9204       9215       9214  
      9083       9084       9095       9094       9204       9205       9216       9215  
      9084       9085       9096       9095       9205       9206       9217       9216  
      9085       9086       9097       9096       9206       9207       9218       9217  
      9087       9088       9099       9098       9208       9209       9220       9219  
      9088       9089       9100       9099       9209       9210       9221       9220  
      9089       9090       9101       9100       9210       9211       9222       9221  
      9090       9091       9102       9101       9211       9212       9223       9222  
      9091       9092       9103       9102       9212       9213       9224       9223  
      9092       9093       9104       9103       9213       9214       9225       9224  
      9093       9094       9105       9104       9214       9215       9226       9225  
      9094       9095       9106       9105       9215       9216       9227       9226  
      9095       9096       9107       9106       9216       9217       9228       9227  
      9096       9097       9108       9107       9217       9218       9229       9228  
      9098       9099       9110       9109       9219       9220       9231       9230  
      9099       9100       9111       9110       9220       9221       9232       9231  
      9100       9101       9112       9111       9221       9222       9233       9232  
      9101       9102       9113       9112       9222       9223       9234       9233  
      9102       9103       9114       9113       9223       9224       9235       9234  
      9103       9104       9115       9114       9224       9225       9236       9235  
      9104       9105       9116       9115       9225       9226       9237       9236  
      9105       9106       9117       9116       9226       9227       9238       9237  
      9106       9107       9118       9117       9227       9228       9239       9238  
      9107       9108       9119       9118       9228       9229       9240       9239  
      9109       9110       9121       9120       9230       9231       9242       9241  
      9110       9111       9122       9121       9231       9232       9243       9242  
      9111       9112       9123       9122       9232       9233       9244       9243  
      9112       9113       9124       9123       9233       9234       9245       9244  
      9113       9114       9125       9124       9234       9235       9246       9245  
      9114       9115       9126       9125       9235       9236       9247       9246  
      9115       9116       9127       9126       9236       9237       9248       9247  
      9116       9117       9128       9127       9237       9238       9249       9248  
      9117       9118       9129       9128       9238       9239       9250       9249  
      9118       9119       9130       9129       9239       9240       9251       9250  
      9120       9121       9132       9131       9241       9242       9253       9252  
      9121       9122       9133       9132       9242       9243       9254       9253  
      9122       9123       9134       9133       9243       9244       9255       9254  
      9123       9124       9135       9134       9244       9245       9256       9255  
      9124       9125       9136       9135       9245       9246       9257       9256  
      9125       9126       9137       9136       9246       9247       9258       9257  
      9126       9127       9138       9137       9247       9248       9259       9258  
      9127       9128       9139       9138       9248       9249       9260       9259  
      9128       9129       9140       9139       9249       9250       9261       9260  
      9129       9130       9141       9140       9250       9251       9262       9261  
      9131       9132       9143       9142       9252       9253       9264       9263  
      9132       9133       9144       9143       9253       9254       9265       9264  
      9133       9134       9145       9144       9254       9255       9266       9265  
      9134       9135       9146       9145       9255       9256       9267       9266  
      9135       9136       9147       9146       9256       9257       9268       9267  
      9136       9137       9148       9147       9257       9258       9269       9268  
      9137       9138       9149       9148       9258       9259       9270       9269  
      9138       9139       9150       9149       9259       9260       9271       9270  
      9139       9140       9151       9150       9260       9261       9272       9271  
      9140       9141       9152       9151       9261       9262       9273       9272  
      9142       9143       9154       9153       9263       9264       9275       9274  
      9143       9144       9155       9154       9264       9265       9276       9275  
      9144       9145       9156       9155       9265       9266       9277       9276  
      9145       9146       9157       9156       9266       9267       9278       9277  
      9146       9147       9158       9157       9267       9268       9279       9278  
      9147       9148       9159       9158       9268       9269       9280       9279  
      9148       9149       9160       9159       9269       9270       9281       9280  
      9149       9150       9161       9160       9270       9271       9282       9281  
      9150       9151       9162       9161       9271       9272       9283       9282  
      9151       9152       9163       9162       9272       9273       9284       9283  
      9153       9154       9165       9164       9274       9275       9286       9285  
      9154       9155       9166       9165       9275       9276       9287       9286  
      9155       9156       9167       9166       9276       9277       9288       9287  
      9156       9157       9168       9167       9277       9278       9289       9288  
      9157       9158       9169       9168       9278       9279       9290       9289  
      9158       9159       9170       9169       9279       9280       9291       9290  
      9159       9160       9171       9170       9280       9281       9292       9291  
      9160       9161       9172       9171       9281       9282       9293       9292  
      9161       9162       9173       9172       9282       9283       9294       9293  
      9162       9163       9174       9173       9283       9284       9295       9294  
      9164       9165       9176       9175       9285       9286       9297       9296  
      9165       9166       9177       9176       9286       9287       9298       9297  
      9166       9167       9178       9177       9287       9288       9299       9298  
      9167       9168       9179       9178       9288       9289       9300       9299  
      9168       9169       9180       9179       9289       9290       9301       9300  
      9169       9170       9181       9180       9290       9291       9302       9301  
      9170       9171       9182       9181       9291       9292       9303       9302  
      9171       9172       9183       9182       9292       9293       9304       9303  
      9172       9173       9184       9183       9293       9294       9305       9304  
      9173       9174       9185       9184       9294       9295       9306       9305  
      9175       9176       9187       9186       9296       9297       9308       9307  
      9176       9177       9188       9187       9297       9298       9309       9308  
      9177       9178       9189       9188       9298       9299       9310       9309  
      9178       9179       9190       9189       9299       9300       9311       9310  
      9179       9180       9191       9190       9300       9301       9312       9311  
      9180       9181       9192       9191       9301       9302       9313       9312  
      9181       9182       9193       9192       9302       9303       9314       9313  
      9182       9183       9194       9193       9303       9304       9315       9314  
      9183       9184       9195       9194       9304       9305       9316       9315  
      9184       9185       9196       9195       9305       9306       9317       9316  
      9197       9198       9209       9208       9318       9319       9330       9329  
      9198       9199       9210       9209       9319       9320       9331       9330  
      9199       9200       9211       9210       9320       9321       9332       9331  
      9200       9201       9212       9211       9321       9322       9333       9332  
      9201       9202       9213       9212       9322       9323       9334       9333  
      9202       9203       9214       9213       9323       9324       9335       9334  
      9203       9204       9215       9214       9324       9325       9336       9335  
      9204       9205       9216       9215       9325       9326       9337       9336  
      9205       9206       9217       9216       9326       9327       9338       9337  
      9206       9207       9218       9217       9327       9328       9339       9338  
      9208       9209       9220       9219       9329       9330       9341       9340  
      9209       9210       9221       9220       9330       9331       9342       9341  
      9210       9211       9222       9221       9331       9332       9343       9342  
      9211       9212       9223       9222       9332       9333       9344       9343  
      9212       9213       9224       9223       9333       9334       9345       9344  
      9213       9214       9225       9224       9334       9335       9346       9345  
      9214       9215       9226       9225       9335       9336       9347       9346  
      9215       9216       9227       9226       9336       9337       9348       9347  
      9216       9217       9228       9227       9337       9338       9349       9348  
      9217       9218       9229       9228       9338       9339       9350       9349  
      9219       9220       9231       9230       9340       9341       9352       9351  
      9220       9221       9232       9231       9341       9342       9353       9352  
      9221       9222       9233       9232       9342       9343       9354       9353  
      9222       9223       9234       9233       9343       9344       9355       9354  
      9223       9224       9235       9234       9344       9345       9356       9355  
      9224       9225       9236       9235       9345       9346       9357       9356  
      9225       9226       9237       9236       9346       9347       9358       9357  
      9226       9227       9238       9237       9347       9348       9359       9358  
      9227       9228       9239       9238       9348       9349       9360       9359  
      9228       9229       9240       9239       9349       9350       9361       9360  
      9230       9231       9242       9241       9351       9352       9363       9362  
      9231       9232       9243       9242       9352       9353       9364       9363  
      9232       9233       9244       9243       9353       9354       9365       9364  
      9233       9234       9245       9244       9354       9355       9366       9365  
      9234       9235       9246       9245       9355       9356       9367       9366  
      9235       9236       9247       9246       9356       9357       9368       9367  
      9236       9237       9248       9247       9357       9358       9369       9368  
      9237       9238       9249       9248       9358       9359       9370       9369  
      9238       9239       9250       9249       9359       9360       9371       9370  
      9239       9240       9251       9250       9360       9361       9372       9371  
      9241       9242       9253       9252       9362       9363       9374       9373  
      9242       9243       9254       9253       9363       9364       9375       9374  
      9243       9244       9255       9254       9364       9365       9376       9375  
      9244       9245       9256       9255       9365       9366       9377       9376  
      9245       9246       9257       9256       9366       9367       9378       9377  
      9246       9247       9258       9257       9367       9368       9379       9378  
      9247       9248       9259       9258       9368       9369       9380       9379  
      9248       9249       9260       9259       9369       9370       9381       9380  
      9249       9250       9261       9260       9370       9371       9382       9381  
      9250       9251       9262       9261       9371       9372       9383       9382  
      9252       9253       9264       9263       9373       9374       9385       9384  
      9253       9254       9265       9264       9374       9375       9386       9385  
      9254       9255       9266       9265       9375       9376       9387       9386  
      9255       9256       9267       9266       9376       9377       9388       9387  
      9256       9257       9268       9267       9377       9378       9389       9388  
      9257       9258       9269       9268       9378       9379       9390       9389  
      9258       9259       9270       9269       9379       9380       9391       9390  
      9259       9260       9271       9270       9380       9381       9392       9391  
      9260       9261       9272       9271       9381       9382       9393       9392  
      9261       9262       9273       9272       9382       9383       9394       9393  
      9263       9264       9275       9274       9384       9385       9396       9395  
      9264       9265       9276       9275       9385       9386       9397       9396  
      9265       9266       9277       9276       9386       9387       9398       9397  
      9266       9267       9278       9277       9387       9388       9399       9398  
      9267       9268       9279       9278       9388       9389       9400       9399  
      9268       9269       9280       9279       9389       9390       9401       9400  
      9269       9270       9281       9280       9390       9391       9402       9401  
      9270       9271       9282       9281       9391       9392       9403       9402  
      9271       9272       9283       9282       9392       9393       9404       9403  
      9272       9273       9284       9283       9393       9394       9405       9404  
      9274       9275       9286       9285       9395       9396       9407       9406  
      9275       9276       9287       9286       9396       9397       9408       9407  
      9276       9277       9288       9287       9397       9398       9409       9408  
      9277       9278       9289       9288       9398       9399       9410       9409  
      9278       9279       9290       9289       9399       9400       9411       9410  
      9279       9280       9291       9290       9400       9401       9412       9411  
      9280       9281       9292       9291       9401       9402       9413       9412  
      9281       9282       9293       9292       9402       9403       9414       9413  
      9282       9283       9294       9293       9403       9404       9415       9414  
      9283       9284       9295       9294       9404       9405       9416       9415  
      9285       9286       9297       9296       9406       9407       9418       9417  
      9286       9287       9298       9297       9407       9408       9419       9418  
      9287       9288       9299       9298       9408       9409       9420       9419  
      9288       9289       9300       9299       9409       9410       9421       9420  
      9289       9290       9301       9300       9410       9411       9422       9421  
      9290       9291       9302       9301       9411       9412       9423       9422  
      9291       9292       9303       9302       9412       9413       9424       9423  
      9292       9293       9304       9303       9413       9414       9425       9424  
      9293       9294       9305       9304       9414       9415       9426       9425  
      9294       9295       9306       9305       9415       9416       9427       9426  
      9296       9297       9308       9307       9417       9418       9429       9428  
      9297       9298       9309       9308       9418       9419       9430       9429  
      9298       9299       9310       9309       9419       9420       9431       9430  
      9299       9300       9311       9310       9420       9421       9432       9431  
      9300       9301       9312       9311       9421       9422       9433       9432  
      9301       9302       9313       9312       9422       9423       9434       9433  
      9302       9303       9314       9313       9423       9424       9435       9434  
      9303       9304       9315       9314       9424       9425       9436       9435  
      9304       9305       9316       9315       9425       9426       9437       9436  
      9305       9306       9317       9316       9426       9427       9438       9437  
      9318       9319       9330       9329       9439       9440       9451       9450  
      9319       9320       9331       9330       9440       9441       9452       9451  
      9320       9321       9332       9331       9441       9442       9453       9452  
      9321       9322       9333       9332       9442       9443       9454       9453  
      9322       9323       9334       9333       9443       9444       9455       9454  
      9323       9324       9335       9334       9444       9445       9456       9455  
      9324       9325       9336       9335       9445       9446       9457       9456  
      9325       9326       9337       9336       9446       9447       9458       9457  
      9326       9327       9338       9337       9447       9448       9459       9458  
      9327       9328       9339       9338       9448       9449       9460       9459  
      9329       9330       9341       9340       9450       9451       9462       9461  
      9330       9331       9342       9341       9451       9452       9463       9462  
      9331       9332       9343       9342       9452       9453       9464       9463  
      9332       9333       9344       9343       9453       9454       9465       9464  
      9333       9334       9345       9344       9454       9455       9466       9465  
      9334       9335       9346       9345       9455       9456       9467       9466  
      9335       9336       9347       9346       9456       9457       9468       9467  
      9336       9337       9348       9347       9457       9458       9469       9468  
      9337       9338       9349       9348       9458       9459       9470       9469  
      9338       9339       9350       9349       9459       9460       9471       9470  
      9340       9341       9352       9351       9461       9462       9473       9472  
      9341       9342       9353       9352       9462       9463       9474       9473  
      9342       9343       9354       9353       9463       9464       9475       9474  
      9343       9344       9355       9354       9464       9465       9476       9475  
      9344       9345       9356       9355       9465       9466       9477       9476  
      9345       9346       9357       9356       9466       9467       9478       9477  
      9346       9347       9358       9357       9467       9468       9479       9478  
      9347       9348       9359       9358       9468       9469       9480       9479  
      9348       9349       9360       9359       9469       9470       9481       9480  
      9349       9350       9361       9360       9470       9471       9482       9481  
      9351       9352       9363       9362       9472       9473       9484       9483  
      9352       9353       9364       9363       9473       9474       9485       9484  
      9353       9354       9365       9364       9474       9475       9486       9485  
      9354       9355       9366       9365       9475       9476       9487       9486  
      9355       9356       9367       9366       9476       9477       9488       9487  
      9356       9357       9368       9367       9477       9478       9489       9488  
      9357       9358       9369       9368       9478       9479       9490       9489  
      9358       9359       9370       9369       9479       9480       9491       9490  
      9359       9360       9371       9370       9480       9481       9492       9491  
      9360       9361       9372       9371       9481       9482       9493       9492  
      9362       9363       9374       9373       9483       9484       9495       9494  
      9363       9364       9375       9374       9484       9485       9496       9495  
      9364       9365       9376       9375       9485       9486       9497       9496  
      9365       9366       9377       9376       9486       9487       9498       9497  
      9366       9367       9378       9377       9487       9488       9499       9498  
      9367       9368       9379       9378       9488       9489       9500       9499  
      9368       9369       9380       9379       9489       9490       9501       9500  
      9369       9370       9381       9380       9490       9491       9502       9501  
      9370       9371       9382       9381       9491       9492       9503       9502  
      9371       9372       9383       9382       9492       9493       9504       9503  
      9373       9374       9385       9384       9494       9495       9506       9505  
      9374       9375       9386       9385       9495       9496       9507       9506  
      9375       9376       9387       9386       9496       9497       9508       9507  
      9376       9377       9388       9387       9497       9498       9509       9508  
      9377       9378       9389       9388       9498       9499       9510       9509  
      9378       9379       9390       9389       9499       9500       9511       9510  
      9379       9380       9391       9390       9500       9501       9512       9511  
      9380       9381       9392       9391       9501       9502       9513       9512  
      9381       9382       9393       9392       9502       9503       9514       9513  
      9382       9383       9394       9393       9503       9504       9515       9514  
      9384       9385       9396       9395       9505       9506       9517       9516  
      9385       9386       9397       9396       9506       9507       9518       9517  
      9386       9387       9398       9397       9507       9508       9519       9518  
      9387       9388       9399       9398       9508       9509       9520       9519  
      9388       9389       9400       9399       9509       9510       9521       9520  
      9389       9390       9401       9400       9510       9511       9522       9521  
      9390       9391       9402       9401       9511       9512       9523       9522  
      9391       9392       9403       9402       9512       9513       9524       9523  
      9392       9393       9404       9403       9513       9514       9525       9524  
      9393       9394       9405       9404       9514       9515       9526       9525  
      9395       9396       9407       9406       9516       9517       9528       9527  
      9396       9397       9408       9407       9517       9518       9529       9528  
      9397       9398       9409       9408       9518       9519       9530       9529  
      9398       9399       9410       9409       9519       9520       9531       9530  
      9399       9400       9411       9410       9520       9521       9532       9531  
      9400       9401       9412       9411       9521       9522       9533       9532  
      9401       9402       9413       9412       9522       9523       9534       9533  
      9402       9403       9414       9413       9523       9524       9535       9534  
      9403       9404       9415       9414       9524       9525       9536       9535  
      9404       9405       9416       9415       9525       9526       9537       9536  
      9406       9407       9418       9417       9527       9528       9539       9538  
      9407       9408       9419       9418       9528       9529       9540       9539  
      9408       9409       9420       9419       9529       9530       9541       9540  
      9409       9410       9421       9420       9530       9531       9542       9541  
      9410       9411       9422       9421       9531       9532       9543       9542  
      9411       9412       9423       9422       9532       9533       9544       9543  
      9412       9413       9424       9423       9533       9534       9545       9544  
      9413       9414       9425       9424       9534       9535       9546       9545  
      9414       9415       9426       9425       9535       9536       9547       9546  
      9415       9416       9427       9426       9536       9537       9548       9547  
      9417       9418       9429       9428       9538       9539       9550       9549  
      9418       9419       9430       9429       9539       9540       9551       9550  
      9419       9420       9431       9430       9540       9541       9552       9551  
      9420       9421       9432       9431       9541       9542       9553       9552  
      9421       9422       9433       9432       9542       9543       9554       9553  
      9422       9423       9434       9433       9543       9544       9555       9554  
      9423       9424       9435       9434       9544       9545       9556       9555  
      9424       9425       9436       9435       9545       9546       9557       9556  
      9425       9426       9437       9436       9546       9547       9558       9557  
      9426       9427       9438       9437       9547       9548       9559       9558  
      9439       9440       9451       9450       9560       9561       9572       9571  
      9440       9441       9452       9451       9561       9562       9573       9572  
      9441       9442       9453       9452       9562       9563       9574       9573  
      9442       9443       9454       9453       9563       9564       9575       9574  
      9443       9444       9455       9454       9564       9565       9576       9575  
      9444       9445       9456       9455       9565       9566       9577       9576  
      9445       9446       9457       9456       9566       9567       9578       9577  
      9446       9447       9458       9457       9567       9568       9579       9578  
      9447       9448       9459       9458       9568       9569       9580       9579  
      9448       9449       9460       9459       9569       9570       9581       9580  
      9450       9451       9462       9461       9571       9572       9583       9582  
      9451       9452       9463       9462       9572       9573       9584       9583  
      9452       9453       9464       9463       9573       9574       9585       9584  
      9453       9454       9465       9464       9574       9575       9586       9585  
      9454       9455       9466       9465       9575       9576       9587       9586  
      9455       9456       9467       9466       9576       9577       9588       9587  
      9456       9457       9468       9467       9577       9578       9589       9588  
      9457       9458       9469       9468       9578       9579       9590       9589  
      9458       9459       9470       9469       9579       9580       9591       9590  
      9459       9460       9471       9470       9580       9581       9592       9591  
      9461       9462       9473       9472       9582       9583       9594       9593  
      9462       9463       9474       9473       9583       9584       9595       9594  
      9463       9464       9475       9474       9584       9585       9596       9595  
      9464       9465       9476       9475       9585       9586       9597       9596  
      9465       9466       9477       9476       9586       9587       9598       9597  
      9466       9467       9478       9477       9587       9588       9599       9598  
      9467       9468       9479       9478       9588       9589       9600       9599  
      9468       9469       9480       9479       9589       9590       9601       9600  
      9469       9470       9481       9480       9590       9591       9602       9601  
      9470       9471       9482       9481       9591       9592       9603       9602  
      9472       9473       9484       9483       9593       9594       9605       9604  
      9473       9474       9485       9484       9594       9595       9606       9605  
      9474       9475       9486       9485       9595       9596       9607       9606  
      9475       9476       9487       9486       9596       9597       9608       9607  
      9476       9477       9488       9487       9597       9598       9609       9608  
      9477       9478       9489       9488       9598       9599       9610       9609  
      9478       9479       9490       9489       9599       9600       9611       9610  
      9479       9480       9491       9490       9600       9601       9612       9611  
      9480       9481       9492       9491       9601       9602       9613       9612  
      9481       9482       9493       9492       9602       9603       9614       9613  
      9483       9484       9495       9494       9604       9605       9616       9615  
      9484       9485       9496       9495       9605       9606       9617       9616  
      9485       9486       9497       9496       9606       9607       9618       9617  
      9486       9487       9498       9497       9607       9608       9619       9618  
      9487       9488       9499       9498       9608       9609       9620       9619  
      9488       9489       9500       9499       9609       9610       9621       9620  
      9489       9490       9501       9500       9610       9611       9622       9621  
      9490       9491       9502       9501       9611       9612       9623       9622  
      9491       9492       9503       9502       9612       9613       9624       9623  
      9492       9493       9504       9503       9613       9614       9625       9624  
      9494       9495       9506       9505       9615       9616       9627       9626  
      9495       9496       9507       9506       9616       9617       9628       9627  
      9496       9497       9508       9507       9617       9618       9629       9628  
      9497       9498       9509       9508       9618       9619       9630       9629  
      9498       9499       9510       9509       9619       9620       9631       9630  
      9499       9500       9511       9510       9620       9621       9632       9631  
      9500       9501       9512       9511       9621       9622       9633       9632  
      9501       9502       9513       9512       9622       9623       9634       9633  
      9502       9503       9514       9513       9623       9624       9635       9634  
      9503       9504       9515       9514       9624       9625       9636       9635  
      9505       9506       9517       9516       9626       9627       9638       9637  
      9506       9507       9518       9517       9627       9628       9639       9638  
      9507       9508       9519       9518       9628       9629       9640       9639  
      9508       9509       9520       9519       9629       9630       9641       9640  
      9509       9510       9521       9520       9630       9631       9642       9641  
      9510       9511       9522       9521       9631       9632       9643       9642  
      9511       9512       9523       9522       9632       9633       9644       9643  
      9512       9513       9524       9523       9633       9634       9645       9644  
      9513       9514       9525       9524       9634       9635       9646       9645  
      9514       9515       9526       9525       9635       9636       9647       9646  
      9516       9517       9528       9527       9637       9638       9649       9648  
      9517       9518       9529       9528       9638       9639       9650       9649  
      9518       9519       9530       9529       9639       9640       9651       9650  
      9519       9520       9531       9530       9640       9641       9652       9651  
      9520       9521       9532       9531       9641       9642       9653       9652  
      9521       9522       9533       9532       9642       9643       9654       9653  
      9522       9523       9534       9533       9643       9644       9655       9654  
      9523       9524       9535       9534       9644       9645       9656       9655  
      9524       9525       9536       9535       9645       9646       9657       9656  
      9525       9526       9537       9536       9646       9647       9658       9657  
      9527       9528       9539       9538       9648       9649       9660       9659  
      9528       9529       9540       9539       9649       9650       9661       9660  
      9529       9530       9541       9540       9650       9651       9662       9661  
      9530       9531       9542       9541       9651       9652       9663       9662  
      9531       9532       9543       9542       9652       9653       9664       9663  
      9532       9533       9544       9543       9653       9654       9665       9664  
      9533       9534       9545       9544       9654       9655       9666       9665  
      9534       9535       9546       9545       9655       9656       9667       9666  
      9535       9536       9547       9546       9656       9657       9668       9667  
      9536       9537       9548       9547       9657       9658       9669       9668  
      9538       9539       9550       9549       9659       9660       9671       9670  
      9539       9540       9551       9550       9660       9661       9672       9671  
      9540       9541       9552       9551       9661       9662       9673       9672  
      9541       9542       9553       9552       9662       9663       9674       9673  
      9542       9543       9554       9553       9663       9664       9675       9674  
      9543       9544       9555       9554       9664       9665       9676       9675  
      9544       9545       9556       9555       9665       9666       9677       9676  
      9545       9546       9557       9556       9666       9667       9678       9677  
      9546       9547       9558       9557       9667       9668       9679       9678  
      9547       9548       9559       9558       9668       9669       9680       9679  
      9560       9561       9572       9571       9681       9682       9693       9692  
      9561       9562       9573       9572       9682       9683       9694       9693  
      9562       9563       9574       9573       9683       9684       9695       9694  
      9563       9564       9575       9574       9684       9685       9696       9695  
      9564       9565       9576       9575       9685       9686       9697       9696  
      9565       9566       9577       9576       9686       9687       9698       9697  
      9566       9567       9578       9577       9687       9688       9699       9698  
      9567       9568       9579       9578       9688       9689       9700       9699  
      9568       9569       9580       9579       9689       9690       9701       9700  
      9569       9570       9581       9580       9690       9691       9702       9701  
      9571       9572       9583       9582       9692       9693       9704       9703  
      9572       9573       9584       9583       9693       9694       9705       9704  
      9573       9574       9585       9584       9694       9695       9706       9705  
      9574       9575       9586       9585       9695       9696       9707       9706  
      9575       9576       9587       9586       9696       9697       9708       9707  
      9576       9577       9588       9587       9697       9698       9709       9708  
      9577       9578       9589       9588       9698       9699       9710       9709  
      9578       9579       9590       9589       9699       9700       9711       9710  
      9579       9580       9591       9590       9700       9701       9712       9711  
      9580       9581       9592       9591       9701       9702       9713       9712  
      9582       9583       9594       9593       9703       9704       9715       9714  
      9583       9584       9595       9594       9704       9705       9716       9715  
      9584       9585       9596       9595       9705       9706       9717       9716  
      9585       9586       9597       9596       9706       9707       9718       9717  
      9586       9587       9598       9597       9707       9708       9719       9718  
      9587       9588       9599       9598       9708       9709       9720       9719  
      9588       9589       9600       9599       9709       9710       9721       9720  
      9589       9590       9601       9600       9710       9711       9722       9721  
      9590       9591       9602       9601       9711       9712       9723       9722  
      9591       9592       9603       9602       9712       9713       9724       9723  
      9593       9594       9605       9604       9714       9715       9726       9725  
      9594       9595       9606       9605       9715       9716       9727       9726  
      9595       9596       9607       9606       9716       9717       9728       9727  
      9596       9597       9608       9607       9717       9718       9729       9728  
      9597       9598       9609       9608       9718       9719       9730       9729  
      9598       9599       9610       9609       9719       9720       9731       9730  
      9599       9600       9611       9610       9720       9721       9732       9731  
      9600       9601       9612       9611       9721       9722       9733       9732  
      9601       9602       9613       9612       9722       9723       9734       9733  
      9602       9603       9614       9613       9723       9724       9735       9734  
      9604       9605       9616       9615       9725       9726       9737       9736  
      9605       9606       9617       9616       9726       9727       9738       9737  
      9606       9607       9618       9617       9727       9728       9739       9738  
      9607       9608       9619       9618       9728       9729       9740       9739  
      9608       9609       9620       9619       9729       9730       9741       9740  
      9609       9610       9621       9620       9730       9731       9742       9741  
      9610       9611       9622       9621       9731       9732       9743       9742  
      9611       9612       9623       9622       9732       9733       9744       9743  
      9612       9613       9624       9623       9733       9734       9745       9744  
      9613       9614       9625       9624       9734       9735       9746       9745  
      9615       9616       9627       9626       9736       9737       9748       9747  
      9616       9617       9628       9627       9737       9738       9749       9748  
      9617       9618       9629       9628       9738       9739       9750       9749  
      9618       9619       9630       9629       9739       9740       9751       9750  
      9619       9620       9631       9630       9740       9741       9752       9751  
      9620       9621       9632       9631       9741       9742       9753       9752  
      9621       9622       9633       9632       9742       9743       9754       9753  
      9622       9623       9634       9633       9743       9744       9755       9754  
      9623       9624       9635       9634       9744       9745       9756       9755  
      9624       9625       9636       9635       9745       9746       9757       9756  
      9626       9627       9638       9637       9747       9748       9759       9758  
      9627       9628       9639       9638       9748       9749       9760       9759  
      9628       9629       9640       9639       9749       9750       9761       9760  
      9629       9630       9641       9640       9750       9751       9762       9761  
      9630       9631       9642       9641       9751       9752       9763       9762  
      9631       9632       9643       9642       9752       9753       9764       9763  
      9632       9633       9644       9643       9753       9754       9765       9764  
      9633       9634       9645       9644       9754       9755       9766       9765  
      9634       9635       9646       9645       9755       9756       9767       9766  
      9635       9636       9647       9646       9756       9757       9768       9767  
      9637       9638       9649       9648       9758       9759       9770       9769  
      9638       9639       9650       9649       9759       9760       9771       9770  
      9639       9640       9651       9650       9760       9761       9772       9771  
      9640       9641       9652       9651       9761       9762       9773       9772  
      9641       9642       9653       9652       9762       9763       9774       9773  
      9642       9643       9654       9653       9763       9764       9775       9774  
      9643       9644       9655       9654       9764       9765       9776       9775  
      9644       9645       9656       9655       9765       9766       9777       9776  
      9645       9646       9657       9656       9766       9767       9778       9777  
      9646       9647       9658       9657       9767       9768       9779       9778  
      9648       9649       9660       9659       9769       9770       9781       9780  
      9649       9650       9661       9660       9770       9771       9782       9781  
      9650       9651       9662       9661       9771       9772       9783       9782  
      9651       9652       9663       9662       9772       9773       9784       9783  
      9652       9653       9664       9663       9773       9774       9785       9784  
      9653       9654       9665       9664       9774       9775       9786       9785  
      9654       9655       9666       9665       9775       9776       9787       9786  
      9655       9656       9667       9666       9776       9777       9788       9787  
      9656       9657       9668       9667       9777       9778       9789       9788  
      9657       9658       9669       9668       9778       9779       9790       9789  
      9659       9660       9671       9670       9780       9781       9792       9791  
      9660       9661       9672       9671       9781       9782       9793       9792  
      9661       9662       9673       9672       9782       9783       9794       9793  
      9662       9663       9674       9673       9783       9784       9795       9794  
      9663       9664       9675       9674       9784       9785       9796       9795  
      9664       9665       9676       9675       9785       9786       9797       9796  
      9665       9666       9677       9676       9786       9787       9798       9797  
      9666       9667       9678       9677       9787       9788       9799       9798  
      9667       9668       9679       9678       9788       9789       9800       9799  
      9668       9669       9680       9679       9789       9790       9801       9800  
      9681       9682       9693       9692       9802       9803       9814       9813  
      9682       9683       9694       9693       9803       9804       9815       9814  
      9683       9684       9695       9694       9804       9805       9816       9815  
      9684       9685       9696       9695       9805       9806       9817       9816  
      9685       9686       9697       9696       9806       9807       9818       9817  
      9686       9687       9698       9697       9807       9808       9819       9818  
      9687       9688       9699       9698       9808       9809       9820       9819  
      9688       9689       9700       9699       9809       9810       9821       9820  
      9689       9690       9701       9700       9810       9811       9822       9821  
      9690       9691       9702       9701       9811       9812       9823       9822  
      9692       9693       9704       9703       9813       9814       9825       9824  
      9693       9694       9705       9704       9814       9815       9826       9825  
      9694       9695       9706       9705       9815       9816       9827       9826  
      9695       9696       9707       9706       9816       9817       9828       9827  
      9696       9697       9708       9707       9817       9818       9829       9828  
      9697       9698       9709       9708       9818       9819       9830       9829  
      9698       9699       9710       9709       9819       9820       9831       9830  
      9699       9700       9711       9710       9820       9821       9832       9831  
      9700       9701       9712       9711       9821       9822       9833       9832  
      9701       9702       9713       9712       9822       9823       9834       9833  
      9703       9704       9715       9714       9824       9825       9836       9835  
      9704       9705       9716       9715       9825       9826       9837       9836  
      9705       9706       9717       9716       9826       9827       9838       9837  
      9706       9707       9718       9717       9827       9828       9839       9838  
      9707       9708       9719       9718       9828       9829       9840       9839  
      9708       9709       9720       9719       9829       9830       9841       9840  
      9709       9710       9721       9720       9830       9831       9842       9841  
      9710       9711       9722       9721       9831       9832       9843       9842  
      9711       9712       9723       9722       9832       9833       9844       9843  
      9712       9713       9724       9723       9833       9834       9845       9844  
      9714       9715       9726       9725       9835       9836       9847       9846  
      9715       9716       9727       9726       9836       9837       9848       9847  
      9716       9717       9728       9727       9837       9838       9849       9848  
      9717       9718       9729       9728       9838       9839       9850       9849  
      9718       9719       9730       9729       9839       9840       9851       9850  
      9719       9720       9731       9730       9840       9841       9852       9851  
      9720       9721       9732       9731       9841       9842       9853       9852  
      9721       9722       9733       9732       9842       9843       9854       9853  
      9722       9723       9734       9733       9843       9844       9855       9854  
      9723       9724       9735       9734       9844       9845       9856       9855  
      9725       9726       9737       9736       9846       9847       9858       9857  
      9726       9727       9738       9737       9847       9848       9859       9858  
      9727       9728       9739       9738       9848       9849       9860       9859  
      9728       9729       9740       9739       9849       9850       9861       9860  
      9729       9730       9741       9740       9850       9851       9862       9861  
      9730       9731       9742       9741       9851       9852       9863       9862  
      9731       9732       9743       9742       9852       9853       9864       9863  
      9732       9733       9744       9743       9853       9854       9865       9864  
      9733       9734       9745       9744       9854       9855       9866       9865  
      9734       9735       9746       9745       9855       9856       9867       9866  
      9736       9737       9748       9747       9857       9858       9869       9868  
      9737       9738       9749       9748       9858       9859       9870       9869  
      9738       9739       9750       9749       9859       9860       9871       9870  
      9739       9740       9751       9750       9860       9861       9872       9871  
      9740       9741       9752       9751       9861       9862       9873       9872  
      9741       9742       9753       9752       9862       9863       9874       9873  
      9742       9743       9754       9753       9863       9864       9875       9874  
      9743       9744       9755       9754       9864       9865       9876       9875  
      9744       9745       9756       9755       9865       9866       9877       9876  
      9745       9746       9757       9756       9866       9867       9878       9877  
      9747       9748       9759       9758       9868       9869       9880       9879  
      9748       9749       9760       9759       9869       9870       9881       9880  
      9749       9750       9761       9760       9870       9871       9882       9881  
      9750       9751       9762       9761       9871       9872       9883       9882  
      9751       9752       9763       9762       9872       9873       9884       9883  
      9752       9753       9764       9763       9873       9874       9885       9884  
      9753       9754       9765       9764       9874       9875       9886       9885  
      9754       9755       9766       9765       9875       9876       9887       9886  
      9755       9756       9767       9766       9876       9877       9888       9887  
      9756       9757       9768       9767       9877       9878       9889       9888  
      9758       9759       9770       9769       9879       9880       9891       9890  
      9759       9760       9771       9770       9880       9881       9892       9891  
      9760       9761       9772       9771       9881       9882       9893       9892  
      9761       9762       9773       9772       9882       9883       9894       9893  
      9762       9763       9774       9773       9883       9884       9895       9894  
      9763       9764       9775       9774       9884       9885       9896       9895  
      9764       9765       9776       9775       9885       9886       9897       9896  
      9765       9766       9777       9776       9886       9887       9898       9897  
      9766       9767       9778       9777       9887       9888       9899       9898  
      9767       9768       9779       9778       9888       9889       9900       9899  
      9769       9770       9781       9780       9890       9891       9902       9901  
      9770       9771       9782       9781       9891       9892       9903       9902  
      9771       9772       9783       9782       9892       9893       9904       9903  
      9772       9773       9784       9783       9893       9894       9905       9904  
      9773       9774       9785       9784       9894       9895       9906       9905  
      9774       9775       9786       9785       9895       9896       9907       9906  
      9775       9776       9787       9786       9896       9897       9908       9907  
      9776       9777       9788       9787       9897       9898       9909       9908  
      9777       9778       9789       9788       9898       9899       9910       9909  
      9778       9779       9790       9789       9899       9900       9911       9910  
      9780       9781       9792       9791       9901       9902       9913       9912  
      9781       9782       9793       9792       9902       9903       9914       9913  
      9782       9783       9794       9793       9903       9904       9915       9914  
      9783       9784       9795       9794       9904       9905       9916       9915  
      9784       9785       9796       9795       9905       9906       9917       9916  
      9785       9786       9797       9796       9906       9907       9918       9917  
      9786       9787       9798       9797       9907       9908       9919       9918  
      9787       9788       9799       9798       9908       9909       9920       9919  
      9788       9789       9800       9799       9909       9910       9921       9920  
      9789       9790       9801       9800       9910       9911       9922       9921  
      9802       9803       9814       9813       9923       9924       9935       9934  
      9803       9804       9815       9814       9924       9925       9936       9935  
      9804       9805       9816       9815       9925       9926       9937       9936  
      9805       9806       9817       9816       9926       9927       9938       9937  
      9806       9807       9818       9817       9927       9928       9939       9938  
      9807       9808       9819       9818       9928       9929       9940       9939  
      9808       9809       9820       9819       9929       9930       9941       9940  
      9809       9810       9821       9820       9930       9931       9942       9941  
      9810       9811       9822       9821       9931       9932       9943       9942  
      9811       9812       9823       9822       9932       9933       9944       9943  
      9813       9814       9825       9824       9934       9935       9946       9945  
      9814       9815       9826       9825       9935       9936       9947       9946  
      9815       9816       9827       9826       9936       9937       9948       9947  
      9816       9817       9828       9827       9937       9938       9949       9948  
      9817       9818       9829       9828       9938       9939       9950       9949  
      9818       9819       9830       9829       9939       9940       9951       9950  
      9819       9820       9831       9830       9940       9941       9952       9951  
      9820       9821       9832       9831       9941       9942       9953       9952  
      9821       9822       9833       9832       9942       9943       9954       9953  
      9822       9823       9834       9833       9943       9944       9955       9954  
      9824       9825       9836       9835       9945       9946       9957       9956  
      9825       9826       9837       9836       9946       9947       9958       9957  
      9826       9827       9838       9837       9947       9948       9959       9958  
      9827       9828       9839       9838       9948       9949       9960       9959  
      9828       9829       9840       9839       9949       9950       9961       9960  
      9829       9830       9841       9840       9950       9951       9962       9961  
      9830       9831       9842       9841       9951       9952       9963       9962  
      9831       9832       9843       9842       9952       9953       9964       9963  
      9832       9833       9844       9843       9953       9954       9965       9964  
      9833       9834       9845       9844       9954       9955       9966       9965  
      9835       9836       9847       9846       9956       9957       9968       9967  
      9836       9837       9848       9847       9957       9958       9969       9968  
      9837       9838       9849       9848       9958       9959       9970       9969  
      9838       9839       9850       9849       9959       9960       9971       9970  
      9839       9840       9851       9850       9960       9961       9972       9971  
      9840       9841       9852       9851       9961       9962       9973       9972  
      9841       9842       9853       9852       9962       9963       9974       9973  
      9842       9843       9854       9853       9963       9964       9975       9974  
      9843       9844       9855       9854       9964       9965       9976       9975  
      9844       9845       9856       9855       9965       9966       9977       9976  
      9846       9847       9858       9857       9967       9968       9979       9978  
      9847       9848       9859       9858       9968       9969       9980       9979  
      9848       9849       9860       9859       9969       9970       9981       9980  
      9849       9850       9861       9860       9970       9971       9982       9981  
      9850       9851       9862       9861       9971       9972       9983       9982  
      9851       9852       9863       9862       9972       9973       9984       9983  
      9852       9853       9864       9863       9973       9974       9985       9984  
      9853       9854       9865       9864       9974       9975       9986       9985  
      9854       9855       9866       9865       9975       9976       9987       9986  
      9855       9856       9867       9866       9976       9977       9988       9987  
      9857       9858       9869       9868       9978       9979       9990       9989  
      9858       9859       9870       9869       9979       9980       9991       9990  
      9859       9860       9871       9870       9980       9981       9992       9991  
      9860       9861       9872       9871       9981       9982       9993       9992  
      9861       9862       9873       9872       9982       9983       9994       9993  
      9862       9863       9874       9873       9983       9984       9995       9994  
      9863       9864       9875       9874       9984       9985       9996       9995  
      9864       9865       9876       9875       9985       9986       9997       9996  
      9865       9866       9877       9876       9986       9987       9998       9997  
      9866       9867       9878       9877       9987       9988       9999       9998  
      9868       9869       9880       9879       9989       9990      10001      10000  
      9869       9870       9881       9880       9990       9991      10002      10001  
      9870       9871       9882       9881       9991       9992      10003      10002  
      9871       9872       9883       9882       9992       9993      10004      10003  
      9872       9873       9884       9883       9993       9994      10005      10004  
      9873       9874       9885       9884       9994       9995      10006      10005  
      9874       9875       9886       9885       9995       9996      10007      10006  
      9875       9876       9887       9886       9996       9997      10008      10007  
      9876       9877       9888       9887       9997       9998      10009      10008  
      9877       9878       9889       9888       9998       9999      10010      10009  
      9879       9880       9891       9890      10000      10001      10012      10011  
      9880       9881       9892       9891      10001      10002      10013      10012  
      9881       9882       9893       9892      10002      10003      10014      10013  
      9882       9883       9894       9893      10003      10004      10015      10014  
      9883       9884       9895       9894      10004      10005      10016      10015  
      9884       9885       9896       9895      10005      10006      10017      10016  
      9885       9886       9897       9896      10006      10007      10018      10017  
      9886       9887       9898       9897      10007      10008      10019      10018  
      9887       9888       9899       9898      10008      10009      10020      10019  
      9888       9889       9900       9899      10009      10010      10021      10020  
      9890       9891       9902       9901      10011      10012      10023      10022  
      9891       9892       9903       9902      10012      10013      10024      10023  
      9892       9893       9904       9903      10013      10014      10025      10024  
      9893       9894       9905       9904      10014      10015      10026      10025  
      9894       9895       9906       9905      10015      10016      10027      10026  
      9895       9896       9907       9906      10016      10017      10028      10027  
      9896       9897       9908       9907      10017      10018      10029      10028  
      9897       9898       9909       9908      10018      10019      10030      10029  
      9898       9899       9910       9909      10019      10020      10031      10030  
      9899       9900       9911       9910      10020      10021      10032      10031  
      9901       9902       9913       9912      10022      10023      10034      10033  
      9902       9903       9914       9913      10023      10024      10035      10034  
      9903       9904       9915       9914      10024      10025      10036      10035  
      9904       9905       9916       9915      10025      10026      10037      10036  
      9905       9906       9917       9916      10026      10027      10038      10037  
      9906       9907       9918       9917      10027      10028      10039      10038  
      9907       9908       9919       9918      10028      10029      10040      10039  
      9908       9909       9920       9919      10029      10030      10041      10040  
      9909       9910       9921       9920      10030      10031      10042      10041  
      9910       9911       9922       9921      10031      10032      10043      10042  
      9923       9924       9935       9934      10044      10045      10056      10055  
      9924       9925       9936       9935      10045      10046      10057      10056  
      9925       9926       9937       9936      10046      10047      10058      10057  
      9926       9927       9938       9937      10047      10048      10059      10058  
      9927       9928       9939       9938      10048      10049      10060      10059  
      9928       9929       9940       9939      10049      10050      10061      10060  
      9929       9930       9941       9940      10050      10051      10062      10061  
      9930       9931       9942       9941      10051      10052      10063      10062  
      9931       9932       9943       9942      10052      10053      10064      10063  
      9932       9933       9944       9943      10053      10054      10065      10064  
      9934       9935       9946       9945      10055      10056      10067      10066  
      9935       9936       9947       9946      10056      10057      10068      10067  
      9936       9937       9948       9947      10057      10058      10069      10068  
      9937       9938       9949       9948      10058      10059      10070      10069  
      9938       9939       9950       9949      10059      10060      10071      10070  
      9939       9940       9951       9950      10060      10061      10072      10071  
      9940       9941       9952       9951      10061      10062      10073      10072  
      9941       9942       9953       9952      10062      10063      10074      10073  
      9942       9943       9954       9953      10063      10064      10075      10074  
      9943       9944       9955       9954      10064      10065      10076      10075  
      9945       9946       9957       9956      10066      10067      10078      10077  
      9946       9947       9958       9957      10067      10068      10079      10078  
      9947       9948       9959       9958      10068      10069      10080      10079  
      9948       9949       9960       9959      10069      10070      10081      10080  
      9949       9950       9961       9960      10070      10071      10082      10081  
      9950       9951       9962       9961      10071      10072      10083      10082  
      9951       9952       9963       9962      10072      10073      10084      10083  
      9952       9953       9964       9963      10073      10074      10085      10084  
      9953       9954       9965       9964      10074      10075      10086      10085  
      9954       9955       9966       9965      10075      10076      10087      10086  
      9956       9957       9968       9967      10077      10078      10089      10088  
      9957       9958       9969       9968      10078      10079      10090      10089  
      9958       9959       9970       9969      10079      10080      10091      10090  
      9959       9960       9971       9970      10080      10081      10092      10091  
      9960       9961       9972       9971      10081      10082      10093      10092  
      9961       9962       9973       9972      10082      10083      10094      10093  
      9962       9963       9974       9973      10083      10084      10095      10094  
      9963       9964       9975       9974      10084      10085      10096      10095  
      9964       9965       9976       9975      10085      10086      10097      10096  
      9965       9966       9977       9976      10086      10087      10098      10097  
      9967       9968       9979       9978      10088      10089      10100      10099  
      9968       9969       9980       9979      10089      10090      10101      10100  
      9969       9970       9981       9980      10090      10091      10102      10101  
      9970       9971       9982       9981      10091      10092      10103      10102  
      9971       9972       9983       9982      10092      10093      10104      10103  
      9972       9973       9984       9983      10093      10094      10105      10104  
      9973       9974       9985       9984      10094      10095      10106      10105  
      9974       9975       9986       9985      10095      10096      10107      10106  
      9975       9976       9987       9986      10096      10097      10108      10107  
      9976       9977       9988       9987      10097      10098      10109      10108  
      9978       9979       9990       9989      10099      10100      10111      10110  
      9979       9980       9991       9990      10100      10101      10112      10111  
      9980       9981       9992       9991      10101      10102      10113      10112  
      9981       9982       9993       9992      10102      10103      10114      10113  
      9982       9983       9994       9993      10103      10104      10115      10114  
      9983       9984       9995       9994      10104      10105      10116      10115  
      9984       9985       9996       9995      10105      10106      10117      10116  
      9985       9986       9997       9996      10106      10107      10118      10117  
      9986       9987       9998       9997      10107      10108      10119      10118  
      9987       9988       9999       9998      10108      10109      10120      10119  
      9989       9990      10001      10000      10110      10111      10122      10121  
      9990       9991      10002      10001      10111      10112      10123      10122  
      9991       9992      10003      10002      10112      10113      10124      10123  
      9992       9993      10004      10003      10113      10114      10125      10124  
      9993       9994      10005      10004      10114      10115      10126      10125  
      9994       9995      10006      10005      10115      10116      10127      10126  
      9995       9996      10007      10006      10116      10117      10128      10127  
      9996       9997      10008      10007      10117      10118      10129      10128  
      9997       9998      10009      10008      10118      10119      10130      10129  
      9998       9999      10010      10009      10119      10120      10131      10130  
     10000      10001      10012      10011      10121      10122      10133      10132  
     10001      10002      10013      10012      10122      10123      10134      10133  
     10002      10003      10014      10013      10123      10124      10135      10134  
     10003      10004      10015      10014      10124      10125      10136      10135  
     10004      10005      10016      10015      10125      10126      10137      10136  
     10005      10006      10017      10016      10126      10127      10138      10137  
     10006      10007      10018      10017      10127      10128      10139      10138  
     10007      10008      10019      10018      10128      10129      10140      10139  
     10008      10009      10020      10019      10129      10130      10141      10140  
     10009      10010      10021      10020      10130      10131      10142      10141  
     10011      10012      10023      10022      10132      10133      10144      10143  
     10012      10013      10024      10023      10133      10134      10145      10144  
     10013      10014      10025      10024      10134      10135      10146      10145  
     10014      10015      10026      10025      10135      10136      10147      10146  
     10015      10016      10027      10026      10136      10137      10148      10147  
     10016      10017      10028      10027      10137      10138      10149      10148  
     10017      10018      10029      10028      10138      10139      10150      10149  
     10018      10019      10030      10029      10139      10140      10151      10150  
     10019      10020      10031      10030      10140      10141      10152      10151  
     10020      10021      10032      10031      10141      10142      10153      10152  
     10022      10023      10034      10033      10143      10144      10155      10154  
     10023      10024      10035      10034      10144      10145      10156      10155  
     10024      10025      10036      10035      10145      10146      10157      10156  
     10025      10026      10037      10036      10146      10147      10158      10157  
     10026      10027      10038      10037      10147      10148      10159      10158  
     10027      10028      10039      10038      10148      10149      10160      10159  
     10028      10029      10040      10039      10149      10150      10161      10160  
     10029      10030      10041      10040      10150      10151      10162      10161  
     10030      10031      10042      10041      10151      10152      10163      10162  
     10031      10032      10043      10042      10152      10153      10164      10163  
     10044      10045      10056      10055      10165      10166      10177      10176  
     10045      10046      10057      10056      10166      10167      10178      10177  
     10046      10047      10058      10057      10167      10168      10179      10178  
     10047      10048      10059      10058      10168      10169      10180      10179  
     10048      10049      10060      10059      10169      10170      10181      10180  
     10049      10050      10061      10060      10170      10171      10182      10181  
     10050      10051      10062      10061      10171      10172      10183      10182  
     10051      10052      10063      10062      10172      10173      10184      10183  
     10052      10053      10064      10063      10173      10174      10185      10184  
     10053      10054      10065      10064      10174      10175      10186      10185  
     10055      10056      10067      10066      10176      10177      10188      10187  
     10056      10057      10068      10067      10177      10178      10189      10188  
     10057      10058      10069      10068      10178      10179      10190      10189  
     10058      10059      10070      10069      10179      10180      10191      10190  
     10059      10060      10071      10070      10180      10181      10192      10191  
     10060      10061      10072      10071      10181      10182      10193      10192  
     10061      10062      10073      10072      10182      10183      10194      10193  
     10062      10063      10074      10073      10183      10184      10195      10194  
     10063      10064      10075      10074      10184      10185      10196      10195  
     10064      10065      10076      10075      10185      10186      10197      10196  
     10066      10067      10078      10077      10187      10188      10199      10198  
     10067      10068      10079      10078      10188      10189      10200      10199  
     10068      10069      10080      10079      10189      10190      10201      10200  
     10069      10070      10081      10080      10190      10191      10202      10201  
     10070      10071      10082      10081      10191      10192      10203      10202  
     10071      10072      10083      10082      10192      10193      10204      10203  
     10072      10073      10084      10083      10193      10194      10205      10204  
     10073      10074      10085      10084      10194      10195      10206      10205  
     10074      10075      10086      10085      10195      10196      10207      10206  
     10075      10076      10087      10086      10196      10197      10208      10207  
     10077      10078      10089      10088      10198      10199      10210      10209  
     10078      10079      10090      10089      10199      10200      10211      10210  
     10079      10080      10091      10090      10200      10201      10212      10211  
     10080      10081      10092      10091      10201      10202      10213      10212  
     10081      10082      10093      10092      10202      10203      10214      10213  
     10082      10083      10094      10093      10203      10204      10215      10214  
     10083      10084      10095      10094      10204      10205      10216      10215  
     10084      10085      10096      10095      10205      10206      10217      10216  
     10085      10086      10097      10096      10206      10207      10218      10217  
     10086      10087      10098      10097      10207      10208      10219      10218  
     10088      10089      10100      10099      10209      10210      10221      10220  
     10089      10090      10101      10100      10210      10211      10222      10221  
     10090      10091      10102      10101      10211      10212      10223      10222  
     10091      10092      10103      10102      10212      10213      10224      10223  
     10092      10093      10104      10103      10213      10214      10225      10224  
     10093      10094      10105      10104      10214      10215      10226      10225  
     10094      10095      10106      10105      10215      10216      10227      10226  
     10095      10096      10107      10106      10216      10217      10228      10227  
     10096      10097      10108      10107      10217      10218      10229      10228  
     10097      10098      10109      10108      10218      10219      10230      10229  
     10099      10100      10111      10110      10220      10221      10232      10231  
     10100      10101      10112      10111      10221      10222      10233      10232  
     10101      10102      10113      10112      10222      10223      10234      10233  
     10102      10103      10114      10113      10223      10224      10235      10234  
     10103      10104      10115      10114      10224      10225      10236      10235  
     10104      10105      10116      10115      10225      10226      10237      10236  
     10105      10106      10117      10116      10226      10227      10238      10237  
     10106      10107      10118      10117      10227      10228      10239      10238  
     10107      10108      10119      10118      10228      10229      10240      10239  
     10108      10109      10120      10119      10229      10230      10241      10240  
     10110      10111      10122      10121      10231      10232      10243      10242  
     10111      10112      10123      10122      10232      10233      10244      10243  
     10112      10113      10124      10123      10233      10234      10245      10244  
     10113      10114      10125      10124      10234      10235      10246      10245  
     10114      10115      10126      10125      10235      10236      10247      10246  
     10115      10116      10127      10126      10236      10237      10248      10247  
     10116      10117      10128      10127      10237      10238      10249      10248  
     10117      10118      10129      10128      10238      10239      10250      10249  
     10118      10119      10130      10129      10239      10240      10251      10250  
     10119      10120      10131      10130      10240      10241      10252      10251  
     10121      10122      10133      10132      10242      10243      10254      10253  
     10122      10123      10134      10133      10243      10244      10255      10254  
     10123      10124      10135      10134      10244      10245      10256      10255  
     10124      10125      10136      10135      10245      10246      10257      10256  
     10125      10126      10137      10136      10246      10247      10258      10257  
     10126      10127      10138      10137      10247      10248      10259      10258  
     10127      10128      10139      10138      10248      10249      10260      10259  
     10128      10129      10140      10139      10249      10250      10261      10260  
     10129      10130      10141      10140      10250      10251      10262      10261  
     10130      10131      10142      10141      10251      10252      10263      10262  
     10132      10133      10144      10143      10253      10254      10265      10264  
     10133      10134      10145      10144      10254      10255      10266      10265  
     10134      10135      10146      10145      10255      10256      10267      10266  
     10135      10136      10147      10146      10256      10257      10268      10267  
     10136      10137      10148      10147      10257      10258      10269      10268  
     10137      10138      10149      10148      10258      10259      10270      10269  
     10138      10139      10150      10149      10259      10260      10271      10270  
     10139      10140      10151      10150      10260      10261      10272      10271  
     10140      10141      10152      10151      10261      10262      10273      10272  
     10141      10142      10153      10152      10262      10263      10274      10273  
     10143      10144      10155      10154      10264      10265      10276      10275  
     10144      10145      10156      10155      10265      10266      10277      10276  
     10145      10146      10157      10156      10266      10267      10278      10277  
     10146      10147      10158      10157      10267      10268      10279      10278  
     10147      10148      10159      10158      10268      10269      10280      10279  
     10148      10149      10160      10159      10269      10270      10281      10280  
     10149      10150      10161      10160      10270      10271      10282      10281  
     10150      10151      10162      10161      10271      10272      10283      10282  
     10151      10152      10163      10162      10272      10273      10284      10283  
     10152      10153      10164      10163      10273      10274      10285      10284  
     10165      10166      10177      10176      10286      10287      10298      10297  
     10166      10167      10178      10177      10287      10288      10299      10298  
     10167      10168      10179      10178      10288      10289      10300      10299  
     10168      10169      10180      10179      10289      10290      10301      10300  
     10169      10170      10181      10180      10290      10291      10302      10301  
     10170      10171      10182      10181      10291      10292      10303      10302  
     10171      10172      10183      10182      10292      10293      10304      10303  
     10172      10173      10184      10183      10293      10294      10305      10304  
     10173      10174      10185      10184      10294      10295      10306      10305  
     10174      10175      10186      10185      10295      10296      10307      10306  
     10176      10177      10188      10187      10297      10298      10309      10308  
     10177      10178      10189      10188      10298      10299      10310      10309  
     10178      10179      10190      10189      10299      10300      10311      10310  
     10179      10180      10191      10190      10300      10301      10312      10311  
     10180      10181      10192      10191      10301      10302      10313      10312  
     10181      10182      10193      10192      10302      10303      10314      10313  
     10182      10183      10194      10193      10303      10304      10315      10314  
     10183      10184      10195      10194      10304      10305      10316      10315  
     10184      10185      10196      10195      10305      10306      10317      10316  
     10185      10186      10197      10196      10306      10307      10318      10317  
     10187      10188      10199      10198      10308      10309      10320      10319  
     10188      10189      10200      10199      10309      10310      10321      10320  
     10189      10190      10201      10200      10310      10311      10322      10321  
     10190      10191      10202      10201      10311      10312      10323      10322  
     10191      10192      10203      10202      10312      10313      10324      10323  
     10192      10193      10204      10203      10313      10314      10325      10324  
     10193      10194      10205      10204      10314      10315      10326      10325  
     10194      10195      10206      10205      10315      10316      10327      10326  
     10195      10196      10207      10206      10316      10317      10328      10327  
     10196      10197      10208      10207      10317      10318      10329      10328  
     10198      10199      10210      10209      10319      10320      10331      10330  
     10199      10200      10211      10210      10320      10321      10332      10331  
     10200      10201      10212      10211      10321      10322      10333      10332  
     10201      10202      10213      10212      10322      10323      10334      10333  
     10202      10203      10214      10213      10323      10324      10335      10334  
     10203      10204      10215      10214      10324      10325      10336      10335  
     10204      10205      10216      10215      10325      10326      10337      10336  
     10205      10206      10217      10216      10326      10327      10338      10337  
     10206      10207      10218      10217      10327      10328      10339      10338  
     10207      10208      10219      10218      10328      10329      10340      10339  
     10209      10210      10221      10220      10330      10331      10342      10341  
     10210      10211      10222      10221      10331      10332      10343      10342  
     10211      10212      10223      10222      10332      10333      10344      10343  
     10212      10213      10224      10223      10333      10334      10345      10344  
     10213      10214      10225      10224      10334      10335      10346      10345  
     10214      10215      10226      10225      10335      10336      10347      10346  
     10215      10216      10227      10226      10336      10337      10348      10347  
     10216      10217      10228      10227      10337      10338      10349      10348  
     10217      10218      10229      10228      10338      10339      10350      10349  
     10218      10219      10230      10229      10339      10340      10351      10350  
     10220      10221      10232      10231      10341      10342      10353      10352  
     10221      10222      10233      10232      10342      10343      10354      10353  
     10222      10223      10234      10233      10343      10344      10355      10354  
     10223      10224      10235      10234      10344      10345      10356      10355  
     10224      10225      10236      10235      10345      10346      10357      10356  
     10225      10226      10237      10236      10346      10347      10358      10357  
     10226      10227      10238      10237      10347      10348      10359      10358  
     10227      10228      10239      10238      10348      10349      10360      10359  
     10228      10229      10240      10239      10349      10350      10361      10360  
     10229      10230      10241      10240      10350      10351      10362      10361  
     10231      10232      10243      10242      10352      10353      10364      10363  
     10232      10233      10244      10243      10353      10354      10365      10364  
     10233      10234      10245      10244      10354      10355      10366      10365  
     10234      10235      10246      10245      10355      10356      10367      10366  
     10235      10236      10247      10246      10356      10357      10368      10367  
     10236      10237      10248      10247      10357      10358      10369      10368  
     10237      10238      10249      10248      10358      10359      10370      10369  
     10238      10239      10250      10249      10359      10360      10371      10370  
     10239      10240      10251      10250      10360      10361      10372      10371  
     10240      10241      10252      10251      10361      10362      10373      10372  
     10242      10243      10254      10253      10363      10364      10375      10374  
     10243      10244      10255      10254      10364      10365      10376      10375  
     10244      10245      10256      10255      10365      10366      10377      10376  
     10245      10246      10257      10256      10366      10367      10378      10377  
     10246      10247      10258      10257      10367      10368      10379      10378  
     10247      10248      10259      10258      10368      10369      10380      10379  
     10248      10249      10260      10259      10369      10370      10381      10380  
     10249      10250      10261      10260      10370      10371      10382      10381  
     10250      10251      10262      10261      10371      10372      10383      10382  
     10251      10252      10263      10262      10372      10373      10384      10383  
     10253      10254      10265      10264      10374      10375      10386      10385  
     10254      10255      10266      10265      10375      10376      10387      10386  
     10255      10256      10267      10266      10376      10377      10388      10387  
     10256      10257      10268      10267      10377      10378      10389      10388  
     10257      10258      10269      10268      10378      10379      10390      10389  
     10258      10259      10270      10269      10379      10380      10391      10390  
     10259      10260      10271      10270      10380      10381      10392      10391  
     10260      10261      10272      10271      10381      10382      10393      10392  
     10261      10262      10273      10272      10382      10383      10394      10393  
     10262      10263      10274      10273      10383      10384      10395      10394  
     10264      10265      10276      10275      10385      10386      10397      10396  
     10265      10266      10277      10276      10386      10387      10398      10397  
     10266      10267      10278      10277      10387      10388      10399      10398  
     10267      10268      10279      10278      10388      10389      10400      10399  
     10268      10269      10280      10279      10389      10390      10401      10400  
     10269      10270      10281      10280      10390      10391      10402      10401  
     10270      10271      10282      10281      10391      10392      10403      10402  
     10271      10272      10283      10282      10392      10393      10404      10403  
     10272      10273      10284      10283      10393      10394      10405      10404  
     10273      10274      10285      10284      10394      10395      10406      10405  
     10286      10287      10298      10297      10407      10408      10419      10418  
     10287      10288      10299      10298      10408      10409      10420      10419  
     10288      10289      10300      10299      10409      10410      10421      10420  
     10289      10290      10301      10300      10410      10411      10422      10421  
     10290      10291      10302      10301      10411      10412      10423      10422  
     10291      10292      10303      10302      10412      10413      10424      10423  
     10292      10293      10304      10303      10413      10414      10425      10424  
     10293      10294      10305      10304      10414      10415      10426      10425  
     10294      10295      10306      10305      10415      10416      10427      10426  
     10295      10296      10307      10306      10416      10417      10428      10427  
     10297      10298      10309      10308      10418      10419      10430      10429  
     10298      10299      10310      10309      10419      10420      10431      10430  
     10299      10300      10311      10310      10420      10421      10432      10431  
     10300      10301      10312      10311      10421      10422      10433      10432  
     10301      10302      10313      10312      10422      10423      10434      10433  
     10302      10303      10314      10313      10423      10424      10435      10434  
     10303      10304      10315      10314      10424      10425      10436      10435  
     10304      10305      10316      10315      10425      10426      10437      10436  
     10305      10306      10317      10316      10426      10427      10438      10437  
     10306      10307      10318      10317      10427      10428      10439      10438  
     10308      10309      10320      10319      10429      10430      10441      10440  
     10309      10310      10321      10320      10430      10431      10442      10441  
     10310      10311      10322      10321      10431      10432      10443      10442  
     10311      10312      10323      10322      10432      10433      10444      10443  
     10312      10313      10324      10323      10433      10434      10445      10444  
     10313      10314      10325      10324      10434      10435      10446      10445  
     10314      10315      10326      10325      10435      10436      10447      10446  
     10315      10316      10327      10326      10436      10437      10448      10447  
     10316      10317      10328      10327      10437      10438      10449      10448  
     10317      10318      10329      10328      10438      10439      10450      10449  
     10319      10320      10331      10330      10440      10441      10452      10451  
     10320      10321      10332      10331      10441      10442      10453      10452  
     10321      10322      10333      10332      10442      10443      10454      10453  
     10322      10323      10334      10333      10443      10444      10455      10454  
     10323      10324      10335      10334      10444      10445      10456      10455  
     10324      10325      10336      10335      10445      10446      10457      10456  
     10325      10326      10337      10336      10446      10447      10458      10457  
     10326      10327      10338      10337      10447      10448      10459      10458  
     10327      10328      10339      10338      10448      10449      10460      10459  
     10328      10329      10340      10339      10449      10450      10461      10460  
     10330      10331      10342      10341      10451      10452      10463      10462  
     10331      10332      10343      10342      10452      10453      10464      10463  
     10332      10333      10344      10343      10453      10454      10465      10464  
     10333      10334      10345      10344      10454      10455      10466      10465  
     10334      10335      10346      10345      10455      10456      10467      10466  
     10335      10336      10347      10346      10456      10457      10468      10467  
     10336      10337      10348      10347      10457      10458      10469      10468  
     10337      10338      10349      10348      10458      10459      10470      10469  
     10338      10339      10350      10349      10459      10460      10471      10470  
     10339      10340      10351      10350      10460      10461      10472      10471  
     10341      10342      10353      10352      10462      10463      10474      10473  
     10342      10343      10354      10353      10463      10464      10475      10474  
     10343      10344      10355      10354      10464      10465      10476      10475  
     10344      10345      10356      10355      10465      10466      10477      10476  
     10345      10346      10357      10356      10466      10467      10478      10477  
     10346      10347      10358      10357      10467      10468      10479      10478  
     10347      10348      10359      10358      10468      10469      10480      10479  
     10348      10349      10360      10359      10469      10470      10481      10480  
     10349      10350      10361      10360      10470      10471      10482      10481  
     10350      10351      10362      10361      10471      10472      10483      10482  
     10352      10353      10364      10363      10473      10474      10485      10484  
     10353      10354      10365      10364      10474      10475      10486      10485  
     10354      10355      10366      10365      10475      10476      10487      10486  
     10355      10356      10367      10366      10476      10477      10488      10487  
     10356      10357      10368      10367      10477      10478      10489      10488  
     10357      10358      10369      10368      10478      10479      10490      10489  
     10358      10359      10370      10369      10479      10480      10491      10490  
     10359      10360      10371      10370      10480      10481      10492      10491  
     10360      10361      10372      10371      10481      10482      10493      10492  
     10361      10362      10373      10372      10482      10483      10494      10493  
     10363      10364      10375      10374      10484      10485      10496      10495  
     10364      10365      10376      10375      10485      10486      10497      10496  
     10365      10366      10377      10376      10486      10487      10498      10497  
     10366      10367      10378      10377      10487      10488      10499      10498  
     10367      10368      10379      10378      10488      10489      10500      10499  
     10368      10369      10380      10379      10489      10490      10501      10500  
     10369      10370      10381      10380      10490      10491      10502      10501  
     10370      10371      10382      10381      10491      10492      10503      10502  
     10371      10372      10383      10382      10492      10493      10504      10503  
     10372      10373      10384      10383      10493      10494      10505      10504  
     10374      10375      10386      10385      10495      10496      10507      10506  
     10375      10376      10387      10386      10496      10497      10508      10507  
     10376      10377      10388      10387      10497      10498      10509      10508  
     10377      10378      10389      10388      10498      10499      10510      10509  
     10378      10379      10390      10389      10499      10500      10511      10510  
     10379      10380      10391      10390      10500      10501      10512      10511  
     10380      10381      10392      10391      10501      10502      10513      10512  
     10381      10382      10393      10392      10502      10503      10514      10513  
     10382      10383      10394      10393      10503      10504      10515      10514  
     10383      10384      10395      10394      10504      10505      10516      10515  
     10385      10386      10397      10396      10506      10507      10518      10517  
     10386      10387      10398      10397      10507      10508      10519      10518  
     10387      10388      10399      10398      10508      10509      10520      10519  
     10388      10389      10400      10399      10509      10510      10521      10520  
     10389      10390      10401      10400      10510      10511      10522      10521  
     10390      10391      10402      10401      10511      10512      10523      10522  
     10391      10392      10403      10402      10512      10513      10524      10523  
     10392      10393      10404      10403      10513      10514      10525      10524  
     10393      10394      10405      10404      10514      10515      10526      10525  
     10394      10395      10406      10405      10515      10516      10527      10526  
     10407      10408      10419      10418      10528      10529      10540      10539  
     10408      10409      10420      10419      10529      10530      10541      10540  
     10409      10410      10421      10420      10530      10531      10542      10541  
     10410      10411      10422      10421      10531      10532      10543      10542  
     10411      10412      10423      10422      10532      10533      10544      10543  
     10412      10413      10424      10423      10533      10534      10545      10544  
     10413      10414      10425      10424      10534      10535      10546      10545  
     10414      10415      10426      10425      10535      10536      10547      10546  
     10415      10416      10427      10426      10536      10537      10548      10547  
     10416      10417      10428      10427      10537      10538      10549      10548  
     10418      10419      10430      10429      10539      10540      10551      10550  
     10419      10420      10431      10430      10540      10541      10552      10551  
     10420      10421      10432      10431      10541      10542      10553      10552  
     10421      10422      10433      10432      10542      10543      10554      10553  
     10422      10423      10434      10433      10543      10544      10555      10554  
     10423      10424      10435      10434      10544      10545      10556      10555  
     10424      10425      10436      10435      10545      10546      10557      10556  
     10425      10426      10437      10436      10546      10547      10558      10557  
     10426      10427      10438      10437      10547      10548      10559      10558  
     10427      10428      10439      10438      10548      10549      10560      10559  
     10429      10430      10441      10440      10550      10551      10562      10561  
     10430      10431      10442      10441      10551      10552      10563      10562  
     10431      10432      10443      10442      10552      10553      10564      10563  
     10432      10433      10444      10443      10553      10554      10565      10564  
     10433      10434      10445      10444      10554      10555      10566      10565  
     10434      10435      10446      10445      10555      10556      10567      10566  
     10435      10436      10447      10446      10556      10557      10568      10567  
     10436      10437      10448      10447      10557      10558      10569      10568  
     10437      10438      10449      10448      10558      10559      10570      10569  
     10438      10439      10450      10449      10559      10560      10571      10570  
     10440      10441      10452      10451      10561      10562      10573      10572  
     10441      10442      10453      10452      10562      10563      10574      10573  
     10442      10443      10454      10453      10563      10564      10575      10574  
     10443      10444      10455      10454      10564      10565      10576      10575  
     10444      10445      10456      10455      10565      10566      10577      10576  
     10445      10446      10457      10456      10566      10567      10578      10577  
     10446      10447      10458      10457      10567      10568      10579      10578  
     10447      10448      10459      10458      10568      10569      10580      10579  
     10448      10449      10460      10459      10569      10570      10581      10580  
     10449      10450      10461      10460      10570      10571      10582      10581  
     10451      10452      10463      10462      10572      10573      10584      10583  
     10452      10453      10464      10463      10573      10574      10585      10584  
     10453      10454      10465      10464      10574      10575      10586      10585  
     10454      10455      10466      10465      10575      10576      10587      10586  
     10455      10456      10467      10466      10576      10577      10588      10587  
     10456      10457      10468      10467      10577      10578      10589      10588  
     10457      10458      10469      10468      10578      10579      10590      10589  
     10458      10459      10470      10469      10579      10580      10591      10590  
     10459      10460      10471      10470      10580      10581      10592      10591  
     10460      10461      10472      10471      10581      10582      10593      10592  
     10462      10463      10474      10473      10583      10584      10595      10594  
     10463      10464      10475      10474      10584      10585      10596      10595  
     10464      10465      10476      10475      10585      10586      10597      10596  
     10465      10466      10477      10476      10586      10587      10598      10597  
     10466      10467      10478      10477      10587      10588      10599      10598  
     10467      10468      10479      10478      10588      10589      10600      10599  
     10468      10469      10480      10479      10589      10590      10601      10600  
     10469      10470      10481      10480      10590      10591      10602      10601  
     10470      10471      10482      10481      10591      10592      10603      10602  
     10471      10472      10483      10482      10592      10593      10604      10603  
     10473      10474      10485      10484      10594      10595      10606      10605  
     10474      10475      10486      10485      10595      10596      10607      10606  
     10475      10476      10487      10486      10596      10597      10608      10607  
     10476      10477      10488      10487      10597      10598      10609      10608  
     10477      10478      10489      10488      10598      10599      10610      10609  
     10478      10479      10490      10489      10599      10600      10611      10610  
     10479      10480      10491      10490      10600      10601      10612      10611  
     10480      10481      10492      10491      10601      10602      10613      10612  
     10481      10482      10493      10492      10602      10603      10614      10613  
     10482      10483      10494      10493      10603      10604      10615      10614  
     10484      10485      10496      10495      10605      10606      10617      10616  
     10485      10486      10497      10496      10606      10607      10618      10617  
     10486      10487      10498      10497      10607      10608      10619      10618  
     10487      10488      10499      10498      10608      10609      10620      10619  
     10488      10489      10500      10499      10609      10610      10621      10620  
     10489      10490      10501      10500      10610      10611      10622      10621  
     10490      10491      10502      10501      10611      10612      10623      10622  
     10491      10492      10503      10502      10612      10613      10624      10623  
     10492      10493      10504      10503      10613      10614      10625      10624  
     10493      10494      10505      10504      10614      10615      10626      10625  
     10495      10496      10507      10506      10616      10617      10628      10627  
     10496      10497      10508      10507      10617      10618      10629      10628  
     10497      10498      10509      10508      10618      10619      10630      10629  
     10498      10499      10510      10509      10619      10620      10631      10630  
     10499      10500      10511      10510      10620      10621      10632      10631  
     10500      10501      10512      10511      10621      10622      10633      10632  
     10501      10502      10513      10512      10622      10623      10634      10633  
     10502      10503      10514      10513      10623      10624      10635      10634  
     10503      10504      10515      10514      10624      10625      10636      10635  
     10504      10505      10516      10515      10625      10626      10637      10636  
     10506      10507      10518      10517      10627      10628      10639      10638  
     10507      10508      10519      10518      10628      10629      10640      10639  
     10508      10509      10520      10519      10629      10630      10641      10640  
     10509      10510      10521      10520      10630      10631      10642      10641  
     10510      10511      10522      10521      10631      10632      10643      10642  
     10511      10512      10523      10522      10632      10633      10644      10643  
     10512      10513      10524      10523      10633      10634      10645      10644  
     10513      10514      10525      10524      10634      10635      10646      10645  
     10514      10515      10526      10525      10635      10636      10647      10646  
     10515      10516      10527      10526      10636      10637      10648      10647  
     10528      10529      10540      10539      10649      10650      10661      10660  
     10529      10530      10541      10540      10650      10651      10662      10661  
     10530      10531      10542      10541      10651      10652      10663      10662  
     10531      10532      10543      10542      10652      10653      10664      10663  
     10532      10533      10544      10543      10653      10654      10665      10664  
     10533      10534      10545      10544      10654      10655      10666      10665  
     10534      10535      10546      10545      10655      10656      10667      10666  
     10535      10536      10547      10546      10656      10657      10668      10667  
     10536      10537      10548      10547      10657      10658      10669      10668  
     10537      10538      10549      10548      10658      10659      10670      10669  
     10539      10540      10551      10550      10660      10661      10672      10671  
     10540      10541      10552      10551      10661      10662      10673      10672  
     10541      10542      10553      10552      10662      10663      10674      10673  
     10542      10543      10554      10553      10663      10664      10675      10674  
     10543      10544      10555      10554      10664      10665      10676      10675  
     10544      10545      10556      10555      10665      10666      10677      10676  
     10545      10546      10557      10556      10666      10667      10678      10677  
     10546      10547      10558      10557      10667      10668      10679      10678  
     10547      10548      10559      10558      10668      10669      10680      10679  
     10548      10549      10560      10559      10669      10670      10681      10680  
     10550      10551      10562      10561      10671      10672      10683      10682  
     10551      10552      10563      10562      10672      10673      10684      10683  
     10552      10553      10564      10563      10673      10674      10685      10684  
     10553      10554      10565      10564      10674      10675      10686      10685  
     10554      10555      10566      10565      10675      10676      10687      10686  
     10555      10556      10567      10566      10676      10677      10688      10687  
     10556      10557      10568      10567      10677      10678      10689      10688  
     10557      10558      10569      10568      10678      10679      10690      10689  
     10558      10559      10570      10569      10679      10680      10691      10690  
     10559      10560      10571      10570      10680      10681      10692      10691  
     10561      10562      10573      10572      10682      10683      10694      10693  
     10562      10563      10574      10573      10683      10684      10695      10694  
     10563      10564      10575      10574      10684      10685      10696      10695  
     10564      10565      10576      10575      10685      10686      10697      10696  
     10565      10566      10577      10576      10686      10687      10698      10697  
     10566      10567      10578      10577      10687      10688      10699      10698  
     10567      10568      10579      10578      10688      10689      10700      10699  
     10568      10569      10580      10579      10689      10690      10701      10700  
     10569      10570      10581      10580      10690      10691      10702      10701  
     10570      10571      10582      10581      10691      10692      10703      10702  
     10572      10573      10584      10583      10693      10694      10705      10704  
     10573      10574      10585      10584      10694      10695      10706      10705  
     10574      10575      10586      10585      10695      10696      10707      10706  
     10575      10576      10587      10586      10696      10697      10708      10707  
     10576      10577      10588      10587      10697      10698      10709      10708  
     10577      10578      10589      10588      10698      10699      10710      10709  
     10578      10579      10590      10589      10699      10700      10711      10710  
     10579      10580      10591      10590      10700      10701      10712      10711  
     10580      10581      10592      10591      10701      10702      10713      10712  
     10581      10582      10593      10592      10702      10703      10714      10713  
     10583      10584      10595      10594      10704      10705      10716      10715  
     10584      10585      10596      10595      10705      10706      10717      10716  
     10585      10586      10597      10596      10706      10707      10718      10717  
     10586      10587      10598      10597      10707      10708      10719      10718  
     10587      10588      10599      10598      10708      10709      10720      10719  
     10588      10589      10600      10599      10709      10710      10721      10720  
     10589      10590      10601      10600      10710      10711      10722      10721  
     10590      10591      10602      10601      10711      10712      10723      10722  
     10591      10592      10603      10602      10712      10713      10724      10723  
     10592      10593      10604      10603      10713      10714      10725      10724  
     10594      10595      10606      10605      10715      10716      10727      10726  
     10595      10596      10607      10606      10716      10717      10728      10727  
     10596      10597      10608      10607      10717      10718      10729      10728  
     10597      10598      10609      10608      10718      10719      10730      10729  
     10598      10599      10610      10609      10719      10720      10731      10730  
     10599      10600      10611      10610      10720      10721      10732      10731  
     10600      10601      10612      10611      10721      10722      10733      10732  
     10601      10602      10613      10612      10722      10723      10734      10733  
     10602      10603      10614      10613      10723      10724      10735      10734  
     10603      10604      10615      10614      10724      10725      10736      10735  
     10605      10606      10617      10616      10726      10727      10738      10737  
     10606      10607      10618      10617      10727      10728      10739      10738  
     10607      10608      10619      10618      10728      10729      10740      10739  
     10608      10609      10620      10619      10729      10730      10741      10740  
     10609      10610      10621      10620      10730      10731      10742      10741  
     10610      10611      10622      10621      10731      10732      10743      10742  
     10611      10612      10623      10622      10732      10733      10744      10743  
     10612      10613      10624      10623      10733      10734      10745      10744  
     10613      10614      10625      10624      10734      10735      10746      10745  
     10614      10615      10626      10625      10735      10736      10747      10746  
     10616      10617      10628      10627      10737      10738      10749      10748  
     10617      10618      10629      10628      10738      10739      10750      10749  
     10618      10619      10630      10629      10739      10740      10751      10750  
     10619      10620      10631      10630      10740      10741      10752      10751  
     10620      10621      10632      10631      10741      10742      10753      10752  
     10621      10622      10633      10632      10742      10743      10754      10753  
     10622      10623      10634      10633      10743      10744      10755      10754  
     10623      10624      10635      10634      10744      10745      10756      10755  
     10624      10625      10636      10635      10745      10746      10757      10756  
     10625      10626      10637      10636      10746      10747      10758      10757  
     10627      10628      10639      10638      10748      10749      10760      10759  
     10628      10629      10640      10639      10749      10750      10761      10760  
     10629      10630      10641      10640      10750      10751      10762      10761  
     10630      10631      10642      10641      10751      10752      10763      10762  
     10631      10632      10643      10642      10752      10753      10764      10763  
     10632      10633      10644      10643      10753      10754      10765      10764  
     10633      10634      10645      10644      10754      10755      10766      10765  
     10634      10635      10646      10645      10755      10756      10767      10766  
     10635      10636      10647      10646      10756      10757      10768      10767  
     10636      10637      10648      10647      10757      10758      10769      10768  
     10649      10650      10661      10660      10770      10771      10782      10781  
     10650      10651      10662      10661      10771      10772      10783      10782  
     10651      10652      10663      10662      10772      10773      10784      10783  
     10652      10653      10664      10663      10773      10774      10785      10784  
     10653      10654      10665      10664      10774      10775      10786      10785  
     10654      10655      10666      10665      10775      10776      10787      10786  
     10655      10656      10667      10666      10776      10777      10788      10787  
     10656      10657      10668      10667      10777      10778      10789      10788  
     10657      10658      10669      10668      10778      10779      10790      10789  
     10658      10659      10670      10669      10779      10780      10791      10790  
     10660      10661      10672      10671      10781      10782      10793      10792  
     10661      10662      10673      10672      10782      10783      10794      10793  
     10662      10663      10674      10673      10783      10784      10795      10794  
     10663      10664      10675      10674      10784      10785      10796      10795  
     10664      10665      10676      10675      10785      10786      10797      10796  
     10665      10666      10677      10676      10786      10787      10798      10797  
     10666      10667      10678      10677      10787      10788      10799      10798  
     10667      10668      10679      10678      10788      10789      10800      10799  
     10668      10669      10680      10679      10789      10790      10801      10800  
     10669      10670      10681      10680      10790      10791      10802      10801  
     10671      10672      10683      10682      10792      10793      10804      10803  
     10672      10673      10684      10683      10793      10794      10805      10804  
     10673      10674      10685      10684      10794      10795      10806      10805  
     10674      10675      10686      10685      10795      10796      10807      10806  
     10675      10676      10687      10686      10796      10797      10808      10807  
     10676      10677      10688      10687      10797      10798      10809      10808  
     10677      10678      10689      10688      10798      10799      10810      10809  
     10678      10679      10690      10689      10799      10800      10811      10810  
     10679      10680      10691      10690      10800      10801      10812      10811  
     10680      10681      10692      10691      10801      10802      10813      10812  
     10682      10683      10694      10693      10803      10804      10815      10814  
     10683      10684      10695      10694      10804      10805      10816      10815  
     10684      10685      10696      10695      10805      10806      10817      10816  
     10685      10686      10697      10696      10806      10807      10818      10817  
     10686      10687      10698      10697      10807      10808      10819      10818  
     10687      10688      10699      10698      10808      10809      10820      10819  
     10688      10689      10700      10699      10809      10810      10821      10820  
     10689      10690      10701      10700      10810      10811      10822      10821  
     10690      10691      10702      10701      10811      10812      10823      10822  
     10691      10692      10703      10702      10812      10813      10824      10823  
     10693      10694      10705      10704      10814      10815      10826      10825  
     10694      10695      10706      10705      10815      10816      10827      10826  
     10695      10696      10707      10706      10816      10817      10828      10827  
     10696      10697      10708      10707      10817      10818      10829      10828  
     10697      10698      10709      10708      10818      10819      10830      10829  
     10698      10699      10710      10709      10819      10820      10831      10830  
     10699      10700      10711      10710      10820      10821      10832      10831  
     10700      10701      10712      10711      10821      10822      10833      10832  
     10701      10702      10713      10712      10822      10823      10834      10833  
     10702      10703      10714      10713      10823      10824      10835      10834  
     10704      10705      10716      10715      10825      10826      10837      10836  
     10705      10706      10717      10716      10826      10827      10838      10837  
     10706      10707      10718      10717      10827      10828      10839      10838  
     10707      10708      10719      10718      10828      10829      10840      10839  
     10708      10709      10720      10719      10829      10830      10841      10840  
     10709      10710      10721      10720      10830      10831      10842      10841  
     10710      10711      10722      10721      10831      10832      10843      10842  
     10711      10712      10723      10722      10832      10833      10844      10843  
     10712      10713      10724      10723      10833      10834      10845      10844  
     10713      10714      10725      10724      10834      10835      10846      10845  
     10715      10716      10727      10726      10836      10837      10848      10847  
     10716      10717      10728      10727      10837      10838      10849      10848  
     10717      10718      10729      10728      10838      10839      10850      10849  
     10718      10719      10730      10729      10839      10840      10851      10850  
     10719      10720      10731      10730      10840      10841      10852      10851  
     10720      10721      10732      10731      10841      10842      10853      10852  
     10721      10722      10733      10732      10842      10843      10854      10853  
     10722      10723      10734      10733      10843      10844      10855      10854  
     10723      10724      10735      10734      10844      10845      10856      10855  
     10724      10725      10736      10735      10845      10846      10857      10856  
     10726      10727      10738      10737      10847      10848      10859      10858  
     10727      10728      10739      10738      10848      10849      10860      10859  
     10728      10729      10740      10739      10849      10850      10861      10860  
     10729      10730      10741      10740      10850      10851      10862      10861  
     10730      10731      10742      10741      10851      10852      10863      10862  
     10731      10732      10743      10742      10852      10853      10864      10863  
     10732      10733      10744      10743      10853      10854      10865      10864  
     10733      10734      10745      10744      10854      10855      10866      10865  
     10734      10735      10746      10745      10855      10856      10867      10866  
     10735      10736      10747      10746      10856      10857      10868      10867  
     10737      10738      10749      10748      10858      10859      10870      10869  
     10738      10739      10750      10749      10859      10860      10871      10870  
     10739      10740      10751      10750      10860      10861      10872      10871  
     10740      10741      10752      10751      10861      10862      10873      10872  
     10741      10742      10753      10752      10862      10863      10874      10873  
     10742      10743      10754      10753      10863      10864      10875      10874  
     10743      10744      10755      10754      10864      10865      10876      10875  
     10744      10745      10756      10755      10865      10866      10877      10876  
     10745      10746      10757      10756      10866      10867      10878      10877  
     10746      10747      10758      10757      10867      10868      10879      10878  
     10748      10749      10760      10759      10869      10870      10881      10880  
     10749      10750      10761      10760      10870      10871      10882      10881  
     10750      10751      10762      10761      10871      10872      10883      10882  
     10751      10752      10763      10762      10872      10873      10884      10883  
     10752      10753      10764      10763      10873      10874      10885      10884  
     10753      10754      10765      10764      10874      10875      10886      10885  
     10754      10755      10766      10765      10875      10876      10887      10886  
     10755      10756      10767      10766      10876      10877      10888      10887  
     10756      10757      10768      10767      10877      10878      10889      10888  
     10757      10758      10769      10768      10878      10879      10890      10889  
     10770      10771      10782      10781      10891      10892      10903      10902  
     10771      10772      10783      10782      10892      10893      10904      10903  
     10772      10773      10784      10783      10893      10894      10905      10904  
     10773      10774      10785      10784      10894      10895      10906      10905  
     10774      10775      10786      10785      10895      10896      10907      10906  
     10775      10776      10787      10786      10896      10897      10908      10907  
     10776      10777      10788      10787      10897      10898      10909      10908  
     10777      10778      10789      10788      10898      10899      10910      10909  
     10778      10779      10790      10789      10899      10900      10911      10910  
     10779      10780      10791      10790      10900      10901      10912      10911  
     10781      10782      10793      10792      10902      10903      10914      10913  
     10782      10783      10794      10793      10903      10904      10915      10914  
     10783      10784      10795      10794      10904      10905      10916      10915  
     10784      10785      10796      10795      10905      10906      10917      10916  
     10785      10786      10797      10796      10906      10907      10918      10917  
     10786      10787      10798      10797      10907      10908      10919      10918  
     10787      10788      10799      10798      10908      10909      10920      10919  
     10788      10789      10800      10799      10909      10910      10921      10920  
     10789      10790      10801      10800      10910      10911      10922      10921  
     10790      10791      10802      10801      10911      10912      10923      10922  
     10792      10793      10804      10803      10913      10914      10925      10924  
     10793      10794      10805      10804      10914      10915      10926      10925  
     10794      10795      10806      10805      10915      10916      10927      10926  
     10795      10796      10807      10806      10916      10917      10928      10927  
     10796      10797      10808      10807      10917      10918      10929      10928  
     10797      10798      10809      10808      10918      10919      10930      10929  
     10798      10799      10810      10809      10919      10920      10931      10930  
     10799      10800      10811      10810      10920      10921      10932      10931  
     10800      10801      10812      10811      10921      10922      10933      10932  
     10801      10802      10813      10812      10922      10923      10934      10933  
     10803      10804      10815      10814      10924      10925      10936      10935  
     10804      10805      10816      10815      10925      10926      10937      10936  
     10805      10806      10817      10816      10926      10927      10938      10937  
     10806      10807      10818      10817      10927      10928      10939      10938  
     10807      10808      10819      10818      10928      10929      10940      10939  
     10808      10809      10820      10819      10929      10930      10941      10940  
     10809      10810      10821      10820      10930      10931      10942      10941  
     10810      10811      10822      10821      10931      10932      10943      10942  
     10811      10812      10823      10822      10932      10933      10944      10943  
     10812      10813      10824      10823      10933      10934      10945      10944  
     10814      10815      10826      10825      10935      10936      10947      10946  
     10815      10816      10827      10826      10936      10937      10948      10947  
     10816      10817      10828      10827      10937      10938      10949      10948  
     10817      10818      10829      10828      10938      10939      10950      10949  
     10818      10819      10830      10829      10939      10940      10951      10950  
     10819      10820      10831      10830      10940      10941      10952      10951  
     10820      10821      10832      10831      10941      10942      10953      10952  
     10821      10822      10833      10832      10942      10943      10954      10953  
     10822      10823      10834      10833      10943      10944      10955      10954  
     10823      10824      10835      10834      10944      10945      10956      10955  
     10825      10826      10837      10836      10946      10947      10958      10957  
     10826      10827      10838      10837      10947      10948      10959      10958  
     10827      10828      10839      10838      10948      10949      10960      10959  
     10828      10829      10840      10839      10949      10950      10961      10960  
     10829      10830      10841      10840      10950      10951      10962      10961  
     10830      10831      10842      10841      10951      10952      10963      10962  
     10831      10832      10843      10842      10952      10953      10964      10963  
     10832      10833      10844      10843      10953      10954      10965      10964  
     10833      10834      10845      10844      10954      10955      10966      10965  
     10834      10835      10846      10845      10955      10956      10967      10966  
     10836      10837      10848      10847      10957      10958      10969      10968  
     10837      10838      10849      10848      10958      10959      10970      10969  
     10838      10839      10850      10849      10959      10960      10971      10970  
     10839      10840      10851      10850      10960      10961      10972      10971  
     10840      10841      10852      10851      10961      10962      10973      10972  
     10841      10842      10853      10852      10962      10963      10974      10973  
     10842      10843      10854      10853      10963      10964      10975      10974  
     10843      10844      10855      10854      10964      10965      10976      10975  
     10844      10845      10856      10855      10965      10966      10977      10976  
     10845      10846      10857      10856      10966      10967      10978      10977  
     10847      10848      10859      10858      10968      10969      10980      10979  
     10848      10849      10860      10859      10969      10970      10981      10980  
     10849      10850      10861      10860      10970      10971      10982      10981  
     10850      10851      10862      10861      10971      10972      10983      10982  
     10851      10852      10863      10862      10972      10973      10984      10983  
     10852      10853      10864      10863      10973      10974      10985      10984  
     10853      10854      10865      10864      10974      10975      10986      10985  
     10854      10855      10866      10865      10975      10976      10987      10986  
     10855      10856      10867      10866      10976      10977      10988      10987  
     10856      10857      10868      10867      10977      10978      10989      10988  
     10858      10859      10870      10869      10979      10980      10991      10990  
     10859      10860      10871      10870      10980      10981      10992      10991  
     10860      10861      10872      10871      10981      10982      10993      10992  
     10861      10862      10873      10872      10982      10983      10994      10993  
     10862      10863      10874      10873      10983      10984      10995      10994  
     10863      10864      10875      10874      10984      10985      10996      10995  
     10864      10865      10876      10875      10985      10986      10997      10996  
     10865      10866      10877      10876      10986      10987      10998      10997  
     10866      10867      10878      10877      10987      10988      10999      10998  
     10867      10868      10879      10878      10988      10989      11000      10999  
     10869      10870      10881      10880      10990      10991      11002      11001  
     10870      10871      10882      10881      10991      10992      11003      11002  
     10871      10872      10883      10882      10992      10993      11004      11003  
     10872      10873      10884      10883      10993      10994      11005      11004  
     10873      10874      10885      10884      10994      10995      11006      11005  
     10874      10875      10886      10885      10995      10996      11007      11006  
     10875      10876      10887      10886      10996      10997      11008      11007  
     10876      10877      10888      10887      10997      10998      11009      11008  
     10877      10878      10889      10888      10998      10999      11010      11009  
     10878      10879      10890      10889      10999      11000      11011      11010  
     10891      10892      10903      10902      11012      11013      11024      11023  
     10892      10893      10904      10903      11013      11014      11025      11024  
     10893      10894      10905      10904      11014      11015      11026      11025  
     10894      10895      10906      10905      11015      11016      11027      11026  
     10895      10896      10907      10906      11016      11017      11028      11027  
     10896      10897      10908      10907      11017      11018      11029      11028  
     10897      10898      10909      10908      11018      11019      11030      11029  
     10898      10899      10910      10909      11019      11020      11031      11030  
     10899      10900      10911      10910      11020      11021      11032      11031  
     10900      10901      10912      10911      11021      11022      11033      11032  
     10902      10903      10914      10913      11023      11024      11035      11034  
     10903      10904      10915      10914      11024      11025      11036      11035  
     10904      10905      10916      10915      11025      11026      11037      11036  
     10905      10906      10917      10916      11026      11027      11038      11037  
     10906      10907      10918      10917      11027      11028      11039      11038  
     10907      10908      10919      10918      11028      11029      11040      11039  
     10908      10909      10920      10919      11029      11030      11041      11040  
     10909      10910      10921      10920      11030      11031      11042      11041  
     10910      10911      10922      10921      11031      11032      11043      11042  
     10911      10912      10923      10922      11032      11033      11044      11043  
     10913      10914      10925      10924      11034      11035      11046      11045  
     10914      10915      10926      10925      11035      11036      11047      11046  
     10915      10916      10927      10926      11036      11037      11048      11047  
     10916      10917      10928      10927      11037      11038      11049      11048  
     10917      10918      10929      10928      11038      11039      11050      11049  
     10918      10919      10930      10929      11039      11040      11051      11050  
     10919      10920      10931      10930      11040      11041      11052      11051  
     10920      10921      10932      10931      11041      11042      11053      11052  
     10921      10922      10933      10932      11042      11043      11054      11053  
     10922      10923      10934      10933      11043      11044      11055      11054  
     10924      10925      10936      10935      11045      11046      11057      11056  
     10925      10926      10937      10936      11046      11047      11058      11057  
     10926      10927      10938      10937      11047      11048      11059      11058  
     10927      10928      10939      10938      11048      11049      11060      11059  
     10928      10929      10940      10939      11049      11050      11061      11060  
     10929      10930      10941      10940      11050      11051      11062      11061  
     10930      10931      10942      10941      11051      11052      11063      11062  
     10931      10932      10943      10942      11052      11053      11064      11063  
     10932      10933      10944      10943      11053      11054      11065      11064  
     10933      10934      10945      10944      11054      11055      11066      11065  
     10935      10936      10947      10946      11056      11057      11068      11067  
     10936      10937      10948      10947      11057      11058      11069      11068  
     10937      10938      10949      10948      11058      11059      11070      11069  
     10938      10939      10950      10949      11059      11060      11071      11070  
     10939      10940      10951      10950      11060      11061      11072      11071  
     10940      10941      10952      10951      11061      11062      11073      11072  
     10941      10942      10953      10952      11062      11063      11074      11073  
     10942      10943      10954      10953      11063      11064      11075      11074  
     10943      10944      10955      10954      11064      11065      11076      11075  
     10944      10945      10956      10955      11065      11066      11077      11076  
     10946      10947      10958      10957      11067      11068      11079      11078  
     10947      10948      10959      10958      11068      11069      11080      11079  
     10948      10949      10960      10959      11069      11070      11081      11080  
     10949      10950      10961      10960      11070      11071      11082      11081  
     10950      10951      10962      10961      11071      11072      11083      11082  
     10951      10952      10963      10962      11072      11073      11084      11083  
     10952      10953      10964      10963      11073      11074      11085      11084  
     10953      10954      10965      10964      11074      11075      11086      11085  
     10954      10955      10966      10965      11075      11076      11087      11086  
     10955      10956      10967      10966      11076      11077      11088      11087  
     10957      10958      10969      10968      11078      11079      11090      11089  
     10958      10959      10970      10969      11079      11080      11091      11090  
     10959      10960      10971      10970      11080      11081      11092      11091  
     10960      10961      10972      10971      11081      11082      11093      11092  
     10961      10962      10973      10972      11082      11083      11094      11093  
     10962      10963      10974      10973      11083      11084      11095      11094  
     10963      10964      10975      10974      11084      11085      11096      11095  
     10964      10965      10976      10975      11085      11086      11097      11096  
     10965      10966      10977      10976      11086      11087      11098      11097  
     10966      10967      10978      10977      11087      11088      11099      11098  
     10968      10969      10980      10979      11089      11090      11101      11100  
     10969      10970      10981      10980      11090      11091      11102      11101  
     10970      10971      10982      10981      11091      11092      11103      11102  
     10971      10972      10983      10982      11092      11093      11104      11103  
     10972      10973      10984      10983      11093      11094      11105      11104  
     10973      10974      10985      10984      11094      11095      11106      11105  
     10974      10975      10986      10985      11095      11096      11107      11106  
     10975      10976      10987      10986      11096      11097      11108      11107  
     10976      10977      10988      10987      11097      11098      11109      11108  
     10977      10978      10989      10988      11098      11099      11110      11109  
     10979      10980      10991      10990      11100      11101      11112      11111  
     10980      10981      10992      10991      11101      11102      11113      11112  
     10981      10982      10993      10992      11102      11103      11114      11113  
     10982      10983      10994      10993      11103      11104      11115      11114  
     10983      10984      10995      10994      11104      11105      11116      11115  
     10984      10985      10996      10995      11105      11106      11117      11116  
     10985      10986      10997      10996      11106      11107      11118      11117  
     10986      10987      10998      10997      11107      11108      11119      11118  
     10987      10988      10999      10998      11108      11109      11120      11119  
     10988      10989      11000      10999      11109      11110      11121      11120  
     10990      10991      11002      11001      11111      11112      11123      11122  
     10991      10992      11003      11002      11112      11113      11124      11123  
     10992      10993      11004      11003      11113      11114      11125      11124  
     10993      10994      11005      11004      11114      11115      11126      11125  
     10994      10995      11006      11005      11115      11116      11127      11126  
     10995      10996      11007      11006      11116      11117      11128      11127  
     10996      10997      11008      11007      11117      11118      11129      11128  
     10997      10998      11009      11008      11118      11119      11130      11129  
     10998      10999      11010      11009      11119      11120      11131      11130  
     10999      11000      11011      11010      11120      11121      11132      11131  
     11012      11013      11024      11023      11133      11134      11145      11144  
     11013      11014      11025      11024      11134      11135      11146      11145  
     11014      11015      11026      11025      11135      11136      11147      11146  
     11015      11016      11027      11026      11136      11137      11148      11147  
     11016      11017      11028      11027      11137      11138      11149      11148  
     11017      11018      11029      11028      11138      11139      11150      11149  
     11018      11019      11030      11029      11139      11140      11151      11150  
     11019      11020      11031      11030      11140      11141      11152      11151  
     11020      11021      11032      11031      11141      11142      11153      11152  
     11021      11022      11033      11032      11142      11143      11154      11153  
     11023      11024      11035      11034      11144      11145      11156      11155  
     11024      11025      11036      11035      11145      11146      11157      11156  
     11025      11026      11037      11036      11146      11147      11158      11157  
     11026      11027      11038      11037      11147      11148      11159      11158  
     11027      11028      11039      11038      11148      11149      11160      11159  
     11028      11029      11040      11039      11149      11150      11161      11160  
     11029      11030      11041      11040      11150      11151      11162      11161  
     11030      11031      11042      11041      11151      11152      11163      11162  
     11031      11032      11043      11042      11152      11153      11164      11163  
     11032      11033      11044      11043      11153      11154      11165      11164  
     11034      11035      11046      11045      11155      11156      11167      11166  
     11035      11036      11047      11046      11156      11157      11168      11167  
     11036      11037      11048      11047      11157      11158      11169      11168  
     11037      11038      11049      11048      11158      11159      11170      11169  
     11038      11039      11050      11049      11159      11160      11171      11170  
     11039      11040      11051      11050      11160      11161      11172      11171  
     11040      11041      11052      11051      11161      11162      11173      11172  
     11041      11042      11053      11052      11162      11163      11174      11173  
     11042      11043      11054      11053      11163      11164      11175      11174  
     11043      11044      11055      11054      11164      11165      11176      11175  
     11045      11046      11057      11056      11166      11167      11178      11177  
     11046      11047      11058      11057      11167      11168      11179      11178  
     11047      11048      11059      11058      11168      11169      11180      11179  
     11048      11049      11060      11059      11169      11170      11181      11180  
     11049      11050      11061      11060      11170      11171      11182      11181  
     11050      11051      11062      11061      11171      11172      11183      11182  
     11051      11052      11063      11062      11172      11173      11184      11183  
     11052      11053      11064      11063      11173      11174      11185      11184  
     11053      11054      11065      11064      11174      11175      11186      11185  
     11054      11055      11066      11065      11175      11176      11187      11186  
     11056      11057      11068      11067      11177      11178      11189      11188  
     11057      11058      11069      11068      11178      11179      11190      11189  
     11058      11059      11070      11069      11179      11180      11191      11190  
     11059      11060      11071      11070      11180      11181      11192      11191  
     11060      11061      11072      11071      11181      11182      11193      11192  
     11061      11062      11073      11072      11182      11183      11194      11193  
     11062      11063      11074      11073      11183      11184      11195      11194  
     11063      11064      11075      11074      11184      11185      11196      11195  
     11064      11065      11076      11075      11185      11186      11197      11196  
     11065      11066      11077      11076      11186      11187      11198      11197  
     11067      11068      11079      11078      11188      11189      11200      11199  
     11068      11069      11080      11079      11189      11190      11201      11200  
     11069      11070      11081      11080      11190      11191      11202      11201  
     11070      11071      11082      11081      11191      11192      11203      11202  
     11071      11072      11083      11082      11192      11193      11204      11203  
     11072      11073      11084      11083      11193      11194      11205      11204  
     11073      11074      11085      11084      11194      11195      11206      11205  
     11074      11075      11086      11085      11195      11196      11207      11206  
     11075      11076      11087      11086      11196      11197      11208      11207  
     11076      11077      11088      11087      11197      11198      11209      11208  
     11078      11079      11090      11089      11199      11200      11211      11210  
     11079      11080      11091      11090      11200      11201      11212      11211  
     11080      11081      11092      11091      11201      11202      11213      11212  
     11081      11082      11093      11092      11202      11203      11214      11213  
     11082      11083      11094      11093      11203      11204      11215      11214  
     11083      11084      11095      11094      11204      11205      11216      11215  
     11084      11085      11096      11095      11205      11206      11217      11216  
     11085      11086      11097      11096      11206      11207      11218      11217  
     11086      11087      11098      11097      11207      11208      11219      11218  
     11087      11088      11099      11098      11208      11209      11220      11219  
     11089      11090      11101      11100      11210      11211      11222      11221  
     11090      11091      11102      11101      11211      11212      11223      11222  
     11091      11092      11103      11102      11212      11213      11224      11223  
     11092      11093      11104      11103      11213      11214      11225      11224  
     11093      11094      11105      11104      11214      11215      11226      11225  
     11094      11095      11106      11105      11215      11216      11227      11226  
     11095      11096      11107      11106      11216      11217      11228      11227  
     11096      11097      11108      11107      11217      11218      11229      11228  
     11097      11098      11109      11108      11218      11219      11230      11229  
     11098      11099      11110      11109      11219      11220      11231      11230  
     11100      11101      11112      11111      11221      11222      11233      11232  
     11101      11102      11113      11112      11222      11223      11234      11233  
     11102      11103      11114      11113      11223      11224      11235      11234  
     11103      11104      11115      11114      11224      11225      11236      11235  
     11104      11105      11116      11115      11225      11226      11237      11236  
     11105      11106      11117      11116      11226      11227      11238      11237  
     11106      11107      11118      11117      11227      11228      11239      11238  
     11107      11108      11119      11118      11228      11229      11240      11239  
     11108      11109      11120      11119      11229      11230      11241      11240  
     11109      11110      11121      11120      11230      11231      11242      11241  
     11111      11112      11123      11122      11232      11233      11244      11243  
     11112      11113      11124      11123      11233      11234      11245      11244  
     11113      11114      11125      11124      11234      11235      11246      11245  
     11114      11115      11126      11125      11235      11236      11247      11246  
     11115      11116      11127      11126      11236      11237      11248      11247  
     11116      11117      11128      11127      11237      11238      11249      11248  
     11117      11118      11129      11128      11238      11239      11250      11249  
     11118      11119      11130      11129      11239      11240      11251      11250  
     11119      11120      11131      11130      11240      11241      11252      11251  
     11120      11121      11132      11131      11241      11242      11253      11252  
     11133      11134      11145      11144      11254      11255      11266      11265  
     11134      11135      11146      11145      11255      11256      11267      11266  
     11135      11136      11147      11146      11256      11257      11268      11267  
     11136      11137      11148      11147      11257      11258      11269      11268  
     11137      11138      11149      11148      11258      11259      11270      11269  
     11138      11139      11150      11149      11259      11260      11271      11270  
     11139      11140      11151      11150      11260      11261      11272      11271  
     11140      11141      11152      11151      11261      11262      11273      11272  
     11141      11142      11153      11152      11262      11263      11274      11273  
     11142      11143      11154      11153      11263      11264      11275      11274  
     11144      11145      11156      11155      11265      11266      11277      11276  
     11145      11146      11157      11156      11266      11267      11278      11277  
     11146      11147      11158      11157      11267      11268      11279      11278  
     11147      11148      11159      11158      11268      11269      11280      11279  
     11148      11149      11160      11159      11269      11270      11281      11280  
     11149      11150      11161      11160      11270      11271      11282      11281  
     11150      11151      11162      11161      11271      11272      11283      11282  
     11151      11152      11163      11162      11272      11273      11284      11283  
     11152      11153      11164      11163      11273      11274      11285      11284  
     11153      11154      11165      11164      11274      11275      11286      11285  
     11155      11156      11167      11166      11276      11277      11288      11287  
     11156      11157      11168      11167      11277      11278      11289      11288  
     11157      11158      11169      11168      11278      11279      11290      11289  
     11158      11159      11170      11169      11279      11280      11291      11290  
     11159      11160      11171      11170      11280      11281      11292      11291  
     11160      11161      11172      11171      11281      11282      11293      11292  
     11161      11162      11173      11172      11282      11283      11294      11293  
     11162      11163      11174      11173      11283      11284      11295      11294  
     11163      11164      11175      11174      11284      11285      11296      11295  
     11164      11165      11176      11175      11285      11286      11297      11296  
     11166      11167      11178      11177      11287      11288      11299      11298  
     11167      11168      11179      11178      11288      11289      11300      11299  
     11168      11169      11180      11179      11289      11290      11301      11300  
     11169      11170      11181      11180      11290      11291      11302      11301  
     11170      11171      11182      11181      11291      11292      11303      11302  
     11171      11172      11183      11182      11292      11293      11304      11303  
     11172      11173      11184      11183      11293      11294      11305      11304  
     11173      11174      11185      11184      11294      11295      11306      11305  
     11174      11175      11186      11185      11295      11296      11307      11306  
     11175      11176      11187      11186      11296      11297      11308      11307  
     11177      11178      11189      11188      11298      11299      11310      11309  
     11178      11179      11190      11189      11299      11300      11311      11310  
     11179      11180      11191      11190      11300      11301      11312      11311  
     11180      11181      11192      11191      11301      11302      11313      11312  
     11181      11182      11193      11192      11302      11303      11314      11313  
     11182      11183      11194      11193      11303      11304      11315      11314  
     11183      11184      11195      11194      11304      11305      11316      11315  
     11184      11185      11196      11195      11305      11306      11317      11316  
     11185      11186      11197      11196      11306      11307      11318      11317  
     11186      11187      11198      11197      11307      11308      11319      11318  
     11188      11189      11200      11199      11309      11310      11321      11320  
     11189      11190      11201      11200      11310      11311      11322      11321  
     11190      11191      11202      11201      11311      11312      11323      11322  
     11191      11192      11203      11202      11312      11313      11324      11323  
     11192      11193      11204      11203      11313      11314      11325      11324  
     11193      11194      11205      11204      11314      11315      11326      11325  
     11194      11195      11206      11205      11315      11316      11327      11326  
     11195      11196      11207      11206      11316      11317      11328      11327  
     11196      11197      11208      11207      11317      11318      11329      11328  
     11197      11198      11209      11208      11318      11319      11330      11329  
     11199      11200      11211      11210      11320      11321      11332      11331  
     11200      11201      11212      11211      11321      11322      11333      11332  
     11201      11202      11213      11212      11322      11323      11334      11333  
     11202      11203      11214      11213      11323      11324      11335      11334  
     11203      11204      11215      11214      11324      11325      11336      11335  
     11204      11205      11216      11215      11325      11326      11337      11336  
     11205      11206      11217      11216      11326      11327      11338      11337  
     11206      11207      11218      11217      11327      11328      11339      11338  
     11207      11208      11219      11218      11328      11329      11340      11339  
     11208      11209      11220      11219      11329      11330      11341      11340  
     11210      11211      11222      11221      11331      11332      11343      11342  
     11211      11212      11223      11222      11332      11333      11344      11343  
     11212      11213      11224      11223      11333      11334      11345      11344  
     11213      11214      11225      11224      11334      11335      11346      11345  
     11214      11215      11226      11225      11335      11336      11347      11346  
     11215      11216      11227      11226      11336      11337      11348      11347  
     11216      11217      11228      11227      11337      11338      11349      11348  
     11217      11218      11229      11228      11338      11339      11350      11349  
     11218      11219      11230      11229      11339      11340      11351      11350  
     11219      11220      11231      11230      11340      11341      11352      11351  
     11221      11222      11233      11232      11342      11343      11354      11353  
     11222      11223      11234      11233      11343      11344      11355      11354  
     11223      11224      11235      11234      11344      11345      11356      11355  
     11224      11225      11236      11235      11345      11346      11357      11356  
     11225      11226      11237      11236      11346      11347      11358      11357  
     11226      11227      11238      11237      11347      11348      11359      11358  
     11227      11228      11239      11238      11348      11349      11360      11359  
     11228      11229      11240      11239      11349      11350      11361      11360  
     11229      11230      11241      11240      11350      11351      11362      11361  
     11230      11231      11242      11241      11351      11352      11363      11362  
     11232      11233      11244      11243      11353      11354      11365      11364  
     11233      11234      11245      11244      11354      11355      11366      11365  
     11234      11235      11246      11245      11355      11356      11367      11366  
     11235      11236      11247      11246      11356      11357      11368      11367  
     11236      11237      11248      11247      11357      11358      11369      11368  
     11237      11238      11249      11248      11358      11359      11370      11369  
     11238      11239      11250      11249      11359      11360      11371      11370  
     11239      11240      11251      11250      11360      11361      11372      11371  
     11240      11241      11252      11251      11361      11362      11373      11372  
     11241      11242      11253      11252      11362      11363      11374      11373  
     11254      11255      11266      11265      11375      11376      11387      11386  
     11255      11256      11267      11266      11376      11377      11388      11387  
     11256      11257      11268      11267      11377      11378      11389      11388  
     11257      11258      11269      11268      11378      11379      11390      11389  
     11258      11259      11270      11269      11379      11380      11391      11390  
     11259      11260      11271      11270      11380      11381      11392      11391  
     11260      11261      11272      11271      11381      11382      11393      11392  
     11261      11262      11273      11272      11382      11383      11394      11393  
     11262      11263      11274      11273      11383      11384      11395      11394  
     11263      11264      11275      11274      11384      11385      11396      11395  
     11265      11266      11277      11276      11386      11387      11398      11397  
     11266      11267      11278      11277      11387      11388      11399      11398  
     11267      11268      11279      11278      11388      11389      11400      11399  
     11268      11269      11280      11279      11389      11390      11401      11400  
     11269      11270      11281      11280      11390      11391      11402      11401  
     11270      11271      11282      11281      11391      11392      11403      11402  
     11271      11272      11283      11282      11392      11393      11404      11403  
     11272      11273      11284      11283      11393      11394      11405      11404  
     11273      11274      11285      11284      11394      11395      11406      11405  
     11274      11275      11286      11285      11395      11396      11407      11406  
     11276      11277      11288      11287      11397      11398      11409      11408  
     11277      11278      11289      11288      11398      11399      11410      11409  
     11278      11279      11290      11289      11399      11400      11411      11410  
     11279      11280      11291      11290      11400      11401      11412      11411  
     11280      11281      11292      11291      11401      11402      11413      11412  
     11281      11282      11293      11292      11402      11403      11414      11413  
     11282      11283      11294      11293      11403      11404      11415      11414  
     11283      11284      11295      11294      11404      11405      11416      11415  
     11284      11285      11296      11295      11405      11406      11417      11416  
     11285      11286      11297      11296      11406      11407      11418      11417  
     11287      11288      11299      11298      11408      11409      11420      11419  
     11288      11289      11300      11299      11409      11410      11421      11420  
     11289      11290      11301      11300      11410      11411      11422      11421  
     11290      11291      11302      11301      11411      11412      11423      11422  
     11291      11292      11303      11302      11412      11413      11424      11423  
     11292      11293      11304      11303      11413      11414      11425      11424  
     11293      11294      11305      11304      11414      11415      11426      11425  
     11294      11295      11306      11305      11415      11416      11427      11426  
     11295      11296      11307      11306      11416      11417      11428      11427  
     11296      11297      11308      11307      11417      11418      11429      11428  
     11298      11299      11310      11309      11419      11420      11431      11430  
     11299      11300      11311      11310      11420      11421      11432      11431  
     11300      11301      11312      11311      11421      11422      11433      11432  
     11301      11302      11313      11312      11422      11423      11434      11433  
     11302      11303      11314      11313      11423      11424      11435      11434  
     11303      11304      11315      11314      11424      11425      11436      11435  
     11304      11305      11316      11315      11425      11426      11437      11436  
     11305      11306      11317      11316      11426      11427      11438      11437  
     11306      11307      11318      11317      11427      11428      11439      11438  
     11307      11308      11319      11318      11428      11429      11440      11439  
     11309      11310      11321      11320      11430      11431      11442      11441  
     11310      11311      11322      11321      11431      11432      11443      11442  
     11311      11312      11323      11322      11432      11433      11444      11443  
     11312      11313      11324      11323      11433      11434      11445      11444  
     11313      11314      11325      11324      11434      11435      11446      11445  
     11314      11315      11326      11325      11435      11436      11447      11446  
     11315      11316      11327      11326      11436      11437      11448      11447  
     11316      11317      11328      11327      11437      11438      11449      11448  
     11317      11318      11329      11328      11438      11439      11450      11449  
     11318      11319      11330      11329      11439      11440      11451      11450  
     11320      11321      11332      11331      11441      11442      11453      11452  
     11321      11322      11333      11332      11442      11443      11454      11453  
     11322      11323      11334      11333      11443      11444      11455      11454  
     11323      11324      11335      11334      11444      11445      11456      11455  
     11324      11325      11336      11335      11445      11446      11457      11456  
     11325      11326      11337      11336      11446      11447      11458      11457  
     11326      11327      11338      11337      11447      11448      11459      11458  
     11327      11328      11339      11338      11448      11449      11460      11459  
     11328      11329      11340      11339      11449      11450      11461      11460  
     11329      11330      11341      11340      11450      11451      11462      11461  
     11331      11332      11343      11342      11452      11453      11464      11463  
     11332      11333      11344      11343      11453      11454      11465      11464  
     11333      11334      11345      11344      11454      11455      11466      11465  
     11334      11335      11346      11345      11455      11456      11467      11466  
     11335      11336      11347      11346      11456      11457      11468      11467  
     11336      11337      11348      11347      11457      11458      11469      11468  
     11337      11338      11349      11348      11458      11459      11470      11469  
     11338      11339      11350      11349      11459      11460      11471      11470  
     11339      11340      11351      11350      11460      11461      11472      11471  
     11340      11341      11352      11351      11461      11462      11473      11472  
     11342      11343      11354      11353      11463      11464      11475      11474  
     11343      11344      11355      11354      11464      11465      11476      11475  
     11344      11345      11356      11355      11465      11466      11477      11476  
     11345      11346      11357      11356      11466      11467      11478      11477  
     11346      11347      11358      11357      11467      11468      11479      11478  
     11347      11348      11359      11358      11468      11469      11480      11479  
     11348      11349      11360      11359      11469      11470      11481      11480  
     11349      11350      11361      11360      11470      11471      11482      11481  
     11350      11351      11362      11361      11471      11472      11483      11482  
     11351      11352      11363      11362      11472      11473      11484      11483  
     11353      11354      11365      11364      11474      11475      11486      11485  
     11354      11355      11366      11365      11475      11476      11487      11486  
     11355      11356      11367      11366      11476      11477      11488      11487  
     11356      11357      11368      11367      11477      11478      11489      11488  
     11357      11358      11369      11368      11478      11479      11490      11489  
     11358      11359      11370      11369      11479      11480      11491      11490  
     11359      11360      11371      11370      11480      11481      11492      11491  
     11360      11361      11372      11371      11481      11482      11493      11492  
     11361      11362      11373      11372      11482      11483      11494      11493  
     11362      11363      11374      11373      11483      11484      11495      11494  
     11375      11376      11387      11386      11496      11497      11508      11507  
     11376      11377      11388      11387      11497      11498      11509      11508  
     11377      11378      11389      11388      11498      11499      11510      11509  
     11378      11379      11390      11389      11499      11500      11511      11510  
     11379      11380      11391      11390      11500      11501      11512      11511  
     11380      11381      11392      11391      11501      11502      11513      11512  
     11381      11382      11393      11392      11502      11503      11514      11513  
     11382      11383      11394      11393      11503      11504      11515      11514  
     11383      11384      11395      11394      11504      11505      11516      11515  
     11384      11385      11396      11395      11505      11506      11517      11516  
     11386      11387      11398      11397      11507      11508      11519      11518  
     11387      11388      11399      11398      11508      11509      11520      11519  
     11388      11389      11400      11399      11509      11510      11521      11520  
     11389      11390      11401      11400      11510      11511      11522      11521  
     11390      11391      11402      11401      11511      11512      11523      11522  
     11391      11392      11403      11402      11512      11513      11524      11523  
     11392      11393      11404      11403      11513      11514      11525      11524  
     11393      11394      11405      11404      11514      11515      11526      11525  
     11394      11395      11406      11405      11515      11516      11527      11526  
     11395      11396      11407      11406      11516      11517      11528      11527  
     11397      11398      11409      11408      11518      11519      11530      11529  
     11398      11399      11410      11409      11519      11520      11531      11530  
     11399      11400      11411      11410      11520      11521      11532      11531  
     11400      11401      11412      11411      11521      11522      11533      11532  
     11401      11402      11413      11412      11522      11523      11534      11533  
     11402      11403      11414      11413      11523      11524      11535      11534  
     11403      11404      11415      11414      11524      11525      11536      11535  
     11404      11405      11416      11415      11525      11526      11537      11536  
     11405      11406      11417      11416      11526      11527      11538      11537  
     11406      11407      11418      11417      11527      11528      11539      11538  
     11408      11409      11420      11419      11529      11530      11541      11540  
     11409      11410      11421      11420      11530      11531      11542      11541  
     11410      11411      11422      11421      11531      11532      11543      11542  
     11411      11412      11423      11422      11532      11533      11544      11543  
     11412      11413      11424      11423      11533      11534      11545      11544  
     11413      11414      11425      11424      11534      11535      11546      11545  
     11414      11415      11426      11425      11535      11536      11547      11546  
     11415      11416      11427      11426      11536      11537      11548      11547  
     11416      11417      11428      11427      11537      11538      11549      11548  
     11417      11418      11429      11428      11538      11539      11550      11549  
     11419      11420      11431      11430      11540      11541      11552      11551  
     11420      11421      11432      11431      11541      11542      11553      11552  
     11421      11422      11433      11432      11542      11543      11554      11553  
     11422      11423      11434      11433      11543      11544      11555      11554  
     11423      11424      11435      11434      11544      11545      11556      11555  
     11424      11425      11436      11435      11545      11546      11557      11556  
     11425      11426      11437      11436      11546      11547      11558      11557  
     11426      11427      11438      11437      11547      11548      11559      11558  
     11427      11428      11439      11438      11548      11549      11560      11559  
     11428      11429      11440      11439      11549      11550      11561      11560  
     11430      11431      11442      11441      11551      11552      11563      11562  
     11431      11432      11443      11442      11552      11553      11564      11563  
     11432      11433      11444      11443      11553      11554      11565      11564  
     11433      11434      11445      11444      11554      11555      11566      11565  
     11434      11435      11446      11445      11555      11556      11567      11566  
     11435      11436      11447      11446      11556      11557      11568      11567  
     11436      11437      11448      11447      11557      11558      11569      11568  
     11437      11438      11449      11448      11558      11559      11570      11569  
     11438      11439      11450      11449      11559      11560      11571      11570  
     11439      11440      11451      11450      11560      11561      11572      11571  
     11441      11442      11453      11452      11562      11563      11574      11573  
     11442      11443      11454      11453      11563      11564      11575      11574  
     11443      11444      11455      11454      11564      11565      11576      11575  
     11444      11445      11456      11455      11565      11566      11577      11576  
     11445      11446      11457      11456      11566      11567      11578      11577  
     11446      11447      11458      11457      11567      11568      11579      11578  
     11447      11448      11459      11458      11568      11569      11580      11579  
     11448      11449      11460      11459      11569      11570      11581      11580  
     11449      11450      11461      11460      11570      11571      11582      11581  
     11450      11451      11462      11461      11571      11572      11583      11582  
     11452      11453      11464      11463      11573      11574      11585      11584  
     11453      11454      11465      11464      11574      11575      11586      11585  
     11454      11455      11466      11465      11575      11576      11587      11586  
     11455      11456      11467      11466      11576      11577      11588      11587  
     11456      11457      11468      11467      11577      11578      11589      11588  
     11457      11458      11469      11468      11578      11579      11590      11589  
     11458      11459      11470      11469      11579      11580      11591      11590  
     11459      11460      11471      11470      11580      11581      11592      11591  
     11460      11461      11472      11471      11581      11582      11593      11592  
     11461      11462      11473      11472      11582      11583      11594      11593  
     11463      11464      11475      11474      11584      11585      11596      11595  
     11464      11465      11476      11475      11585      11586      11597      11596  
     11465      11466      11477      11476      11586      11587      11598      11597  
     11466      11467      11478      11477      11587      11588      11599      11598  
     11467      11468      11479      11478      11588      11589      11600      11599  
     11468      11469      11480      11479      11589      11590      11601      11600  
     11469      11470      11481      11480      11590      11591      11602      11601  
     11470      11471      11482      11481      11591      11592      11603      11602  
     11471      11472      11483      11482      11592      11593      11604      11603  
     11472      11473      11484      11483      11593      11594      11605      11604  
     11474      11475      11486      11485      11595      11596      11607      11606  
     11475      11476      11487      11486      11596      11597      11608      11607  
     11476      11477      11488      11487      11597      11598      11609      11608  
     11477      11478      11489      11488      11598      11599      11610      11609  
     11478      11479      11490      11489      11599      11600      11611      11610  
     11479      11480      11491      11490      11600      11601      11612      11611  
     11480      11481      11492      11491      11601      11602      11613      11612  
     11481      11482      11493      11492      11602      11603      11614      11613  
     11482      11483      11494      11493      11603      11604      11615      11614  
     11483      11484      11495      11494      11604      11605      11616      11615  
     11496      11497      11508      11507      11617      11618      11629      11628  
     11497      11498      11509      11508      11618      11619      11630      11629  
     11498      11499      11510      11509      11619      11620      11631      11630  
     11499      11500      11511      11510      11620      11621      11632      11631  
     11500      11501      11512      11511      11621      11622      11633      11632  
     11501      11502      11513      11512      11622      11623      11634      11633  
     11502      11503      11514      11513      11623      11624      11635      11634  
     11503      11504      11515      11514      11624      11625      11636      11635  
     11504      11505      11516      11515      11625      11626      11637      11636  
     11505      11506      11517      11516      11626      11627      11638      11637  
     11507      11508      11519      11518      11628      11629      11640      11639  
     11508      11509      11520      11519      11629      11630      11641      11640  
     11509      11510      11521      11520      11630      11631      11642      11641  
     11510      11511      11522      11521      11631      11632      11643      11642  
     11511      11512      11523      11522      11632      11633      11644      11643  
     11512      11513      11524      11523      11633      11634      11645      11644  
     11513      11514      11525      11524      11634      11635      11646      11645  
     11514      11515      11526      11525      11635      11636      11647      11646  
     11515      11516      11527      11526      11636      11637      11648      11647  
     11516      11517      11528      11527      11637      11638      11649      11648  
     11518      11519      11530      11529      11639      11640      11651      11650  
     11519      11520      11531      11530      11640      11641      11652      11651  
     11520      11521      11532      11531      11641      11642      11653      11652  
     11521      11522      11533      11532      11642      11643      11654      11653  
     11522      11523      11534      11533      11643      11644      11655      11654  
     11523      11524      11535      11534      11644      11645      11656      11655  
     11524      11525      11536      11535      11645      11646      11657      11656  
     11525      11526      11537      11536      11646      11647      11658      11657  
     11526      11527      11538      11537      11647      11648      11659      11658  
     11527      11528      11539      11538      11648      11649      11660      11659  
     11529      11530      11541      11540      11650      11651      11662      11661  
     11530      11531      11542      11541      11651      11652      11663      11662  
     11531      11532      11543      11542      11652      11653      11664      11663  
     11532      11533      11544      11543      11653      11654      11665      11664  
     11533      11534      11545      11544      11654      11655      11666      11665  
     11534      11535      11546      11545      11655      11656      11667      11666  
     11535      11536      11547      11546      11656      11657      11668      11667  
     11536      11537      11548      11547      11657      11658      11669      11668  
     11537      11538      11549      11548      11658      11659      11670      11669  
     11538      11539      11550      11549      11659      11660      11671      11670  
     11540      11541      11552      11551      11661      11662      11673      11672  
     11541      11542      11553      11552      11662      11663      11674      11673  
     11542      11543      11554      11553      11663      11664      11675      11674  
     11543      11544      11555      11554      11664      11665      11676      11675  
     11544      11545      11556      11555      11665      11666      11677      11676  
     11545      11546      11557      11556      11666      11667      11678      11677  
     11546      11547      11558      11557      11667      11668      11679      11678  
     11547      11548      11559      11558      11668      11669      11680      11679  
     11548      11549      11560      11559      11669      11670      11681      11680  
     11549      11550      11561      11560      11670      11671      11682      11681  
     11551      11552      11563      11562      11672      11673      11684      11683  
     11552      11553      11564      11563      11673      11674      11685      11684  
     11553      11554      11565      11564      11674      11675      11686      11685  
     11554      11555      11566      11565      11675      11676      11687      11686  
     11555      11556      11567      11566      11676      11677      11688      11687  
     11556      11557      11568      11567      11677      11678      11689      11688  
     11557      11558      11569      11568      11678      11679      11690      11689  
     11558      11559      11570      11569      11679      11680      11691      11690  
     11559      11560      11571      11570      11680      11681      11692      11691  
     11560      11561      11572      11571      11681      11682      11693      11692  
     11562      11563      11574      11573      11683      11684      11695      11694  
     11563      11564      11575      11574      11684      11685      11696      11695  
     11564      11565      11576      11575      11685      11686      11697      11696  
     11565      11566      11577      11576      11686      11687      11698      11697  
     11566      11567      11578      11577      11687      11688      11699      11698  
     11567      11568      11579      11578      11688      11689      11700      11699  
     11568      11569      11580      11579      11689      11690      11701      11700  
     11569      11570      11581      11580      11690      11691      11702      11701  
     11570      11571      11582      11581      11691      11692      11703      11702  
     11571      11572      11583      11582      11692      11693      11704      11703  
     11573      11574      11585      11584      11694      11695      11706      11705  
     11574      11575      11586      11585      11695      11696      11707      11706  
     11575      11576      11587      11586      11696      11697      11708      11707  
     11576      11577      11588      11587      11697      11698      11709      11708  
     11577      11578      11589      11588      11698      11699      11710      11709  
     11578      11579      11590      11589      11699      11700      11711      11710  
     11579      11580      11591      11590      11700      11701      11712      11711  
     11580      11581      11592      11591      11701      11702      11713      11712  
     11581      11582      11593      11592      11702      11703      11714      11713  
     11582      11583      11594      11593      11703      11704      11715      11714  
     11584      11585      11596      11595      11705      11706      11717      11716  
     11585      11586      11597      11596      11706      11707      11718      11717  
     11586      11587      11598      11597      11707      11708      11719      11718  
     11587      11588      11599      11598      11708      11709      11720      11719  
     11588      11589      11600      11599      11709      11710      11721      11720  
     11589      11590      11601      11600      11710      11711      11722      11721  
     11590      11591      11602      11601      11711      11712      11723      11722  
     11591      11592      11603      11602      11712      11713      11724      11723  
     11592      11593      11604      11603      11713      11714      11725      11724  
     11593      11594      11605      11604      11714      11715      11726      11725  
     11595      11596      11607      11606      11716      11717      11728      11727  
     11596      11597      11608      11607      11717      11718      11729      11728  
     11597      11598      11609      11608      11718      11719      11730      11729  
     11598      11599      11610      11609      11719      11720      11731      11730  
     11599      11600      11611      11610      11720      11721      11732      11731  
     11600      11601      11612      11611      11721      11722      11733      11732  
     11601      11602      11613      11612      11722      11723      11734      11733  
     11602      11603      11614      11613      11723      11724      11735      11734  
     11603      11604      11615      11614      11724      11725      11736      11735  
     11604      11605      11616      11615      11725      11726      11737      11736  
     11617      11618      11629      11628      11738      11739      11750      11749  
     11618      11619      11630      11629      11739      11740      11751      11750  
     11619      11620      11631      11630      11740      11741      11752      11751  
     11620      11621      11632      11631      11741      11742      11753      11752  
     11621      11622      11633      11632      11742      11743      11754      11753  
     11622      11623      11634      11633      11743      11744      11755      11754  
     11623      11624      11635      11634      11744      11745      11756      11755  
     11624      11625      11636      11635      11745      11746      11757      11756  
     11625      11626      11637      11636      11746      11747      11758      11757  
     11626      11627      11638      11637      11747      11748      11759      11758  
     11628      11629      11640      11639      11749      11750      11761      11760  
     11629      11630      11641      11640      11750      11751      11762      11761  
     11630      11631      11642      11641      11751      11752      11763      11762  
     11631      11632      11643      11642      11752      11753      11764      11763  
     11632      11633      11644      11643      11753      11754      11765      11764  
     11633      11634      11645      11644      11754      11755      11766      11765  
     11634      11635      11646      11645      11755      11756      11767      11766  
     11635      11636      11647      11646      11756      11757      11768      11767  
     11636      11637      11648      11647      11757      11758      11769      11768  
     11637      11638      11649      11648      11758      11759      11770      11769  
     11639      11640      11651      11650      11760      11761      11772      11771  
     11640      11641      11652      11651      11761      11762      11773      11772  
     11641      11642      11653      11652      11762      11763      11774      11773  
     11642      11643      11654      11653      11763      11764      11775      11774  
     11643      11644      11655      11654      11764      11765      11776      11775  
     11644      11645      11656      11655      11765      11766      11777      11776  
     11645      11646      11657      11656      11766      11767      11778      11777  
     11646      11647      11658      11657      11767      11768      11779      11778  
     11647      11648      11659      11658      11768      11769      11780      11779  
     11648      11649      11660      11659      11769      11770      11781      11780  
     11650      11651      11662      11661      11771      11772      11783      11782  
     11651      11652      11663      11662      11772      11773      11784      11783  
     11652      11653      11664      11663      11773      11774      11785      11784  
     11653      11654      11665      11664      11774      11775      11786      11785  
     11654      11655      11666      11665      11775      11776      11787      11786  
     11655      11656      11667      11666      11776      11777      11788      11787  
     11656      11657      11668      11667      11777      11778      11789      11788  
     11657      11658      11669      11668      11778      11779      11790      11789  
     11658      11659      11670      11669      11779      11780      11791      11790  
     11659      11660      11671      11670      11780      11781      11792      11791  
     11661      11662      11673      11672      11782      11783      11794      11793  
     11662      11663      11674      11673      11783      11784      11795      11794  
     11663      11664      11675      11674      11784      11785      11796      11795  
     11664      11665      11676      11675      11785      11786      11797      11796  
     11665      11666      11677      11676      11786      11787      11798      11797  
     11666      11667      11678      11677      11787      11788      11799      11798  
     11667      11668      11679      11678      11788      11789      11800      11799  
     11668      11669      11680      11679      11789      11790      11801      11800  
     11669      11670      11681      11680      11790      11791      11802      11801  
     11670      11671      11682      11681      11791      11792      11803      11802  
     11672      11673      11684      11683      11793      11794      11805      11804  
     11673      11674      11685      11684      11794      11795      11806      11805  
     11674      11675      11686      11685      11795      11796      11807      11806  
     11675      11676      11687      11686      11796      11797      11808      11807  
     11676      11677      11688      11687      11797      11798      11809      11808  
     11677      11678      11689      11688      11798      11799      11810      11809  
     11678      11679      11690      11689      11799      11800      11811      11810  
     11679      11680      11691      11690      11800      11801      11812      11811  
     11680      11681      11692      11691      11801      11802      11813      11812  
     11681      11682      11693      11692      11802      11803      11814      11813  
     11683      11684      11695      11694      11804      11805      11816      11815  
     11684      11685      11696      11695      11805      11806      11817      11816  
     11685      11686      11697      11696      11806      11807      11818      11817  
     11686      11687      11698      11697      11807      11808      11819      11818  
     11687      11688      11699      11698      11808      11809      11820      11819  
     11688      11689      11700      11699      11809      11810      11821      11820  
     11689      11690      11701      11700      11810      11811      11822      11821  
     11690      11691      11702      11701      11811      11812      11823      11822  
     11691      11692      11703      11702      11812      11813      11824      11823  
     11692      11693      11704      11703      11813      11814      11825      11824  
     11694      11695      11706      11705      11815      11816      11827      11826  
     11695      11696      11707      11706      11816      11817      11828      11827  
     11696      11697      11708      11707      11817      11818      11829      11828  
     11697      11698      11709      11708      11818      11819      11830      11829  
     11698      11699      11710      11709      11819      11820      11831      11830  
     11699      11700      11711      11710      11820      11821      11832      11831  
     11700      11701      11712      11711      11821      11822      11833      11832  
     11701      11702      11713      11712      11822      11823      11834      11833  
     11702      11703      11714      11713      11823      11824      11835      11834  
     11703      11704      11715      11714      11824      11825      11836      11835  
     11705      11706      11717      11716      11826      11827      11838      11837  
     11706      11707      11718      11717      11827      11828      11839      11838  
     11707      11708      11719      11718      11828      11829      11840      11839  
     11708      11709      11720      11719      11829      11830      11841      11840  
     11709      11710      11721      11720      11830      11831      11842      11841  
     11710      11711      11722      11721      11831      11832      11843      11842  
     11711      11712      11723      11722      11832      11833      11844      11843  
     11712      11713      11724      11723      11833      11834      11845      11844  
     11713      11714      11725      11724      11834      11835      11846      11845  
     11714      11715      11726      11725      11835      11836      11847      11846  
     11716      11717      11728      11727      11837      11838      11849      11848  
     11717      11718      11729      11728      11838      11839      11850      11849  
     11718      11719      11730      11729      11839      11840      11851      11850  
     11719      11720      11731      11730      11840      11841      11852      11851  
     11720      11721      11732      11731      11841      11842      11853      11852  
     11721      11722      11733      11732      11842      11843      11854      11853  
     11722      11723      11734      11733      11843      11844      11855      11854  
     11723      11724      11735      11734      11844      11845      11856      11855  
     11724      11725      11736      11735      11845      11846      11857      11856  
     11725      11726      11737      11736      11846      11847      11858      11857  
     11738      11739      11750      11749      11859      11860      11871      11870  
     11739      11740      11751      11750      11860      11861      11872      11871  
     11740      11741      11752      11751      11861      11862      11873      11872  
     11741      11742      11753      11752      11862      11863      11874      11873  
     11742      11743      11754      11753      11863      11864      11875      11874  
     11743      11744      11755      11754      11864      11865      11876      11875  
     11744      11745      11756      11755      11865      11866      11877      11876  
     11745      11746      11757      11756      11866      11867      11878      11877  
     11746      11747      11758      11757      11867      11868      11879      11878  
     11747      11748      11759      11758      11868      11869      11880      11879  
     11749      11750      11761      11760      11870      11871      11882      11881  
     11750      11751      11762      11761      11871      11872      11883      11882  
     11751      11752      11763      11762      11872      11873      11884      11883  
     11752      11753      11764      11763      11873      11874      11885      11884  
     11753      11754      11765      11764      11874      11875      11886      11885  
     11754      11755      11766      11765      11875      11876      11887      11886  
     11755      11756      11767      11766      11876      11877      11888      11887  
     11756      11757      11768      11767      11877      11878      11889      11888  
     11757      11758      11769      11768      11878      11879      11890      11889  
     11758      11759      11770      11769      11879      11880      11891      11890  
     11760      11761      11772      11771      11881      11882      11893      11892  
     11761      11762      11773      11772      11882      11883      11894      11893  
     11762      11763      11774      11773      11883      11884      11895      11894  
     11763      11764      11775      11774      11884      11885      11896      11895  
     11764      11765      11776      11775      11885      11886      11897      11896  
     11765      11766      11777      11776      11886      11887      11898      11897  
     11766      11767      11778      11777      11887      11888      11899      11898  
     11767      11768      11779      11778      11888      11889      11900      11899  
     11768      11769      11780      11779      11889      11890      11901      11900  
     11769      11770      11781      11780      11890      11891      11902      11901  
     11771      11772      11783      11782      11892      11893      11904      11903  
     11772      11773      11784      11783      11893      11894      11905      11904  
     11773      11774      11785      11784      11894      11895      11906      11905  
     11774      11775      11786      11785      11895      11896      11907      11906  
     11775      11776      11787      11786      11896      11897      11908      11907  
     11776      11777      11788      11787      11897      11898      11909      11908  
     11777      11778      11789      11788      11898      11899      11910      11909  
     11778      11779      11790      11789      11899      11900      11911      11910  
     11779      11780      11791      11790      11900      11901      11912      11911  
     11780      11781      11792      11791      11901      11902      11913      11912  
     11782      11783      11794      11793      11903      11904      11915      11914  
     11783      11784      11795      11794      11904      11905      11916      11915  
     11784      11785      11796      11795      11905      11906      11917      11916  
     11785      11786      11797      11796      11906      11907      11918      11917  
     11786      11787      11798      11797      11907      11908      11919      11918  
     11787      11788      11799      11798      11908      11909      11920      11919  
     11788      11789      11800      11799      11909      11910      11921      11920  
     11789      11790      11801      11800      11910      11911      11922      11921  
     11790      11791      11802      11801      11911      11912      11923      11922  
     11791      11792      11803      11802      11912      11913      11924      11923  
     11793      11794      11805      11804      11914      11915      11926      11925  
     11794      11795      11806      11805      11915      11916      11927      11926  
     11795      11796      11807      11806      11916      11917      11928      11927  
     11796      11797      11808      11807      11917      11918      11929      11928  
     11797      11798      11809      11808      11918      11919      11930      11929  
     11798      11799      11810      11809      11919      11920      11931      11930  
     11799      11800      11811      11810      11920      11921      11932      11931  
     11800      11801      11812      11811      11921      11922      11933      11932  
     11801      11802      11813      11812      11922      11923      11934      11933  
     11802      11803      11814      11813      11923      11924      11935      11934  
     11804      11805      11816      11815      11925      11926      11937      11936  
     11805      11806      11817      11816      11926      11927      11938      11937  
     11806      11807      11818      11817      11927      11928      11939      11938  
     11807      11808      11819      11818      11928      11929      11940      11939  
     11808      11809      11820      11819      11929      11930      11941      11940  
     11809      11810      11821      11820      11930      11931      11942      11941  
     11810      11811      11822      11821      11931      11932      11943      11942  
     11811      11812      11823      11822      11932      11933      11944      11943  
     11812      11813      11824      11823      11933      11934      11945      11944  
     11813      11814      11825      11824      11934      11935      11946      11945  
     11815      11816      11827      11826      11936      11937      11948      11947  
     11816      11817      11828      11827      11937      11938      11949      11948  
     11817      11818      11829      11828      11938      11939      11950      11949  
     11818      11819      11830      11829      11939      11940      11951      11950  
     11819      11820      11831      11830      11940      11941      11952      11951  
     11820      11821      11832      11831      11941      11942      11953      11952  
     11821      11822      11833      11832      11942      11943      11954      11953  
     11822      11823      11834      11833      11943      11944      11955      11954  
     11823      11824      11835      11834      11944      11945      11956      11955  
     11824      11825      11836      11835      11945      11946      11957      11956  
     11826      11827      11838      11837      11947      11948      11959      11958  
     11827      11828      11839      11838      11948      11949      11960      11959  
     11828      11829      11840      11839      11949      11950      11961      11960  
     11829      11830      11841      11840      11950      11951      11962      11961  
     11830      11831      11842      11841      11951      11952      11963      11962  
     11831      11832      11843      11842      11952      11953      11964      11963  
     11832      11833      11844      11843      11953      11954      11965      11964  
     11833      11834      11845      11844      11954      11955      11966      11965  
     11834      11835      11846      11845      11955      11956      11967      11966  
     11835      11836      11847      11846      11956      11957      11968      11967  
     11837      11838      11849      11848      11958      11959      11970      11969  
     11838      11839      11850      11849      11959      11960      11971      11970  
     11839      11840      11851      11850      11960      11961      11972      11971  
     11840      11841      11852      11851      11961      11962      11973      11972  
     11841      11842      11853      11852      11962      11963      11974      11973  
     11842      11843      11854      11853      11963      11964      11975      11974  
     11843      11844      11855      11854      11964      11965      11976      11975  
     11844      11845      11856      11855      11965      11966      11977      11976  
     11845      11846      11857      11856      11966      11967      11978      11977  
     11846      11847      11858      11857      11967      11968      11979      11978  
     11859      11860      11871      11870      11980      11981      11992      11991  
     11860      11861      11872      11871      11981      11982      11993      11992  
     11861      11862      11873      11872      11982      11983      11994      11993  
     11862      11863      11874      11873      11983      11984      11995      11994  
     11863      11864      11875      11874      11984      11985      11996      11995  
     11864      11865      11876      11875      11985      11986      11997      11996  
     11865      11866      11877      11876      11986      11987      11998      11997  
     11866      11867      11878      11877      11987      11988      11999      11998  
     11867      11868      11879      11878      11988      11989      12000      11999  
     11868      11869      11880      11879      11989      11990      12001      12000  
     11870      11871      11882      11881      11991      11992      12003      12002  
     11871      11872      11883      11882      11992      11993      12004      12003  
     11872      11873      11884      11883      11993      11994      12005      12004  
     11873      11874      11885      11884      11994      11995      12006      12005  
     11874      11875      11886      11885      11995      11996      12007      12006  
     11875      11876      11887      11886      11996      11997      12008      12007  
     11876      11877      11888      11887      11997      11998      12009      12008  
     11877      11878      11889      11888      11998      11999      12010      12009  
     11878      11879      11890      11889      11999      12000      12011      12010  
     11879      11880      11891      11890      12000      12001      12012      12011  
     11881      11882      11893      11892      12002      12003      12014      12013  
     11882      11883      11894      11893      12003      12004      12015      12014  
     11883      11884      11895      11894      12004      12005      12016      12015  
     11884      11885      11896      11895      12005      12006      12017      12016  
     11885      11886      11897      11896      12006      12007      12018      12017  
     11886      11887      11898      11897      12007      12008      12019      12018  
     11887      11888      11899      11898      12008      12009      12020      12019  
     11888      11889      11900      11899      12009      12010      12021      12020  
     11889      11890      11901      11900      12010      12011      12022      12021  
     11890      11891      11902      11901      12011      12012      12023      12022  
     11892      11893      11904      11903      12013      12014      12025      12024  
     11893      11894      11905      11904      12014      12015      12026      12025  
     11894      11895      11906      11905      12015      12016      12027      12026  
     11895      11896      11907      11906      12016      12017      12028      12027  
     11896      11897      11908      11907      12017      12018      12029      12028  
     11897      11898      11909      11908      12018      12019      12030      12029  
     11898      11899      11910      11909      12019      12020      12031      12030  
     11899      11900      11911      11910      12020      12021      12032      12031  
     11900      11901      11912      11911      12021      12022      12033      12032  
     11901      11902      11913      11912      12022      12023      12034      12033  
     11903      11904      11915      11914      12024      12025      12036      12035  
     11904      11905      11916      11915      12025      12026      12037      12036  
     11905      11906      11917      11916      12026      12027      12038      12037  
     11906      11907      11918      11917      12027      12028      12039      12038  
     11907      11908      11919      11918      12028      12029      12040      12039  
     11908      11909      11920      11919      12029      12030      12041      12040  
     11909      11910      11921      11920      12030      12031      12042      12041  
     11910      11911      11922      11921      12031      12032      12043      12042  
     11911      11912      11923      11922      12032      12033      12044      12043  
     11912      11913      11924      11923      12033      12034      12045      12044  
     11914      11915      11926      11925      12035      12036      12047      12046  
     11915      11916      11927      11926      12036      12037      12048      12047  
     11916      11917      11928      11927      12037      12038      12049      12048  
     11917      11918      11929      11928      12038      12039      12050      12049  
     11918      11919      11930      11929      12039      12040      12051      12050  
     11919      11920      11931      11930      12040      12041      12052      12051  
     11920      11921      11932      11931      12041      12042      12053      12052  
     11921      11922      11933      11932      12042      12043      12054      12053  
     11922      11923      11934      11933      12043      12044      12055      12054  
     11923      11924      11935      11934      12044      12045      12056      12055  
     11925      11926      11937      11936      12046      12047      12058      12057  
     11926      11927      11938      11937      12047      12048      12059      12058  
     11927      11928      11939      11938      12048      12049      12060      12059  
     11928      11929      11940      11939      12049      12050      12061      12060  
     11929      11930      11941      11940      12050      12051      12062      12061  
     11930      11931      11942      11941      12051      12052      12063      12062  
     11931      11932      11943      11942      12052      12053      12064      12063  
     11932      11933      11944      11943      12053      12054      12065      12064  
     11933      11934      11945      11944      12054      12055      12066      12065  
     11934      11935      11946      11945      12055      12056      12067      12066  
     11936      11937      11948      11947      12057      12058      12069      12068  
     11937      11938      11949      11948      12058      12059      12070      12069  
     11938      11939      11950      11949      12059      12060      12071      12070  
     11939      11940      11951      11950      12060      12061      12072      12071  
     11940      11941      11952      11951      12061      12062      12073      12072  
     11941      11942      11953      11952      12062      12063      12074      12073  
     11942      11943      11954      11953      12063      12064      12075      12074  
     11943      11944      11955      11954      12064      12065      12076      12075  
     11944      11945      11956      11955      12065      12066      12077      12076  
     11945      11946      11957      11956      12066      12067      12078      12077  
     11947      11948      11959      11958      12068      12069      12080      12079  
     11948      11949      11960      11959      12069      12070      12081      12080  
     11949      11950      11961      11960      12070      12071      12082      12081  
     11950      11951      11962      11961      12071      12072      12083      12082  
     11951      11952      11963      11962      12072      12073      12084      12083  
     11952      11953      11964      11963      12073      12074      12085      12084  
     11953      11954      11965      11964      12074      12075      12086      12085  
     11954      11955      11966      11965      12075      12076      12087      12086  
     11955      11956      11967      11966      12076      12077      12088      12087  
     11956      11957      11968      11967      12077      12078      12089      12088  
     11958      11959      11970      11969      12079      12080      12091      12090  
     11959      11960      11971      11970      12080      12081      12092      12091  
     11960      11961      11972      11971      12081      12082      12093      12092  
     11961      11962      11973      11972      12082      12083      12094      12093  
     11962      11963      11974      11973      12083      12084      12095      12094  
     11963      11964      11975      11974      12084      12085      12096      12095  
     11964      11965      11976      11975      12085      12086      12097      12096  
     11965      11966      11977      11976      12086      12087      12098      12097  
     11966      11967      11978      11977      12087      12088      12099      12098  
     11967      11968      11979      11978      12088      12089      12100      12099  
     11980      11981      11992      11991      12101      12102      12113      12112  
     11981      11982      11993      11992      12102      12103      12114      12113  
     11982      11983      11994      11993      12103      12104      12115      12114  
     11983      11984      11995      11994      12104      12105      12116      12115  
     11984      11985      11996      11995      12105      12106      12117      12116  
     11985      11986      11997      11996      12106      12107      12118      12117  
     11986      11987      11998      11997      12107      12108      12119      12118  
     11987      11988      11999      11998      12108      12109      12120      12119  
     11988      11989      12000      11999      12109      12110      12121      12120  
     11989      11990      12001      12000      12110      12111      12122      12121  
     11991      11992      12003      12002      12112      12113      12124      12123  
     11992      11993      12004      12003      12113      12114      12125      12124  
     11993      11994      12005      12004      12114      12115      12126      12125  
     11994      11995      12006      12005      12115      12116      12127      12126  
     11995      11996      12007      12006      12116      12117      12128      12127  
     11996      11997      12008      12007      12117      12118      12129      12128  
     11997      11998      12009      12008      12118      12119      12130      12129  
     11998      11999      12010      12009      12119      12120      12131      12130  
     11999      12000      12011      12010      12120      12121      12132      12131  
     12000      12001      12012      12011      12121      12122      12133      12132  
     12002      12003      12014      12013      12123      12124      12135      12134  
     12003      12004      12015      12014      12124      12125      12136      12135  
     12004      12005      12016      12015      12125      12126      12137      12136  
     12005      12006      12017      12016      12126      12127      12138      12137  
     12006      12007      12018      12017      12127      12128      12139      12138  
     12007      12008      12019      12018      12128      12129      12140      12139  
     12008      12009      12020      12019      12129      12130      12141      12140  
     12009      12010      12021      12020      12130      12131      12142      12141  
     12010      12011      12022      12021      12131      12132      12143      12142  
     12011      12012      12023      12022      12132      12133      12144      12143  
     12013      12014      12025      12024      12134      12135      12146      12145  
     12014      12015      12026      12025      12135      12136      12147      12146  
     12015      12016      12027      12026      12136      12137      12148      12147  
     12016      12017      12028      12027      12137      12138      12149      12148  
     12017      12018      12029      12028      12138      12139      12150      12149  
     12018      12019      12030      12029      12139      12140      12151      12150  
     12019      12020      12031      12030      12140      12141      12152      12151  
     12020      12021      12032      12031      12141      12142      12153      12152  
     12021      12022      12033      12032      12142      12143      12154      12153  
     12022      12023      12034      12033      12143      12144      12155      12154  
     12024      12025      12036      12035      12145      12146      12157      12156  
     12025      12026      12037      12036      12146      12147      12158      12157  
     12026      12027      12038      12037      12147      12148      12159      12158  
     12027      12028      12039      12038      12148      12149      12160      12159  
     12028      12029      12040      12039      12149      12150      12161      12160  
     12029      12030      12041      12040      12150      12151      12162      12161  
     12030      12031      12042      12041      12151      12152      12163      12162  
     12031      12032      12043      12042      12152      12153      12164      12163  
     12032      12033      12044      12043      12153      12154      12165      12164  
     12033      12034      12045      12044      12154      12155      12166      12165  
     12035      12036      12047      12046      12156      12157      12168      12167  
     12036      12037      12048      12047      12157      12158      12169      12168  
     12037      12038      12049      12048      12158      12159      12170      12169  
     12038      12039      12050      12049      12159      12160      12171      12170  
     12039      12040      12051      12050      12160      12161      12172      12171  
     12040      12041      12052      12051      12161      12162      12173      12172  
     12041      12042      12053      12052      12162      12163      12174      12173  
     12042      12043      12054      12053      12163      12164      12175      12174  
     12043      12044      12055      12054      12164      12165      12176      12175  
     12044      12045      12056      12055      12165      12166      12177      12176  
     12046      12047      12058      12057      12167      12168      12179      12178  
     12047      12048      12059      12058      12168      12169      12180      12179  
     12048      12049      12060      12059      12169      12170      12181      12180  
     12049      12050      12061      12060      12170      12171      12182      12181  
     12050      12051      12062      12061      12171      12172      12183      12182  
     12051      12052      12063      12062      12172      12173      12184      12183  
     12052      12053      12064      12063      12173      12174      12185      12184  
     12053      12054      12065      12064      12174      12175      12186      12185  
     12054      12055      12066      12065      12175      12176      12187      12186  
     12055      12056      12067      12066      12176      12177      12188      12187  
     12057      12058      12069      12068      12178      12179      12190      12189  
     12058      12059      12070      12069      12179      12180      12191      12190  
     12059      12060      12071      12070      12180      12181      12192      12191  
     12060      12061      12072      12071      12181      12182      12193      12192  
     12061      12062      12073      12072      12182      12183      12194      12193  
     12062      12063      12074      12073      12183      12184      12195      12194  
     12063      12064      12075      12074      12184      12185      12196      12195  
     12064      12065      12076      12075      12185      12186      12197      12196  
     12065      12066      12077      12076      12186      12187      12198      12197  
     12066      12067      12078      12077      12187      12188      12199      12198  
     12068      12069      12080      12079      12189      12190      12201      12200  
     12069      12070      12081      12080      12190      12191      12202      12201  
     12070      12071      12082      12081      12191      12192      12203      12202  
     12071      12072      12083      12082      12192      12193      12204      12203  
     12072      12073      12084      12083      12193      12194      12205      12204  
     12073      12074      12085      12084      12194      12195      12206      12205  
     12074      12075      12086      12085      12195      12196      12207      12206  
     12075      12076      12087      12086      12196      12197      12208      12207  
     12076      12077      12088      12087      12197      12198      12209      12208  
     12077      12078      12089      12088      12198      12199      12210      12209  
     12079      12080      12091      12090      12200      12201      12212      12211  
     12080      12081      12092      12091      12201      12202      12213      12212  
     12081      12082      12093      12092      12202      12203      12214      12213  
     12082      12083      12094      12093      12203      12204      12215      12214  
     12083      12084      12095      12094      12204      12205      12216      12215  
     12084      12085      12096      12095      12205      12206      12217      12216  
     12085      12086      12097      12096      12206      12207      12218      12217  
     12086      12087      12098      12097      12207      12208      12219      12218  
     12087      12088      12099      12098      12208      12209      12220      12219  
     12088      12089      12100      12099      12209      12210      12221      12220  
