TITLE="results for TO code"
VARIABLES = "x", "y", "z", "density", "sigmaxx", "sigmayy", "sigmazz", "sigmaxy", "sigmaxz", "sigmayz"
ZONE T="load step 1", NODES= 12221, ELEMENTS= 10000, DATAPACKING=POINT, ZONETYPE=FEBRICK
               0.00000000                0.00000000                0.00000000                1.00000000               -0.00000000                0.00000000                0.09770023                0.00000000                0.04246853                0.04486832
               1.00000000                0.00000000                0.00000000                1.00000000                0.00000000               -0.00000000                0.07962821                0.00000000                0.01379738                0.04134494
               2.00000000                0.00000000                0.00000000                1.00000000                0.00000000                0.00000000                0.04651272               -0.00000000               -0.00645992                0.02822080
               3.00000000                0.00000000                0.00000000                1.00000000                0.00000000               -0.00000000               -0.00231873                0.00000000               -0.00304346                0.00183949
               4.00000000                0.00000000                0.00000000                1.00000000               -0.00000000                0.00000000                0.00015135                0.00000000                0.00115191               -0.00059461
               5.00000000                0.00000000                0.00000000                1.00000000               -0.00000000                0.00000000               -0.00135021                0.00000000                0.00720452                0.00159089
               6.00000000                0.00000000                0.00000000                1.00000000               -0.00000000               -0.00000000                0.02977083                0.00000000                0.02128514                0.02494342
               7.00000000                0.00000000                0.00000000                1.00000000               -0.00000000                0.00000000                0.08502598                0.00000000                0.01769136                0.05382785
               8.00000000                0.00000000                0.00000000                1.00000000                0.00000000                0.00000000                0.10497163                0.00000000               -0.00079745                0.06268691
               9.00000000                0.00000000                0.00000000                1.00000000                0.00000000                0.00000000                0.10978238                0.00000000               -0.02452489                0.06434938
              10.00000000                0.00000000                0.00000000                1.00000000                0.00000000                0.00000000                0.13044529               -0.00000000               -0.06133318                0.06760093
               0.00000000                1.00000000                0.00000000                1.00000000               -0.00000000               -0.00000000                0.08061832               -0.00000000                0.04171837                0.01584060
               1.00000000                1.00000000                0.00000000                1.00000000               -0.00000000                0.00000000                0.04917181                0.00000000                0.01534013                0.01464384
               2.00000000                1.00000000                0.00000000                1.00000000               -0.00000000                0.00000000                0.01555481                0.00000000                0.00302702                0.00611675
               3.00000000                1.00000000                0.00000000                1.00000000                0.00000000               -0.00000000               -0.00108969               -0.00000000                0.00228962                0.00160506
               4.00000000                1.00000000                0.00000000                1.00000000                0.00000000                0.00000000                0.00015635                0.00000000                0.00107090               -0.00093012
               5.00000000                1.00000000                0.00000000                1.00000000                0.00000000               -0.00000000               -0.00075572                0.00000000                0.00119821                0.00024563
               6.00000000                1.00000000                0.00000000                1.00000000                0.00000000                0.00000000                0.00842527               -0.00000000                0.00569146                0.00416135
               7.00000000                1.00000000                0.00000000                1.00000000                0.00000000                0.00000000                0.04459031               -0.00000000                0.00748686                0.01541258
               8.00000000                1.00000000                0.00000000                1.00000000               -0.00000000               -0.00000000                0.07983283               -0.00000000               -0.00638358                0.02555360
               9.00000000                1.00000000                0.00000000                1.00000000               -0.00000000               -0.00000000                0.09069272                0.00000000               -0.02933399                0.02767990
              10.00000000                1.00000000                0.00000000                1.00000000                0.00000000                0.00000000                0.10669488               -0.00000000               -0.06276863                0.02982764
               0.00000000                2.00000000                0.00000000                1.00000000               -0.00000000                0.00000000                0.04875951                0.00000000                0.03007837               -0.00512155
               1.00000000                2.00000000                0.00000000                1.00000000                0.00000000               -0.00000000                0.01577282                0.00000000                0.00774607                0.00296302
               2.00000000                2.00000000                0.00000000                1.00000000               -0.00000000               -0.00000000               -0.00286913               -0.00000000                0.00350325                0.00319354
               3.00000000                2.00000000                0.00000000                1.00000000               -0.00000000               -0.00000000                0.00075346                0.00000000                0.00152126                0.00079908
               4.00000000                2.00000000                0.00000000                1.00000000                0.00000000               -0.00000000               -0.00012515               -0.00000000                0.00065914                0.00002872
               5.00000000                2.00000000                0.00000000                1.00000000               -0.00000000                0.00000000                0.00031705               -0.00000000                0.00016569               -0.00019510
               6.00000000                2.00000000                0.00000000                1.00000000                0.00000000                0.00000000               -0.00115711                0.00000000               -0.00038549                0.00102826
               7.00000000                2.00000000                0.00000000                1.00000000                0.00000000                0.00000000                0.00512644               -0.00000000                0.00111239                0.00148450
               8.00000000                2.00000000                0.00000000                1.00000000               -0.00000000                0.00000000                0.03692585               -0.00000000               -0.00656105               -0.00091311
               9.00000000                2.00000000                0.00000000                1.00000000               -0.00000000                0.00000000                0.06935433               -0.00000000               -0.02753468                0.00382240
              10.00000000                2.00000000                0.00000000                1.00000000                0.00000000               -0.00000000                0.10408794               -0.00000000               -0.06146806                0.00343254
               0.00000000                3.00000000                0.00000000                1.00000000                0.00000000                0.00000000               -0.00233019                0.00000000                0.00225656               -0.00288738
               1.00000000                3.00000000                0.00000000                1.00000000               -0.00000000                0.00000000               -0.00109855               -0.00000000                0.00181057                0.00259284
               2.00000000                3.00000000                0.00000000                1.00000000               -0.00000000               -0.00000000                0.00077010                0.00000000                0.00093386                0.00159606
               3.00000000                3.00000000                0.00000000                1.00000000                0.00000000               -0.00000000               -0.00013183                0.00000000                0.00069934                0.00068207
               4.00000000                3.00000000                0.00000000                1.00000000               -0.00000000               -0.00000000                0.00008123               -0.00000000                0.00027433                0.00013557
               5.00000000                3.00000000                0.00000000                1.00000000               -0.00000000               -0.00000000               -0.00004900               -0.00000000               -0.00008486                0.00010862
               6.00000000                3.00000000                0.00000000                1.00000000               -0.00000000               -0.00000000                0.00018112               -0.00000000               -0.00023850                0.00025024
               7.00000000                3.00000000                0.00000000                1.00000000                0.00000000                0.00000000                0.00050695                0.00000000               -0.00134839                0.00036524
               8.00000000                3.00000000                0.00000000                1.00000000                0.00000000               -0.00000000               -0.00596229               -0.00000000               -0.00373774                0.00141795
               9.00000000                3.00000000                0.00000000                1.00000000                0.00000000               -0.00000000                0.02268025                0.00000000               -0.01182874               -0.00426390
              10.00000000                3.00000000                0.00000000                1.00000000               -0.00000000                0.00000000                0.07110759                0.00000000               -0.04485480               -0.01839221
               0.00000000                4.00000000                0.00000000                1.00000000               -0.00000000                0.00000000                0.00043422                0.00000000               -0.00062126                0.00197055
               1.00000000                4.00000000                0.00000000                1.00000000               -0.00000000               -0.00000000                0.00025101               -0.00000000               -0.00098834                0.00128469
               2.00000000                4.00000000                0.00000000                1.00000000               -0.00000000                0.00000000               -0.00022754                0.00000000                0.00008664                0.00077100
               3.00000000                4.00000000                0.00000000                1.00000000               -0.00000000               -0.00000000                0.00011608               -0.00000000                0.00011613                0.00034536
               4.00000000                4.00000000                0.00000000                1.00000000                0.00000000                0.00000000               -0.00001284                0.00000000                0.00009065                0.00012364
               5.00000000                4.00000000                0.00000000                1.00000000               -0.00000000               -0.00000000                0.00002812                0.00000000               -0.00003949                0.00006914
               6.00000000                4.00000000                0.00000000                1.00000000               -0.00000000                0.00000000                0.00003744                0.00000000               -0.00025601                0.00014285
               7.00000000                4.00000000                0.00000000                1.00000000               -0.00000000               -0.00000000               -0.00017065               -0.00000000               -0.00056234                0.00051219
               8.00000000                4.00000000                0.00000000                1.00000000                0.00000000               -0.00000000                0.00120224               -0.00000000               -0.00089238                0.00088408
               9.00000000                4.00000000                0.00000000                1.00000000               -0.00000000                0.00000000               -0.00180567               -0.00000000               -0.00238543                0.00039462
              10.00000000                4.00000000                0.00000000                1.00000000                0.00000000               -0.00000000               -0.00305530                0.00000000               -0.00461108               -0.00902634
               0.00000000                5.00000000                0.00000000                1.00000000                0.00000000                0.00000000               -0.00308252               -0.00000000                0.00406162                0.01004547
               1.00000000                5.00000000                0.00000000                1.00000000               -0.00000000               -0.00000000               -0.00200204               -0.00000000                0.00123864                0.00200389
               2.00000000                5.00000000                0.00000000                1.00000000                0.00000000                0.00000000                0.00094812                0.00000000               -0.00025855                0.00051536
               3.00000000                5.00000000                0.00000000                1.00000000               -0.00000000                0.00000000               -0.00024437               -0.00000000                0.00007650                0.00003738
               4.00000000                5.00000000                0.00000000                1.00000000               -0.00000000               -0.00000000                0.00006685                0.00000000               -0.00000463                0.00004217
               5.00000000                5.00000000                0.00000000                1.00000000               -0.00000000                0.00000000                0.00000353                0.00000000               -0.00004309               -0.00000625
               6.00000000                5.00000000                0.00000000                1.00000000                0.00000000               -0.00000000                0.00000976               -0.00000000               -0.00012682                0.00004138
               7.00000000                5.00000000                0.00000000                1.00000000                0.00000000               -0.00000000                0.00008296               -0.00000000               -0.00015896                0.00012460
               8.00000000                5.00000000                0.00000000                1.00000000                0.00000000                0.00000000               -0.00013976                0.00000000               -0.00007683                0.00028549
               9.00000000                5.00000000                0.00000000                1.00000000               -0.00000000                0.00000000                0.00016585               -0.00000000                0.00066883               -0.00026023
              10.00000000                5.00000000                0.00000000                1.00000000               -0.00000000               -0.00000000                0.00024645               -0.00000000                0.00054645               -0.00242895
               0.00000000                6.00000000                0.00000000                1.00000000               -0.00000000               -0.00000000                0.06225090                0.00000000                0.03636008                0.02535262
               1.00000000                6.00000000                0.00000000                1.00000000               -0.00000000                0.00000000                0.02210672                0.00000000                0.00554819                0.00948258
               2.00000000                6.00000000                0.00000000                1.00000000                0.00000000               -0.00000000               -0.00447742               -0.00000000                0.00114484                0.00031636
               3.00000000                6.00000000                0.00000000                1.00000000                0.00000000                0.00000000                0.00089944               -0.00000000               -0.00007500                0.00016792
               4.00000000                6.00000000                0.00000000                1.00000000               -0.00000000               -0.00000000               -0.00011027                0.00000000                0.00001891               -0.00021297
               5.00000000                6.00000000                0.00000000                1.00000000               -0.00000000                0.00000000                0.00003130               -0.00000000               -0.00000994               -0.00010033
               6.00000000                6.00000000                0.00000000                1.00000000               -0.00000000                0.00000000                0.00002371                0.00000000               -0.00012655               -0.00011917
               7.00000000                6.00000000                0.00000000                1.00000000               -0.00000000               -0.00000000                0.00001240                0.00000000               -0.00019570               -0.00026532
               8.00000000                6.00000000                0.00000000                1.00000000               -0.00000000                0.00000000                0.00007825               -0.00000000                0.00007701               -0.00049501
               9.00000000                6.00000000                0.00000000                1.00000000                0.00000000               -0.00000000                0.00001165               -0.00000000                0.00042008               -0.00069566
              10.00000000                6.00000000                0.00000000                1.00000000               -0.00000000                0.00000000               -0.00036971                0.00000000                0.00052474               -0.00088578
               0.00000000                7.00000000                0.00000000                1.00000000               -0.00000000               -0.00000000                0.09126496               -0.00000000                0.05014732                0.01292337
               1.00000000                7.00000000                0.00000000                1.00000000               -0.00000000               -0.00000000                0.05756114                0.00000000                0.01592842                0.00671818
               2.00000000                7.00000000                0.00000000                1.00000000               -0.00000000               -0.00000000                0.02002798                0.00000000               -0.00063352                0.00338166
               3.00000000                7.00000000                0.00000000                1.00000000               -0.00000000                0.00000000               -0.00151469               -0.00000000               -0.00033209               -0.00142423
               4.00000000                7.00000000                0.00000000                1.00000000                0.00000000               -0.00000000                0.00012384                0.00000000                0.00032297               -0.00047205
               5.00000000                7.00000000                0.00000000                1.00000000                0.00000000               -0.00000000                0.00002985                0.00000000                0.00007840               -0.00019203
               6.00000000                7.00000000                0.00000000                1.00000000               -0.00000000               -0.00000000                0.00002050                0.00000000               -0.00026840               -0.00021088
               7.00000000                7.00000000                0.00000000                1.00000000                0.00000000                0.00000000                0.00009945               -0.00000000               -0.00067009               -0.00068537
               8.00000000                7.00000000                0.00000000                1.00000000                0.00000000                0.00000000               -0.00002260                0.00000000               -0.00086772               -0.00180963
               9.00000000                7.00000000                0.00000000                1.00000000               -0.00000000               -0.00000000                0.00032456                0.00000000                0.00033762               -0.00224395
              10.00000000                7.00000000                0.00000000                1.00000000               -0.00000000               -0.00000000                0.00034023               -0.00000000                0.00111758               -0.00052084
               0.00000000                8.00000000                0.00000000                1.00000000               -0.00000000               -0.00000000                0.09849344               -0.00000000                0.05749999               -0.00137325
               1.00000000                8.00000000                0.00000000                1.00000000               -0.00000000                0.00000000                0.07484273                0.00000000                0.02278055               -0.00669822
               2.00000000                8.00000000                0.00000000                1.00000000                0.00000000               -0.00000000                0.03961188               -0.00000000                0.00064899               -0.00741746
               3.00000000                8.00000000                0.00000000                1.00000000               -0.00000000                0.00000000               -0.00455236                0.00000000                0.00121625               -0.00304755
               4.00000000                8.00000000                0.00000000                1.00000000               -0.00000000               -0.00000000                0.00073674                0.00000000                0.00090709               -0.00098224
               5.00000000                8.00000000                0.00000000                1.00000000               -0.00000000                0.00000000               -0.00005466                0.00000000                0.00030441               -0.00012728
               6.00000000                8.00000000                0.00000000                1.00000000                0.00000000               -0.00000000                0.00006945                0.00000000               -0.00046237                0.00001363
               7.00000000                8.00000000                0.00000000                1.00000000                0.00000000                0.00000000               -0.00001979               -0.00000000               -0.00177643               -0.00088889
               8.00000000                8.00000000                0.00000000                1.00000000               -0.00000000               -0.00000000                0.00103667                0.00000000               -0.00356188               -0.00356392
               9.00000000                8.00000000                0.00000000                1.00000000               -0.00000000               -0.00000000               -0.00166889               -0.00000000               -0.00520738               -0.00797529
              10.00000000                8.00000000                0.00000000                1.00000000               -0.00000000                0.00000000               -0.00428370               -0.00000000               -0.00361246                0.00040005
               0.00000000                9.00000000                0.00000000                1.00000000               -0.00000000               -0.00000000                0.10854314               -0.00000000                0.06414831               -0.02223806
               1.00000000                9.00000000                0.00000000                1.00000000                0.00000000                0.00000000                0.08178300               -0.00000000                0.02910058               -0.02569273
               2.00000000                9.00000000                0.00000000                1.00000000               -0.00000000                0.00000000                0.05165580                0.00000000                0.00770436               -0.02191079
               3.00000000                9.00000000                0.00000000                1.00000000                0.00000000                0.00000000                0.00906437               -0.00000000                0.00088758               -0.00799689
               4.00000000                9.00000000                0.00000000                1.00000000                0.00000000                0.00000000               -0.00052645                0.00000000                0.00147100               -0.00159964
               5.00000000                9.00000000                0.00000000                1.00000000                0.00000000               -0.00000000                0.00007707                0.00000000                0.00000549                0.00047878
               6.00000000                9.00000000                0.00000000                1.00000000                0.00000000               -0.00000000                0.00002942               -0.00000000               -0.00053096                0.00031988
               7.00000000                9.00000000                0.00000000                1.00000000               -0.00000000                0.00000000                0.00032706                0.00000000               -0.00217671                0.00032106
               8.00000000                9.00000000                0.00000000                1.00000000                0.00000000                0.00000000               -0.00166651               -0.00000000               -0.00794068               -0.00515137
               9.00000000                9.00000000                0.00000000                1.00000000                0.00000000                0.00000000                0.03102541                0.00000000               -0.01746570               -0.01727737
              10.00000000                9.00000000                0.00000000                1.00000000                0.00000000               -0.00000000                0.09328182                0.00000000               -0.05275826               -0.01159211
               0.00000000               10.00000000                0.00000000                1.00000000                0.00000000                0.00000000                0.12893190               -0.00000000                0.06789411               -0.05834743
               1.00000000               10.00000000                0.00000000                1.00000000               -0.00000000               -0.00000000                0.10181735                0.00000000                0.03183818               -0.05701452
               2.00000000               10.00000000                0.00000000                1.00000000               -0.00000000                0.00000000                0.08324030               -0.00000000                0.00760662               -0.05291860
               3.00000000               10.00000000                0.00000000                1.00000000               -0.00000000               -0.00000000                0.03937354               -0.00000000               -0.01088988               -0.03051946
               4.00000000               10.00000000                0.00000000                1.00000000               -0.00000000               -0.00000000               -0.00163952               -0.00000000               -0.00481398               -0.00177912
               5.00000000               10.00000000                0.00000000                1.00000000               -0.00000000               -0.00000000                0.00004386               -0.00000000               -0.00125477                0.00048037
               6.00000000               10.00000000                0.00000000                1.00000000               -0.00000000               -0.00000000               -0.00031340                0.00000000               -0.00059924                0.00051866
               7.00000000               10.00000000                0.00000000                1.00000000                0.00000000               -0.00000000                0.00033790                0.00000000               -0.00045334                0.00112249
               8.00000000               10.00000000                0.00000000                1.00000000               -0.00000000               -0.00000000               -0.00431407               -0.00000000                0.00043679               -0.00353344
               9.00000000               10.00000000                0.00000000                1.00000000                0.00000000                0.00000000                0.09304245                0.00000000               -0.01123099               -0.05239383
              10.00000000               10.00000000                0.00000000                1.00000000                0.00000000               -0.00000000                0.19192011                0.00000000               -0.06742467               -0.06803414
               0.00042469                0.00044868                1.00097700                1.00000000               -0.02867115               -0.02902772                0.09125817               -0.00427354                0.01225317                0.01780827
               1.00013797                0.00041345                1.00079628                0.92271015               -0.02446423               -0.02670110                0.08251800               -0.00678101               -0.00749145                0.00236853
               1.99993540                0.00028221                1.00046513                0.01000000               -0.00842042               -0.02210404                0.07350808               -0.01026578               -0.03706190               -0.00065687
               2.99996957                0.00001839                0.99997681                0.01000000                0.00380592               -0.00023443                0.08311555               -0.00907463               -0.02302949                0.02351758
               4.00001152               -0.00000595                1.00000151                0.01000600                0.00512399               -0.00033551                0.04802017               -0.00020532                0.01024278                0.03992107
               5.00007205                0.00001591                0.99998650                0.01000001                0.01006661               -0.00134526                0.05471156                0.00676270                0.03109874                0.04005752
               6.00021285                0.00024943                1.00029771                0.66680808                0.00524342               -0.02078206                0.08622330                0.01052479                0.07438847                0.00313486
               7.00017691                0.00053828                1.00085026                1.00000000               -0.01104130               -0.03841526                0.09103498                0.00866725                0.05177001               -0.00594576
               7.99999203                0.00062687                1.00104972                0.99999999               -0.02110812               -0.03713331                0.10102651               -0.00032536                0.00945139                0.01443272
               8.99975475                0.00064349                1.00109782                1.00000000               -0.03026787               -0.03666949                0.11215495               -0.00235208               -0.00702877                0.02407838
               9.99938667                0.00067601                1.00130445                1.00000000               -0.03680829               -0.03777329                0.11924229                0.00181610               -0.01512877                0.02314427
               0.00041718                1.00015841                1.00080618                0.95820365               -0.02637824               -0.02499494                0.08104732               -0.00739184                0.00177355               -0.00172390
               1.00015340                1.00014644                1.00049172                0.01000001               -0.01934567               -0.01919096                0.07077320               -0.00788757               -0.01133396               -0.01134257
               2.00003027                1.00006117                1.00015555                0.01000001               -0.00652526               -0.01251363                0.06345936               -0.00153780               -0.01740492               -0.01049567
               3.00002290                1.00001605                0.99998910                0.01000001               -0.00097806               -0.00052021                0.06708234               -0.00124108               -0.00552226                0.02071564
               4.00001071                0.99999070                1.00000156                0.01000000               -0.00054571                0.00031167                0.03955603               -0.00092610                0.00965219                0.01470017
               5.00001198                1.00000246                0.99999244                0.01000000                0.00231028               -0.00089299                0.04511774               -0.00097368                0.02085284                0.01405130
               6.00005691                1.00004161                1.00008425                0.01001724                0.00314433               -0.01195758                0.08053298               -0.00325184                0.04815247               -0.00646730
               7.00007487                1.00015413                1.00044590                0.58480691               -0.00603752               -0.02617167                0.09970323                0.00240664                0.04310683               -0.02196760
               7.99993616                1.00025554                1.00079833                0.99999998               -0.01841042               -0.03180001                0.10004859                0.00325186                0.01377778               -0.01017490
               8.99970666                1.00027680                1.00090693                0.99999999               -0.02819253               -0.03026349                0.10110949                0.00063213               -0.01169625                0.00658359
               9.99937231                1.00029828                1.00106695                0.99999999               -0.03343465               -0.03208419                0.10941957                0.00208031               -0.02512750                0.01748901
               0.00030078                1.99994878                1.00048760                0.01000001               -0.02233229               -0.00936399                0.07150452               -0.01164633                0.00270507               -0.03259506
               1.00007746                2.00002963                1.00015773                0.01000001               -0.01328756               -0.00602550                0.05814152               -0.00260723               -0.00542927               -0.01810514
               2.00003503                2.00003194                0.99997131                0.01000001               -0.00311241               -0.00226035                0.08542805               -0.00212856                0.01269383                0.00201654
               3.00001521                2.00000799                1.00000753                0.01000001               -0.00142205               -0.00046150                0.03019911               -0.00237755                0.01626138                0.01008089
               4.00000659                2.00000029                0.99999875                0.01000001               -0.00067778                0.00053284                0.04214872               -0.00089537                0.01102883                0.00440735
               5.00000166                1.99999805                1.00000317                0.01000000               -0.00052232               -0.00006850                0.04500270               -0.00014176                0.01042019                0.00081191
               5.99999615                2.00001028                0.99998843                0.01000000                0.00047335               -0.00195556                0.04471311               -0.00212518                0.01008979               -0.00392215
               7.00001112                2.00001485                1.00005126                0.01000000               -0.00308778               -0.00752367                0.12983476               -0.00538831                0.01672741               -0.01743683
               7.99993439                1.99999087                1.00036926                0.01000000               -0.01432354               -0.01206782                0.10025559                0.00249187                0.01766731               -0.03933612
               8.99972465                2.00003822                1.00069354                1.00000000               -0.02745350               -0.01597190                0.08820747                0.01092545                0.00277329               -0.02386373
               9.99938532                2.00003433                1.00104088                1.00000000               -0.03393338               -0.02410993                0.10094143                0.00856707               -0.01097483               -0.00332640
               0.00002257                2.99997113                0.99997670                0.01000302               -0.00044599                0.00354605                0.08790548               -0.00986960                0.02989392               -0.01870590
               1.00001811                3.00002593                0.99998901                0.01000001               -0.00066135               -0.00083917                0.07473238               -0.00212549                0.03554062               -0.00572500
               2.00000934                3.00001596                1.00000770                0.01000001               -0.00055562               -0.00121127                0.02742518               -0.00266369                0.02006223                0.01031463
               3.00000699                3.00000682                0.99999868                0.01000001               -0.00032976               -0.00022686                0.04121863               -0.00143281                0.01224342                0.00371699
               4.00000274                3.00000136                1.00000081                0.01000001               -0.00039210                0.00004746                0.03814559               -0.00057097                0.00965322               -0.00042709
               4.99999915                3.00000109                0.99999951                0.01000001               -0.00025641                0.00013212                0.04024879               -0.00004526                0.00630726               -0.00438829
               5.99999762                3.00000250                1.00000181                0.01000001               -0.00063177               -0.00044271                0.04891318                0.00019305                0.00192043               -0.00594513
               6.99998652                3.00000365                1.00000507                0.01000001               -0.00174962               -0.00048616                0.04042619               -0.00025351               -0.01130353               -0.00997192
               7.99996262                3.00001418                0.99994038                0.01000000               -0.00524018                0.00089859                0.09324816                0.00051976               -0.01287512               -0.02848765
               8.99988171                2.99995736                1.00022680                0.01000000               -0.02055853               -0.00171389                0.07418132                0.00266954                0.00762207               -0.04224539
               9.99955145                2.99981608                1.00071108                0.09889218               -0.03302605               -0.00622944                0.09304464                0.01430018               -0.00211802               -0.05612015
              -0.00000621                4.00001971                1.00000434                0.01000001               -0.00036708                0.00646643                0.05108874                0.00021666                0.04859213                0.00948300
               0.99999012                4.00001285                1.00000251                0.01000000                0.00035395               -0.00029448                0.03730110               -0.00088574                0.02244176                0.00781536
               2.00000087                4.00000771                0.99999772                0.01000001                0.00055224               -0.00054035                0.04175718               -0.00106587                0.01416777                0.00619108
               3.00000116                4.00000345                1.00000116                0.01000001                0.00000200               -0.00032235                0.03721769               -0.00063510                0.00990381                0.00078075
               4.00000091                4.00000124                0.99999987                0.01000002               -0.00007781               -0.00004670                0.03751199               -0.00027759                0.00665851               -0.00420992
               4.99999961                4.00000069                1.00000028                0.01000001               -0.00017333               -0.00005744                0.03845432                0.00003049                0.00364906               -0.00749342
               5.99999744                4.00000143                1.00000037                0.01000001               -0.00026142               -0.00010443                0.03954384                0.00027736               -0.00104941               -0.00929507
               6.99999438                4.00000512                0.99999829                0.01000000               -0.00031818               -0.00012032                0.04470065                0.00096533               -0.00653430               -0.00925138
               7.99999108                4.00000884                1.00001202                0.01000000               -0.00091155               -0.00056623                0.04011987                0.00177167               -0.01606668               -0.00521835
               8.99997615                4.00000395                0.99998194                0.01000000               -0.00185935                0.00200184                0.05146884                0.00129358               -0.03261761               -0.01948907
               9.99995389                3.99990974                0.99996945                0.01000000               -0.00222565                0.00798163                0.06662417                0.01327966               -0.05553097               -0.04153757
               0.00004062                5.00010045                0.99996917                0.01000003               -0.00282298                0.01169103                0.06316882                0.01044908                0.04751489                0.04370259
               1.00001239                5.00002004                0.99997998                0.01000000               -0.00216009                0.00409895                0.04805889               -0.00149679                0.02372872                0.02361539
               1.99999741                5.00000515                1.00000948                0.01000000               -0.00058107               -0.00022732                0.04216303               -0.00045415                0.01072981                0.00193205
               3.00000076                5.00000037                0.99999756                0.01000001                0.00012696               -0.00008872                0.03822441               -0.00033216                0.00635998               -0.00285605
               3.99999995                5.00000042                1.00000067                0.01000001               -0.00005979               -0.00016831                0.03680150               -0.00005769                0.00477581               -0.00788673
               4.99999957                4.99999994                1.00000004                0.01000000               -0.00006110               -0.00008474                0.03673671                0.00001438                0.00229266               -0.01069901
               5.99999873                5.00000041                1.00000010                0.01000000               -0.00005793               -0.00013101                0.03816577                0.00013016               -0.00133639               -0.01166132
               6.99999841                5.00000125                1.00000083                0.01000000                0.00002500               -0.00038875                0.03972974                0.00030538               -0.00685452               -0.01108434
               7.99999923                5.00000285                0.99999860                0.01000001                0.00041390               -0.00068955                0.04370737                0.00029228               -0.01464815               -0.01035573
               9.00000669                4.99999740                1.00000166                0.01000001                0.00031164               -0.00054514                0.04591962                0.00004553               -0.02651568               -0.00745251
              10.00000546                4.99997571                1.00000246                0.01000000               -0.00012239                0.00407028                0.06124385                0.00039918               -0.04921967               -0.00752770
               0.00036360                6.00025353                1.00062251                0.96444475               -0.03081190                0.00143895                0.08735103                0.00717282               -0.00637318                0.06894807
               1.00005548                6.00009483                1.00022107                0.01000000               -0.01760762                0.00235715                0.07474795               -0.00517324               -0.01832695                0.04600396
               2.00001145                6.00000316                0.99995523                0.01000000               -0.00281159                0.00143315                0.04599102               -0.00484482               -0.00141440                0.00833864
               2.99999925                6.00000168                1.00000899                0.01000001               -0.00056296               -0.00073080                0.04057840               -0.00046896                0.00675903               -0.00845632
               4.00000019                5.99999787                0.99999890                0.01000001                0.00003253               -0.00025711                0.03631689                0.00002967                0.00386150               -0.01284059
               4.99999990                5.99999900                1.00000031                0.01000000               -0.00007273               -0.00009289                0.03634455                0.00010765                0.00238533               -0.01439763
               5.99999873                5.99999881                1.00000024                0.01012090               -0.00009288               -0.00012613                0.03721806               -0.00015328               -0.00101506               -0.01486929
               6.99999804                5.99999735                1.00000012                0.01000000                0.00010178               -0.00040499                0.03977058               -0.00044348               -0.00625202               -0.01424369
               8.00000077                5.99999505                1.00000078                0.01000000                0.00030789               -0.00104756                0.04324118               -0.00061062               -0.01381867               -0.01260436
               9.00000420                5.99999304                1.00000012                0.01000001                0.00022386               -0.00099186                0.04742321               -0.00036099               -0.02588821               -0.01025310
              10.00000525                5.99999114                0.99999630                0.01000049                0.00010466                0.00095406                0.06325463                0.00009545               -0.04880887               -0.00826107
               0.00050147                7.00012923                1.00091265                1.00000000               -0.03421890               -0.01336293                0.09167091                0.00436476                0.00436345                0.02511232
               1.00015928                7.00006718                1.00057561                0.99749560               -0.02539042               -0.00809040                0.07640122                0.00384533               -0.01257525                0.02788319
               1.99999366                7.00003382                1.00020028                0.01000000               -0.00813026               -0.00386691                0.05924916               -0.00431913               -0.02238427                0.02160976
               2.99999668                6.99998576                0.99998485                0.01000001                0.00047825               -0.00160773                0.03466434               -0.00128123               -0.00310484               -0.02174896
               4.00000323                6.99999528                1.00000124                0.01000000                0.00020525               -0.00038463                0.03816005                0.00106019                0.00628803               -0.01743162
               5.00000078                6.99999808                1.00000030                0.01000000               -0.00029569               -0.00001347                0.03619628                0.00028776                0.00324253               -0.01900751
               5.99999732                6.99999789                1.00000020                0.01000000               -0.00037424                0.00006640                0.03805885               -0.00041458               -0.00026380               -0.01935178
               6.99999330                6.99999315                1.00000099                0.01000001               -0.00029966               -0.00031179                0.04141896               -0.00158974               -0.00598395               -0.01904293
               7.99999132                6.99998190                0.99999977                0.01000000                0.00050385               -0.00153446                0.04666917               -0.00259874               -0.01417132               -0.01717592
               9.00000338                6.99997756                1.00000325                0.01000001                0.00099265               -0.00363981                0.05238924               -0.00216933               -0.02713993               -0.01569520
              10.00001118                6.99999479                1.00000340                0.01002632                0.00077996                0.00064292                0.06990992               -0.00034548               -0.05172802               -0.01166967
               0.00057500                7.99998627                1.00098493                1.00000000               -0.03471944               -0.01758072                0.10017734                0.00167553                0.02000029                0.00348625
               1.00022781                7.99993302                1.00074843                1.00000000               -0.02842550               -0.01620545                0.08302023                0.00356398               -0.00125057                0.00149841
               2.00000649                7.99992583                1.00039612                0.01278997               -0.01078215               -0.01264623                0.06588378                0.00599427               -0.02765266               -0.00004397
               3.00001216                7.99996952                0.99995448                0.01000000                0.00012905               -0.00328633                0.08121299                0.00382745               -0.01339624               -0.02389646
               4.00000907                7.99999018                1.00000737                0.01000000               -0.00045592               -0.00056380                0.03187667                0.00203415                0.00993099               -0.02333345
               5.00000304                7.99999873                0.99999945                0.01000001               -0.00068473                0.00033541                0.03863558                0.00046148                0.00415006               -0.02473998
               5.99999538                8.00000014                1.00000069                0.01000000               -0.00104042                0.00026538                0.03992687               -0.00051208                0.00068553               -0.02531303
               6.99998224                7.99999111                0.99999980                0.01000000               -0.00154976                0.00050322                0.04503286               -0.00254209               -0.00541554               -0.02559801
               7.99996438                7.99996436                1.00001037                0.01000000               -0.00171548               -0.00167087                0.05397674               -0.00707968               -0.01707947               -0.02656983
               8.99994793                7.99992025                0.99998331                0.01000003               -0.00002529               -0.00751671                0.06535323               -0.00691968               -0.03568628               -0.00904277
               9.99996388                8.00000400                0.99995716                0.01000002                0.00159492               -0.00553564                0.08812394               -0.01856258               -0.06438748                0.02622098
               0.00064148                8.99977762                1.00108543                1.00000000               -0.03504773               -0.02848709                0.11011810                0.00174239                0.02242431               -0.00470018
               1.00029101                8.99974307                1.00081783                1.00000000               -0.02822197               -0.02515815                0.09161936                0.00469244                0.00545562               -0.01085244
               2.00007704                8.99978089                1.00051656                0.77241808               -0.01410650               -0.02275057                0.07775422                0.01232673               -0.01702768               -0.00679969
               3.00000888                8.99992003                1.00009064                0.01000001               -0.00311668               -0.01373595                0.06905234                0.00410251               -0.01820265               -0.00676446
               4.00001471                8.99998400                0.99999474                0.01000000               -0.00044104               -0.00039844                0.04108529                0.00137730                0.00175041               -0.03464735
               5.00000005                9.00000479                1.00000077                0.01000001               -0.00100098                0.00030383                0.04030273                0.00018017                0.00618548               -0.03367810
               5.99999469                9.00000320                1.00000029                0.01000001               -0.00109110                0.00025252                0.04341290               -0.00014729                0.00214990               -0.03474837
               6.99997823                9.00000321                1.00000327                0.01000001               -0.00370486                0.00100569                0.04976061               -0.00207408               -0.00619427               -0.03588074
               7.99992059                8.99994849                0.99998333                0.01000001               -0.00764450                0.00001524                0.06369006               -0.00679988               -0.00351387               -0.04188982
               8.99982534                8.99982723                1.00031025                0.99391036               -0.02240879               -0.02220927                0.10209598               -0.00623217                0.00489800                0.00631371
               9.99947242                8.99988408                1.00093282                0.99999999               -0.03529256               -0.03421709                0.13868965               -0.02622085               -0.00938830                0.05337764
               0.00067894                9.99941653                1.00128932                0.99999999               -0.03605593               -0.03610937                0.11971876                0.00507871                0.02577527               -0.01525776
               1.00031838                9.99942985                1.00101817                0.99999999               -0.03014375               -0.03132179                0.10157616                0.00545201                0.01504637               -0.01933356
               2.00007607                9.99947081                1.00083240                1.00000000               -0.02136403               -0.03100781                0.09385336                0.01314978               -0.00754517               -0.01103465
               2.99989110                9.99969481                1.00039374                0.01000001               -0.00621030               -0.02252257                0.08662690                0.01379228               -0.03269915               -0.01415669
               3.99995186                9.99998221                0.99998360                0.01000001                0.00481755               -0.00017949                0.05831863                0.00921494               -0.01002774               -0.05459034
               4.99998745               10.00000480                1.00000044                0.01000000                0.00210737                0.00000159                0.05819051               -0.00011137                0.00772721               -0.05302090
               5.99999401               10.00000519                0.99999687                0.01000000                0.00040072                0.00019878                0.06232889                0.00025278                0.00416875               -0.05470003
               6.99999547               10.00001122                1.00000338                0.01000000                0.00051802                0.00080143                0.06977874               -0.00030268               -0.00432145               -0.05767253
               8.00000437                9.99996467                0.99995686                0.01000382               -0.00538882                0.00161793                0.08777597               -0.01838068                0.02827015               -0.06677944
               8.99988769                9.99947606                1.00093042                0.99999999               -0.03393073               -0.03511645                0.13826935               -0.02601563                0.05447352               -0.00805647
               9.99932575                9.99931966                1.00191920                0.99994482               -0.05619369               -0.05644203                0.17324249               -0.03030672                0.03067304                0.02932213
               0.00060650                0.00069780                2.00182516                1.00000000               -0.02444576               -0.02428744                0.08263157                0.00165924               -0.00114356                0.00427689
               1.00036205                0.00065650                2.00165036                1.00000000               -0.02641361               -0.02447960                0.08346450                0.00160186                0.00050842               -0.00191542
               2.00007823                0.00060602                2.00147016                0.02546751               -0.01795110               -0.03221159                0.09180831               -0.00290786                0.01680751                0.00289662
               3.00000302                0.00044577                2.00166231                0.01000003                0.00584695               -0.00621800                0.07939715                0.01366657               -0.01191766               -0.00071852
               4.00019517                0.00079832                2.00096040                0.01000001                0.01613780               -0.05015532                0.09861328                0.01662786               -0.01134134                0.02878562
               5.00032578                0.00078926                2.00109423                0.01002387                0.02144186               -0.05249074                0.10886250               -0.01457690                0.05230999                0.01961118
               6.00062401                0.00048961                2.00172447                0.81726889               -0.00211939               -0.03096750                0.09892127               -0.01641496                0.04729404               -0.00321458
               7.00028339                0.00068980                2.00182070                0.99999999               -0.03412718               -0.03301547                0.10001657                0.00155799                0.01762840                0.02044533
               7.99994146                0.00079143                2.00202053                1.00000000               -0.03393521               -0.03144706                0.10557284               -0.00401511                0.01752897                0.00754399
               8.99960469                0.00086336                2.00224310                1.00000000               -0.03286487               -0.03274085                0.11232302               -0.00340019                0.00944909               -0.00319749
               9.99928417                0.00093789                2.00238485                1.00000000               -0.03205216               -0.03245399                0.10878195               -0.00322268                0.00675868                0.00630775
               0.00066440                1.00045493                2.00162095                1.00000000               -0.02404451               -0.02601099                0.08211708                0.00104393                0.00138037                0.00693392
               1.00042396                1.00041170                2.00141546                0.41343834               -0.02549422               -0.02579489                0.08867307               -0.00626845                0.00496732               -0.00180265
               2.00015452                1.00028391                2.00126919                0.01000000               -0.01902083               -0.02089215                0.09775472                0.01488636                0.01257222                0.03401698
               3.00004354                1.00038359                2.00134165                0.01000000                0.00175937               -0.01268659                0.07404937                0.01538136               -0.01173585               -0.02446417
               4.00018970                1.00029677                2.00079112                0.01000000                0.01454141               -0.03547117                0.09296643               -0.00447337               -0.00446948                0.01865955
               5.00033437                1.00026435                2.00090235                0.01000000                0.01599425               -0.03900448                0.10287995               -0.01119458                0.05910173                0.00859174
               6.00050959                1.00017993                2.00161066                0.01000000               -0.00931533               -0.02428049                0.11059557               -0.01875077                0.06414891               -0.03436535
               7.00014806                1.00035964                2.00199406                0.99999998               -0.03475288               -0.02988506                0.12574834               -0.00163236                0.01828078                0.04374652
               7.99981453                1.00047696                2.00200097                0.99999999               -0.03253032               -0.03601009                0.11535134               -0.00270439               -0.00780933                0.01002018
               8.99949745                1.00053595                2.00202219                0.99999999               -0.03185624               -0.03302553                0.11309150               -0.00422246               -0.00548521               -0.00360097
               9.99917741                1.00061335                2.00218839                0.99999999               -0.03200478               -0.03242743                0.11057940               -0.00217662                0.00109738                0.00986967
               0.00071384                2.00017758                2.00143009                0.08796017               -0.03061343               -0.01728971                0.08967138               -0.00825608                0.00584326                0.03144861
               1.00040770                2.00014060                2.00116283                0.01000000               -0.01548826               -0.01854923                0.09350748                0.01332238                0.04501147                0.01983138
               2.00040407                2.00018818                2.00170856                0.01000001               -0.00549566               -0.00520142                0.05662634                0.01442496               -0.00138829               -0.01416391
               3.00029779                2.00019204                2.00060398                0.01000000               -0.00895648               -0.01514386                0.09391269                0.00544690               -0.01882922               -0.01028463
               4.00022494                2.00008890                2.00084297                0.01000001               -0.00395323               -0.01532166                0.08449733               -0.00901681                0.03166830                0.00723529
               5.00021872                2.00000917                2.00090005                0.01000000               -0.00356194               -0.01746149                0.09213259               -0.01470605                0.01503841               -0.00167989
               6.00015370                2.00000400                2.00089426                0.01000001               -0.01325024               -0.01553908                0.11346417               -0.01969071                0.08561781               -0.03103937
               6.99995372                2.00009210                2.00259670                0.01000000               -0.02213173               -0.02530554                0.15297050               -0.01227337                0.04961993               -0.06060160
               7.99971107                2.00007123                2.00200511                0.02299282               -0.02849368               -0.03447384                0.13415202               -0.00915068               -0.05750534                0.00235353
               8.99938384                2.00020285                2.00176415                1.00000000               -0.03126181               -0.03346300                0.11296286                0.00512022               -0.02368867               -0.01157772
               9.99908583                2.00028934                2.00201883                1.00000000               -0.02980137               -0.03321621                0.10281823               -0.00076622                0.00010978                0.00830823
               0.00057325                3.00010913                2.00175811                0.01000000                0.01065638                0.00097997                0.07562544                0.00624187                0.01495221               -0.00211463
               1.00067981                3.00004072                2.00149465                0.01000000               -0.00908342                0.00123706                0.06202470                0.00592467               -0.01454127               -0.00860729
               2.00039158                3.00017988                2.00054850                0.01000000               -0.02140262               -0.00330682                0.09439240               -0.00396848               -0.00029824               -0.02869818
               3.00025176                3.00008071                2.00082437                0.01000001               -0.00996707               -0.00876494                0.07882341               -0.01457001                0.03248246                0.01272938
               4.00019224                2.99999034                2.00076291                0.01000001               -0.00633054               -0.00864764                0.08236623               -0.01282405                0.01412397               -0.00539500
               5.00012515                2.99991512                2.00080498                0.01000000               -0.00796935               -0.00797824                0.08623626               -0.01337141                0.01838207               -0.01227511
               6.00003285                2.99986915                2.00097826                0.01000001               -0.01448914               -0.00940932                0.09509475               -0.01171466               -0.00119477               -0.01303415
               6.99983536                2.99985353                2.00080852                0.01000000               -0.02560422               -0.01364424                0.11304634               -0.00888607                0.02671637               -0.08828221
               7.99952076                2.99978748                2.00186496                0.01000000               -0.02268104               -0.01169105                0.09625889               -0.00014455                0.00429331               -0.05305244
               8.99938174                2.99986669                2.00148363                0.01000000               -0.02658360               -0.01837438                0.12191006                0.00839625               -0.04367057               -0.03466292
               9.99898909                2.99994903                2.00186089                0.24624823               -0.03926499               -0.02057425                0.11089687               -0.00033916               -0.00511918               -0.01482741
               0.00097551                4.00019718                2.00102177                0.01000001               -0.05200540                0.00733750                0.10594752                0.01458799                0.03498774               -0.00930667
               1.00045545                4.00016534                2.00074602                0.01000000               -0.03454010                0.01065164                0.09529689               -0.01603417                0.03266400               -0.01353228
               2.00028470                4.00012204                2.00083514                0.01000000               -0.01297617               -0.00493685                0.08186279               -0.01715799                0.02740594                0.02159446
               3.00019593                4.00001674                2.00074435                0.01000001               -0.00753274               -0.00728342                0.08064480               -0.01609204                0.01456993               -0.00380058
               4.00013405                3.99991595                2.00075024                0.01000000               -0.00617254               -0.00735477                0.07889325               -0.01331664                0.01323052               -0.00951472
               5.00007248                3.99984961                2.00076909                0.01000002               -0.00765251               -0.00645677                0.08099956               -0.00894277                0.00720859               -0.01624261
               5.99998100                3.99981581                2.00079088                0.01000498               -0.01074062               -0.00511204                0.08569954               -0.00453825                0.00219458               -0.02465474
               6.99985767                3.99981921                2.00089401                0.01000880               -0.01429914               -0.00385250                0.08978910                0.00253185               -0.01502783               -0.01278174
               7.99969502                3.99983741                2.00080240                0.01000001               -0.02337213                0.00083212                0.10198074                0.01007968               -0.02260083               -0.05467683
               8.99939022                3.99983536                2.00102938                0.01000002               -0.03903217               -0.00169578                0.10955623                0.00622670               -0.01986536               -0.03332177
               9.99891437                3.99987786                2.00133248                0.01000000               -0.04758500               -0.00632197                0.12286280                0.00549485               -0.03506498               -0.03117721
               0.00092869                5.00025589                2.00126338                0.01000002               -0.04944202                0.01191516                0.11562523               -0.01521777                0.02500946                0.04533600
               1.00043427                5.00025375                2.00096118                0.01000000               -0.03658344                0.00795527                0.10119227               -0.01647269                0.01542780                0.04908636
               2.00019702                5.00008114                2.00084326                0.01000000               -0.01491279               -0.00730336                0.08886594               -0.02098126                0.01268583                0.00578576
               3.00013601                4.99993505                2.00076449                0.01000000               -0.00519910               -0.00865818                0.08084574               -0.01711602                0.01017096               -0.00513217
               4.00009304                4.99984324                2.00073603                0.01000002               -0.00447941               -0.00866636                0.07761284               -0.00985978                0.00870677               -0.01673277
               5.00004642                4.99978599                2.00073473                0.01000000               -0.00602797               -0.00689110                0.07807905               -0.00512201                0.00551599               -0.02173812
               5.99997248                4.99976691                2.00076332                0.01000000               -0.00910096               -0.00566527                0.08096516               -0.00053085               -0.00075169               -0.02298128
               6.99986440                4.99977648                2.00079459                0.01000000               -0.01331349               -0.00521255                0.08646793                0.00269813               -0.00865968               -0.02386473
               7.99970621                4.99980413                2.00087415                0.01000001               -0.01992902               -0.00453333                0.09213410                0.00424557               -0.02138482               -0.01303314
               8.99946582                4.99983278                2.00091839                0.01000000               -0.03461067               -0.00210058                0.10166494                0.00574784               -0.02828547               -0.01627143
               9.99901399                4.99982259                2.00122488                0.01000001               -0.04518296               -0.00220096                0.11314205                0.00483518               -0.03428412               -0.01365659
               0.00067542                6.00043549                2.00174702                0.99873470               -0.03746757               -0.00580320                0.10502839               -0.01947105               -0.00298006                0.03748065
               1.00030074                6.00032445                2.00149496                0.01000002               -0.02458176               -0.01117236                0.11413684               -0.02164579               -0.01785996                0.03505674
               2.00018378                5.99997597                2.00091982                0.01000001               -0.01046176               -0.00449188                0.09776319               -0.02674086               -0.01348787                0.00985350
               3.00009151                5.99984358                2.00081157                0.01000001               -0.00489367               -0.01577533                0.08195728               -0.01162117                0.00498870               -0.02095613
               4.00008591                5.99974262                2.00072634                0.01000799               -0.00225711               -0.01001711                0.07786479               -0.00572574                0.00626309               -0.02318272
               5.00004637                5.99971178                2.00072689                0.01000000               -0.00530118               -0.00826393                0.07706010               -0.00103258                0.00586712               -0.02809183
               5.99997989                5.99970251                2.00074436                0.01000001               -0.00859763               -0.00772020                0.08045175                0.00123636                0.00066783               -0.02848977
               6.99987441                5.99971496                2.00079541                0.01000001               -0.01281269               -0.00785096                0.08646687                0.00302908               -0.00700832               -0.02553607
               7.99972363                5.99974674                2.00086482                0.01000001               -0.01938494               -0.00786139                0.09449184                0.00432520               -0.01898946               -0.02134013
               8.99948672                5.99979335                2.00094846                0.01000001               -0.03460921               -0.00649376                0.10465890                0.00374243               -0.02463135               -0.01375508
               9.99903145                5.99983384                2.00126509                0.01000005               -0.04552655               -0.00084217                0.11721749                0.00160556               -0.03282151               -0.00810400
               0.00076135                7.00013982                2.00183342                0.99999999               -0.03004808               -0.02692717                0.09660090               -0.00107173               -0.00473832                0.01316242
               1.00046086                7.00003030                2.00152802                1.00000000               -0.03091363               -0.02683489                0.09773611                0.00572707               -0.00515383                0.00174720
               2.00014307                6.99999130                2.00118498                0.01000000               -0.01619600               -0.01465658                0.09677407               -0.01768259               -0.02079308                0.00465627
               3.00013694                6.99961954                2.00069329                0.01000000               -0.00163789               -0.02136483                0.09313238               -0.01595435               -0.00362963                0.00806682
               4.00011032                6.99964290                2.00076320                0.01000002               -0.00355304               -0.01013922                0.07659334                0.00344511                0.01503538               -0.03908563
               5.00006588                6.99962071                2.00072393                0.01000000               -0.00581436               -0.01035280                0.07856790                0.00064584                0.00713898               -0.03444661
               5.99999403                6.99961251                2.00076118                0.01000001               -0.00925660               -0.01044283                0.08262260                0.00161140                0.00386099               -0.03492739
               6.99988075                6.99961946                2.00082838                0.01000000               -0.01398528               -0.01145989                0.09083332                0.00209966               -0.00416094               -0.03192490
               7.99971432                6.99964690                2.00093338                0.01000002               -0.02135894               -0.01308493                0.10220363                0.00173527               -0.01677380               -0.02425795
               8.99945357                6.99970290                2.00104778                0.01000000               -0.03745981               -0.01406074                0.11661206                0.00058060               -0.02457346               -0.01290149
               9.99896513                6.99980575                2.00139820                0.01000003               -0.04884470               -0.01194186                0.13186352               -0.00306066               -0.03424035                0.00012113
               0.00087302                7.99989694                2.00200355                1.00000000               -0.03092157               -0.02691046                0.10305598                0.00019782               -0.00262256                0.01035387
               1.00056380                7.99978775                2.00166040                0.99999999               -0.03160612               -0.02585493                0.09596453                0.00015103               -0.00108514                0.00029445
               2.00024090                7.99968284                2.00131768                0.35717397               -0.02214888               -0.02817901                0.09442314               -0.00639547                0.02783326               -0.00552901
               3.00012083                7.99941628                2.00162426                0.01000000               -0.00436274               -0.00970435                0.05451669               -0.00610920               -0.00809023               -0.01062973
               4.00015364                7.99953983                2.00063753                0.01000001               -0.00155763               -0.01560409                0.08637784                0.00515070               -0.02250691               -0.04169938
               5.00008967                7.99950473                2.00077271                0.01000001               -0.00701405               -0.01476284                0.08056445                0.00030417                0.01788844               -0.04349378
               6.00001336                7.99949365                2.00079854                0.01000001               -0.01038286               -0.01518229                0.08748432                0.00137528                0.00669908               -0.04359691
               6.99988202                7.99948576                2.00090066                0.01000002               -0.01692302               -0.01703275                0.09884463                0.00018571                0.00083506               -0.04121727
               7.99967490                7.99948504                2.00107953                0.01000000               -0.02712694               -0.02155932                0.11755661               -0.00326054               -0.01144441               -0.03243746
               8.99933948                7.99951214                2.00130706                0.01000007               -0.04551775               -0.02618703                0.14267083               -0.00975677               -0.02076242                0.00394006
               9.99876455                7.99959500                2.00176248                0.01000002               -0.05749317               -0.03501160                0.16742766               -0.01161428               -0.03340948                0.02738861
               0.00098369                8.99960161                2.00220236                1.00000000               -0.03057031               -0.03049368                0.10986523                0.00039815                0.00009461                0.00603319
               1.00067799                8.99951321                2.00183239                0.99999999               -0.02985281               -0.02875538                0.10216607                0.00100748                0.00597358               -0.00187373
               2.00038663                8.99942772                2.00155508                1.00000000               -0.02601082               -0.02676127                0.09723827                0.00724419                0.01158618               -0.00316701
               3.00015777                8.99942545                2.00138105                0.01000000               -0.01308758               -0.01527987                0.09744763               -0.00114589               -0.01153324               -0.04216816
               4.00012488                8.99933082                2.00082171                0.01000002               -0.00198092               -0.03046896                0.08934502               -0.00304500               -0.00720190               -0.03129569
               5.00011815                8.99932545                2.00080605                0.01000000               -0.00421915               -0.02822409                0.08882631                0.00148272                0.01597848               -0.04238396
               6.00004050                8.99930886                2.00086826                0.01000001               -0.01125385               -0.02903971                0.09648054                0.00102141                0.01193003               -0.04117557
               6.99989307                8.99927881                2.00099521                0.01000402               -0.02088795               -0.03197155                0.11160413               -0.00107947                0.00699541               -0.04104082
               7.99962274                8.99921571                2.00127380                0.01000001               -0.03722986               -0.03838401                0.14002060               -0.00680958                0.01659652               -0.03328782
               8.99914848                8.99917916                2.00204192                1.00000000               -0.05278167               -0.04568032                0.18019680               -0.01612731                0.00665262                0.00767494
               9.99856711                8.99910551                2.00277379                1.00000000               -0.05813710               -0.04906634                0.17879160               -0.01379656               -0.00413992                0.01397845
               0.00105780                9.99928707                2.00239438                1.00000000               -0.02999529               -0.03145422                0.10885437               -0.00003201                0.00656160                0.00749516
               1.00075784                9.99921264                2.00203152                0.99999999               -0.02921309               -0.03005630                0.10135608                0.00101315                0.01859170                0.00023834
               2.00047353                9.99914762                2.00187707                1.00000000               -0.02815142               -0.02801049                0.09534938                0.00359223                0.02622176                0.00372545
               3.00019482                9.99911068                2.00173254                0.01000000               -0.01403964               -0.03147690                0.09957582               -0.00715356                0.00318004               -0.00996922
               4.00019274                9.99893045                2.00116637                0.01000000               -0.00267661               -0.04003611                0.10589967               -0.00173575                0.00149967               -0.03801164
               5.00014128                9.99894025                2.00116381                0.01000000               -0.00561537               -0.03852064                0.10423294                0.00143327                0.02149044               -0.04089422
               6.00008043                9.99891286                2.00124658                0.01000005               -0.00938527               -0.03960053                0.11326007               -0.00070204                0.01685529               -0.04117551
               6.99995358                9.99884633                2.00139557                0.01004263               -0.02210385               -0.04324757                0.13003723               -0.00372430                0.01397718               -0.04269691
               7.99963836                9.99871736                2.00175552                0.01000000               -0.04132246               -0.04983486                0.16618411               -0.01082830                0.03061301               -0.03642186
               8.99912713                9.99859853                2.00276539                1.00000000               -0.05012250               -0.05806310                0.17824430               -0.00731910                0.01578069               -0.00192233
               9.99863591                9.99861368                2.00346485                0.99999999               -0.04912209               -0.04918378                0.15849671                0.00839489                0.00319135                0.00097916
               0.00075142                0.00094266                3.00262963                1.00000000               -0.02482766               -0.02504979                0.08037928                0.00066131               -0.00269752                0.00455974
               1.00050314                0.00084493                3.00246557                0.99999999               -0.02459103               -0.02470180                0.08127294                0.00010797               -0.00251379               -0.00233825
               2.00025960                0.00074209                3.00230129                0.01000000               -0.01310869               -0.02389814                0.08214581               -0.00038582               -0.02918833               -0.00515980
               3.00024097                0.00064535                3.00156476                0.01000000                0.00465861               -0.00602570                0.05275268                0.01083971                0.00328924                0.02047544
               4.00035277                0.00090833                3.00197378                0.01000001                0.00566060               -0.04270130                0.09353421                0.00811052                0.03614177               -0.00708739
               5.00035418                0.00079189                3.00216375                0.01000001                0.00397458               -0.04234171                0.10076239               -0.02274928                0.01700360               -0.01288761
               6.00043226                0.00041276                3.00227613                0.55160255               -0.00603824               -0.02282452                0.10562796               -0.02797961                0.03244765               -0.00345847
               7.00023342                0.00060045                3.00285059                1.00000000               -0.02560292               -0.03473943                0.11425277                0.00188093                0.04132596                0.00852005
               7.99992021                0.00081687                3.00316117                1.00000000               -0.03270001               -0.03455075                0.11366388                0.00421008                0.02160567                0.00037634
               8.99957942                0.00102136                3.00334428                1.00000000               -0.03409285               -0.03376333                0.11234419                0.00192230                0.01289443               -0.00128631
               9.99923835                0.00119507                3.00348009                1.00000000               -0.03410691               -0.03333863                0.11167363               -0.00027795                0.00920714                0.00508623
               0.00085576                1.00069216                3.00244852                1.00000000               -0.02512489               -0.02510309                0.08271503                0.00061320                0.00009439                0.00522699
               1.00060451                1.00059792                3.00226518                0.01000000               -0.02501119               -0.02489295                0.08498958                0.00035129                0.00098920               -0.00441036
               2.00035553                1.00050311                3.00211064                0.01000000               -0.01691305               -0.01363742                0.08605698                0.01468479               -0.02149102               -0.04276275
               3.00026625                1.00058510                3.00147009                0.01000000                0.00025397               -0.01628904                0.06430529                0.01207280                0.00759417                0.02472631
               4.00036061                1.00048132                3.00186089                0.01000000                0.00541159               -0.03675652                0.09984917               -0.01127572                0.03849083               -0.00350301
               5.00037448                1.00036847                3.00205004                0.01000000               -0.00562141               -0.03650276                0.10634644               -0.01999268                0.02436800               -0.01275739
               6.00024818                1.00018451                3.00229616                0.01000001               -0.01621529               -0.01954322                0.11060293               -0.02679057                0.03498048               -0.00876125
               7.00005017                1.00025306                3.00296087                0.99999999               -0.02481653               -0.03060505                0.10208082               -0.00269486                0.03082413                0.00995521
               7.99975185                1.00047136                3.00310536                0.99999999               -0.03203177               -0.03214587                0.10867464                0.00636459                0.00112800               -0.00052974
               8.99940954                1.00068373                3.00316876                0.99999998               -0.03449971               -0.03380648                0.11382079                0.00240371               -0.00126481               -0.00397080
               9.99906186                1.00086169                3.00327854                0.99995675               -0.03476784               -0.03335422                0.11107531               -0.00021383               -0.00003931                0.00527065
               0.00095217                2.00044059                3.00228102                0.01000001               -0.02529494               -0.01775041                0.08476121               -0.00971301               -0.00131020               -0.02403016
               1.00069922                2.00034707                3.00202788                0.01000000               -0.01930270               -0.01636622                0.08803096                0.01805635               -0.03273284               -0.03393735
               2.00056611                2.00046934                3.00110384                0.01000001               -0.00975023               -0.00938467                0.04137534                0.01453076                0.00838139                0.00039343
               3.00050421                2.00031957                3.00188579                0.01000000               -0.01111146               -0.02320297                0.10009641               -0.00600754                0.03816678                0.00953639
               4.00034389                2.00017320                3.00168870                0.01000000               -0.01265388               -0.02475644                0.09221929               -0.01568670                0.00699088               -0.00601548
               5.00025114                2.00006183                3.00184582                0.01000000               -0.01660127               -0.02409584                0.09984670               -0.01871735                0.02912452               -0.01485910
               6.00001186                2.00002189                3.00225771                0.01000000               -0.01792322               -0.01696528                0.11567044               -0.01757438                0.05374316               -0.02104922
               6.99989267                1.99998835                3.00311067                0.01000000               -0.01975158               -0.01561851                0.06846008               -0.01319856                0.02638296               -0.03957641
               7.99961683                2.00017395                3.00305230                0.01000001               -0.03277550               -0.01577565                0.10310856               -0.00107936               -0.02420718               -0.05256501
               8.99923716                2.00034523                3.00295280                0.99999999               -0.03693360               -0.03424270                0.11555010               -0.00215622               -0.01426745               -0.00942378
               9.99887816                2.00052799                3.00309724                0.99999997               -0.03590064               -0.03279059                0.10973852               -0.00009055               -0.00404818                0.00662153
               0.00084853                3.00033715                3.00148921                0.01000001                0.00883525               -0.00561439                0.05747726                0.00798812                0.01831995                0.00933513
               1.00093689                3.00027059                3.00122951                0.01000000               -0.00874425               -0.00357016                0.05779571                0.00545367                0.03714152                0.00899741
               2.00067365                3.00031541                3.00189555                0.01000000               -0.02473261               -0.01622493                0.10042941               -0.00825077                0.03403847                0.02749838
               3.00044223                3.00012104                3.00157515                0.01000000               -0.01845147               -0.01661229                0.08644296               -0.02279876                0.00309544               -0.01244120
               4.00030462                2.99998619                3.00164814                0.01000000               -0.01453965               -0.01676890                0.09008393               -0.01687933                0.01570342               -0.00795716
               5.00015144                2.99988655                3.00172424                0.01000001               -0.01672238               -0.01578747                0.09402644               -0.01444914                0.01401135               -0.01470342
               5.99997017                2.99984520                3.00190371                0.01000003               -0.02586487               -0.01493048                0.09928386               -0.00206582                0.01989171               -0.02926710
               6.99963414                2.99994069                3.00226600                0.01006760               -0.02983928               -0.01124689                0.11955329                0.00501334               -0.01269839               -0.06342676
               7.99937339                3.00015585                3.00186555                0.01000001               -0.03108861               -0.01339140                0.07381964               -0.00774739                0.00473665               -0.03702397
               8.99901237                2.99999888                3.00266500                0.01000001               -0.03394252               -0.02212441                0.11478023               -0.00691902                0.02325265               -0.02288452
               9.99869454                3.00020587                3.00292901                0.13382855               -0.03178359               -0.03028903                0.10702419                0.00911096               -0.00014287               -0.00860641
               0.00124505                4.00032831                3.00212329                0.01000000               -0.04150202               -0.00276100                0.09473584                0.00956998               -0.00117922                0.04503493
               1.00083003                4.00027567                3.00190845                0.01000000               -0.03471972               -0.00088809                0.10032091               -0.01896457                0.00503691                0.04237176
               2.00055065                4.00014484                3.00163498                0.01000000               -0.02262820               -0.01396111                0.08950404               -0.02570863                0.00797657               -0.00604962
               3.00037746                3.99998733                3.00161406                0.01000000               -0.01549347               -0.01452604                0.08803629               -0.02189190                0.01289630               -0.00367196
               4.00024078                3.99983782                3.00157774                0.01002605               -0.01371619               -0.01482609                0.08643441               -0.01710110                0.01000531               -0.01311041
               5.00010314                3.99974608                3.00162027                0.01000000               -0.01621897               -0.01395906                0.08884752               -0.00916899                0.00919748               -0.01780977
               5.99991640                3.99972328                3.00171437                0.01000000               -0.02104203               -0.01289506                0.09465680               -0.00144996                0.00326829               -0.02275308
               6.99968230                3.99976342                3.00179408                0.01000001               -0.02563545               -0.01590688                0.09863535                0.01315398                0.00235452               -0.03124455
               7.99940370                3.99990612                3.00205164                0.01000001               -0.03167734               -0.02380395                0.11344739                0.01068401               -0.00470494               -0.00238837
               8.99904875                3.99990274                3.00217307                0.01000001               -0.03786598               -0.01229969                0.11293255                0.00469828               -0.00868630               -0.02494005
               9.99864638                3.99992221                3.00242670                0.01000000               -0.04023763               -0.02179528                0.10745978                0.00256019                0.00430509               -0.02616640
               0.00114520                5.00028193                3.00228168                0.01000000               -0.04041443                0.00523960                0.10338880               -0.02475627               -0.00772871                0.03002624
               1.00074106                5.00025283                3.00200382                0.01000000               -0.03486909               -0.00232784                0.10472387               -0.02751411               -0.00130602                0.02721322
               2.00044782                5.00003619                3.00178680                0.01000000               -0.02148218               -0.01431656                0.09440968               -0.02739423                0.00300867                0.00665363
               3.00031141                4.99983052                3.00161447                0.01000001               -0.01219889               -0.01667842                0.08756663               -0.02157404                0.00593105               -0.01002857
               4.00020384                4.99968967                3.00155293                0.01000000               -0.01144056               -0.01653894                0.08521568               -0.01269010                0.00867732               -0.01640299
               5.00008260                4.99960737                3.00156162                0.01000000               -0.01400028               -0.01490561                0.08650862               -0.00531426                0.00742041               -0.02073948
               5.99992384                4.99958730                3.00161940                0.01000001               -0.01841092               -0.01460652                0.09057319                0.00211741                0.00445427               -0.02160866
               6.99971439                4.99962255                3.00173019                0.01006871               -0.02380499               -0.01552875                0.09719613                0.00737887               -0.00147497               -0.01732423
               7.99944774                4.99967977                3.00184128                0.01000001               -0.03120680               -0.01985544                0.10383478                0.00972806               -0.00580232               -0.01805569
               8.99909025                4.99975288                3.00203496                0.01000001               -0.03704623               -0.01570976                0.11193451                0.00763777               -0.00559329               -0.01033756
               9.99870681                4.99976997                3.00226531                0.01000000               -0.03834361               -0.01332336                0.10389937                0.00516799                0.00095810               -0.00869515
               0.00080812                6.00043310                3.00272308                0.99010345               -0.02826400               -0.00729867                0.09961705               -0.02678376               -0.00559673                0.02649868
               1.00052548                6.00022911                3.00250380                0.01000000               -0.01915204               -0.01580744                0.09925081               -0.03055012               -0.02061061                0.01432314
               2.00042508                5.99985851                3.00191049                0.01000000               -0.01164880               -0.01535526                0.09768230               -0.03053181               -0.01940064                0.00354161
               3.00029251                5.99965376                3.00164814                0.01000003               -0.01074771               -0.02480568                0.08881649               -0.01585061                0.00308953               -0.00760705
               4.00021013                5.99950704                3.00155619                0.01000000               -0.00966435               -0.01936485                0.08568846               -0.00681669                0.00824990               -0.02316509
               5.00009922                5.99944797                3.00154152                0.01000001               -0.01332786               -0.01720217                0.08615033               -0.00064548                0.00898119               -0.02429415
               5.99994357                5.99943115                3.00160927                0.01000000               -0.01809026               -0.01710682                0.09127594                0.00255587                0.00711509               -0.02345877
               6.99973741                5.99945284                3.00172946                0.01000001               -0.02378211               -0.01865751                0.09846257                0.00506745                0.00267016               -0.01964916
               7.99946793                5.99950901                3.00189062                0.01000001               -0.03130549               -0.01988663                0.10719359                0.00622060               -0.00212385               -0.01170169
               8.99911130                5.99958855                3.00209329                0.01000000               -0.03761839               -0.01959755                0.11581353                0.00517863               -0.00381016               -0.00371839
               9.99871556                5.99965574                3.00234065                0.01000000               -0.03957441               -0.01350706                0.10822984                0.00265557                0.00235400                0.00249098
               0.00101749                7.00013596                3.00284467                1.00000000               -0.03128518               -0.03043483                0.10323686                0.00010799               -0.00399305                0.01357024
               1.00070464                6.99993668                3.00253033                1.00000000               -0.03024767               -0.02972851                0.09994421               -0.00201888               -0.00832673               -0.00404985
               2.00041254                6.99972909                3.00213576                0.01000001               -0.01793869               -0.02066834                0.09394810               -0.02140300               -0.00558116               -0.00696418
               3.00034587                6.99933440                3.00184750                0.01007459               -0.00696211               -0.02922940                0.09604986               -0.00943610               -0.00646024               -0.04907628
               4.00027330                6.99930237                3.00153311                0.01000001               -0.01001404               -0.02046798                0.08474155                0.00646389                0.00359497               -0.02186914
               5.00014559                6.99926333                3.00157166                0.01007473               -0.01516082               -0.02006231                0.08810936                0.00216927                0.01488897               -0.02950404
               5.99997008                6.99924517                3.00165266                0.01000001               -0.02038568               -0.02050171                0.09414017                0.00219587                0.01137352               -0.02684246
               6.99973787                6.99924940                3.00181766                0.01000000               -0.02668205               -0.02264543                0.10447316                0.00086957                0.00748300               -0.02190324
               7.99943644                6.99928203                3.00204385                0.01000001               -0.03453910               -0.02669087                0.11677930               -0.00136575                0.00307146               -0.01062984
               8.99904709                6.99936093                3.00233549                0.01000001               -0.04054497               -0.02918180                0.12940797               -0.00218881                0.00029658                0.00504473
               9.99862554                6.99949983                3.00264067                0.01001876               -0.04215503               -0.02397814                0.12376759               -0.00264540                0.00545514                0.02065162
               0.00120883                7.99982440                3.00304605                1.00000000               -0.03168594               -0.03142504                0.10595956               -0.00069416               -0.00157970                0.01541266
               1.00089197                7.99963454                3.00266772                1.00000000               -0.03047668               -0.03011005                0.10066796               -0.00130721               -0.00187232                0.00124031
               2.00059930                7.99944514                3.00228458                0.01000001               -0.01807370               -0.02854633                0.09558966               -0.01089035               -0.04312452               -0.00798415
               3.00053050                7.99906917                3.00104481                0.01000001               -0.00944094               -0.01830064                0.04696896               -0.00908689                0.00585667               -0.01557425
               4.00041048                7.99909769                3.00173492                0.01000001               -0.01653455               -0.02365603                0.09323816                0.00749590                0.04749894               -0.02728717
               5.00019981                7.99904672                3.00161074                0.01000001               -0.02045344               -0.02486585                0.09111399                0.00254582                0.01385896               -0.03069263
               6.00000141                7.99902112                3.00175038                0.01000001               -0.02409347               -0.02567601                0.09965341                0.00136306                0.01844212               -0.02808419
               6.99971794                7.99899993                3.00197669                0.01000001               -0.03361632               -0.02809629                0.11347873               -0.00355996                0.01593783               -0.02252549
               7.99932909                7.99897519                3.00236150                0.01000001               -0.04341029               -0.03376441                0.13322199               -0.01128220                0.01271434               -0.00938910
               8.99884973                7.99900491                3.00283673                0.01000000               -0.04721142               -0.04192639                0.15151409               -0.01938522                0.00797131                0.03218166
               9.99838486                7.99917618                3.00330572                0.01000001               -0.04648765               -0.05192756                0.15094143               -0.01785703                0.01423249                0.05560769
               0.00138333                8.99950745                3.00328274                1.00000000               -0.03255699               -0.03209992                0.10889961               -0.00094538                0.00176334                0.01288253
               1.00105776                8.99933448                3.00286115                0.99999997               -0.03116087               -0.02990972                0.10198388               -0.00168724                0.00223779                0.00214073
               2.00076011                8.99915816                3.00246132                1.00000000               -0.02730827               -0.02718933                0.09033296               -0.00329516                0.00221772               -0.00290633
               3.00051159                8.99896839                3.00203960                0.01000005               -0.01572218               -0.01383658                0.07011592               -0.00970066                0.00767916                0.02765063
               4.00044566                8.99882925                3.00178164                0.01000001               -0.01192587               -0.02825214                0.09239780               -0.00311396                0.01874422               -0.02491940
               5.00027307                8.99876601                3.00177730                0.01000001               -0.02007654               -0.02876572                0.09745983                0.00198216                0.02450746               -0.02200258
               6.00004413                8.99873165                3.00192990                0.01000000               -0.02802371               -0.02980400                0.10718974                0.00097018                0.02441188               -0.02103737
               6.99971260                8.99868748                3.00223535                0.01000001               -0.04191586               -0.03216854                0.12471864               -0.00383864                0.02609776               -0.01647802
               7.99920582                8.99860675                3.00278375                0.01000001               -0.06270972               -0.03512009                0.14969337               -0.01236721                0.04582468               -0.00491675
               8.99845840                8.99852240                3.00391419                0.99999999               -0.06399720               -0.05071166                0.18573417               -0.02506143                0.02447459                0.02472818
               9.99792587                8.99846128                3.00450865                1.00000000               -0.05325313               -0.06095247                0.17351916               -0.02582270               -0.00023712                0.03017920
               0.00153588                9.99918240                3.00346641                0.99999999               -0.03283530               -0.03250523                0.10843436                0.00064989                0.01017903                0.00950308
               1.00120752                9.99903635                3.00304529                1.00000000               -0.03181952               -0.02981297                0.10090570                0.00092463                0.01498889                0.00174161
               2.00089949                9.99890136                3.00273939                1.00000000               -0.02710637               -0.02568028                0.08662149                0.00174231                0.01816172                0.00268080
               3.00066540                9.99879244                3.00238525                0.01000001               -0.01744525               -0.01759513                0.06848223               -0.00305507                0.02075989               -0.00053386
               4.00055058                9.99853264                3.00210160                0.01000000               -0.01641703               -0.02966083                0.08771825               -0.00555977                0.02130672               -0.00260339
               5.00033706                9.99847141                3.00208510                0.01000000               -0.02256163               -0.02946019                0.09107433                0.00101810                0.02842471               -0.00800358
               6.00009935                9.99842504                3.00226207                0.01000000               -0.02854936               -0.03066100                0.10080029               -0.00022077                0.02856347               -0.00657387
               6.99976607                9.99835656                3.00260412                0.01000002               -0.04262666               -0.03309152                0.11964963               -0.00226518                0.03428064               -0.00312182
               7.99924682                9.99827279                3.00328054                0.01000002               -0.06360476               -0.03339530                0.14891418               -0.01419411                0.05885929                0.01082335
               8.99849397                9.99799068                3.00449531                1.00000000               -0.06280805               -0.05317224                0.17305368               -0.01222618                0.03232296                0.00199505
               9.99799065                9.99795713                3.00508914                1.00000000               -0.05033187               -0.05041484                0.16249657                0.00312309                0.00074322               -0.00147824
               0.00088068                0.00115122                4.00343275                1.00000000               -0.02405658               -0.02431360                0.07990495                0.00116063               -0.00358119                0.00349453
               1.00064011                0.00101052                4.00327582                0.99999999               -0.02426975               -0.02493292                0.08117208                0.00079670               -0.00350843               -0.00130601
               2.00039528                0.00088413                4.00311308                0.01000001               -0.01218938               -0.02580187                0.08214096                0.01415498               -0.01558164               -0.00118335
               3.00039632                0.00104461                4.00271736                0.01000000               -0.00381338               -0.04875260                0.10808846                0.00479607               -0.00290424                0.00645452
               4.00031901                0.00088235                4.00283109                0.01000003               -0.00164128               -0.03705555                0.09125647               -0.00822888                0.02106317               -0.00762134
               5.00036350                0.00075892                4.00310948                0.01000001                0.01335518               -0.04317901                0.10269991               -0.02280264                0.04877605               -0.01350442
               6.00058612                0.00038038                4.00383703                0.64297603               -0.00693127               -0.03572486                0.11847195               -0.03473865                0.04925457               -0.00349005
               7.00022487                0.00063964                4.00410575                1.00000000               -0.03531166               -0.03409771                0.11834920               -0.00044120                0.01865707                0.00015314
               7.99987988                0.00091059                4.00429381                0.99999999               -0.03406071               -0.03353540                0.11488517                0.00238441                0.01397648                0.00103318
               8.99954366                0.00118869                4.00448998                1.00000000               -0.03415949               -0.03406688                0.11495718                0.00213864                0.01088662               -0.00010678
               9.99919669                0.00144273                4.00461832                0.99999510               -0.03469636               -0.03411135                0.11533360                0.00144064                0.00713386                0.00506115
               0.00103298                1.00090808                4.00327525                1.00000000               -0.02513574               -0.02474587                0.08271065                0.00097322                0.00072720                0.00423414
               1.00078162                1.00076119                4.00311526                0.01000000               -0.02565972               -0.02564970                0.08503657                0.00040745                0.00243476               -0.00302447
               2.00051979                1.00062611                4.00299033                0.01000000               -0.01682246               -0.02364932                0.08757833                0.00572004               -0.00818103               -0.01854575
               3.00044517                1.00055708                4.00262775                0.01000000               -0.00701079               -0.03834514                0.11016141               -0.00171872                0.00430460               -0.00514497
               4.00037957                1.00051179                4.00278810                0.01000000               -0.00293587               -0.03505020                0.09548670               -0.00721213                0.02438876               -0.00823524
               5.00038646                1.00032713                4.00302928                0.01000000               -0.00405995               -0.03605627                0.10415818               -0.03099817                0.04939919               -0.01505434
               6.00029837                1.00002313                4.00382272                0.01000000               -0.02155515               -0.02024532                0.11370343               -0.03254354                0.04201539               -0.03572140
               6.99995535                1.00029866                4.00403568                1.00000000               -0.03345831               -0.03220994                0.10682195                0.00070143                0.00609839                0.00060023
               7.99962920                1.00057524                4.00417446                1.00000000               -0.03281879               -0.03254323                0.10843735                0.00271348                0.00033884                0.00181204
               8.99929898                1.00084802                4.00429861                0.99999996               -0.03360716               -0.03352805                0.11227466                0.00181342               -0.00049437               -0.00189663
               9.99895706                1.00110161                4.00440990                0.99999996               -0.03419155               -0.03357145                0.11341761                0.00132377               -0.00064021                0.00511027
               0.00119392                2.00065630                4.00312531                0.01302516               -0.02636897               -0.02272562                0.08518593                0.00542571                0.00191094                0.00117632
               1.00093023                2.00049752                4.00292345                0.01000000               -0.02400670               -0.02105468                0.08904463               -0.00052414               -0.00777271               -0.00912257
               2.00071379                2.00041114                4.00253607                0.01000001               -0.02269838               -0.02137042                0.12423752               -0.00064487               -0.00027407               -0.02129791
               3.00047626                2.00027771                4.00260591                0.01000000               -0.01545315               -0.02267314                0.08338666               -0.00569457                0.01401941               -0.00540642
               4.00040472                2.00018134                4.00268736                0.01000000               -0.01220338               -0.02848210                0.09831584               -0.01311311                0.01875519               -0.01281397
               5.00023220                2.00003780                4.00289699                0.01000000               -0.02205056               -0.02402629                0.10265493               -0.02212617                0.02386321               -0.01968499
               5.99996371                1.99997547                4.00320767                0.01000003               -0.02727026               -0.00979864                0.10234322               -0.02259006                0.04715052               -0.04475323
               6.99968679                1.99999544                4.00396590                0.01001077               -0.02894577               -0.01985340                0.09328905               -0.00257746                0.02290485               -0.03692928
               7.99938480                2.00025973                4.00406728                0.01000000               -0.03166203               -0.02637870                0.10225175                0.00549856               -0.01640819               -0.02975318
               8.99905355                2.00051813                4.00407515                0.99999999               -0.03344086               -0.03296428                0.11049307               -0.00020345               -0.01155734               -0.00662550
               9.99871598                2.00077130                4.00421360                0.99999999               -0.03375702               -0.03270861                0.11125290                0.00037486               -0.00354788                0.00504547
               0.00145904                3.00045357                4.00290765                0.01000001               -0.04427437               -0.01754445                0.10585235               -0.00196264                0.00660135                0.00179310
               1.00101630                3.00034010                4.00265056                0.01000000               -0.03661681               -0.01295320                0.11586304               -0.00702984               -0.00247760                0.00000067
               2.00072671                3.00019870                4.00255709                0.01000000               -0.02276101               -0.01506710                0.08135332               -0.01058174                0.00714585                0.00098432
               3.00056108                3.00010362                4.00255323                0.01000000               -0.01847431               -0.01868638                0.09466237               -0.01108571                0.01059770               -0.00876629
               4.00035722                2.99994215                4.00256459                0.01000001               -0.02056368               -0.02161974                0.09369143               -0.01669002                0.01197189               -0.01524445
               5.00014980                2.99984661                4.00268550                0.01000000               -0.02341484               -0.01908829                0.09775474               -0.01136950                0.01944074               -0.02191427
               5.99988892                2.99982716                4.00296394                0.01000000               -0.02651287               -0.01652080                0.10228094               -0.00180799                0.01862463               -0.02805571
               6.99961955                2.99990160                4.00319959                0.01000003               -0.03362160               -0.01326567                0.09894611                0.00506006                0.01032917               -0.05580814
               7.99921649                3.00004767                4.00334136                0.01000000               -0.04181049               -0.02229089                0.13317724                0.00621330                0.01188318               -0.05024410
               8.99878334                3.00018873                4.00377923                0.01000000               -0.03791371               -0.02757601                0.10935663                0.00938290                0.00992507               -0.01866187
               9.99845822                3.00044744                4.00400138                0.15512695               -0.03251211               -0.03765296                0.10741689                0.01473202               -0.00096226               -0.01119869
               0.00138161                4.00030541                4.00291649                0.01000001               -0.03371086               -0.00984710                0.08846132               -0.01315582               -0.00183450                0.02234525
               1.00104450                4.00023846                4.00275244                0.01000000               -0.03214922               -0.00687185                0.09099875               -0.01544412                0.00281296                0.02020241
               2.00073863                4.00010980                4.00262522                0.01000000               -0.02667020               -0.01299981                0.09576090               -0.02073199                0.00434979                0.00351924
               3.00051110                3.99990398                4.00250508                0.01000001               -0.02053435               -0.02016154                0.09118597               -0.02167095                0.00614562               -0.01038058
               4.00032794                3.99974895                4.00247893                0.01000000               -0.01956497               -0.02027134                0.09208558               -0.01428653                0.01049949               -0.01561091
               5.00011980                3.99965603                4.00254604                0.01000000               -0.02276889               -0.01983246                0.09464505               -0.00626702                0.01242467               -0.01981473
               5.99987256                3.99964506                4.00268401                0.01000000               -0.02761576               -0.01936632                0.09915147                0.00390843                0.01224059               -0.02618423
               6.99956748                3.99973013                4.00286672                0.01000001               -0.03253183               -0.02034920                0.10669728                0.00811650                0.00963416               -0.02642396
               7.99922193                3.99981391                4.00307135                0.01000002               -0.03630264               -0.02218179                0.10620191                0.01526905                0.00566311               -0.02100498
               8.99884143                3.99996661                4.00328803                0.01000001               -0.03643603               -0.02414679                0.11125466                0.01754647                0.00384531               -0.02208811
               9.99849320                4.00001824                4.00348168                0.01000001               -0.03482265               -0.03563525                0.10574951                0.01087544                0.00769024               -0.02511098
               0.00132982                5.00025663                4.00333115                0.01000000               -0.04267958                0.00485313                0.10961273               -0.02437569               -0.01615734                0.04162541
               1.00090303                5.00020266                4.00305566                0.01000000               -0.03416382               -0.00770295                0.10413288               -0.03306532               -0.01326861                0.03156980
               2.00064655                4.99993870                4.00273145                0.01000000               -0.02072596               -0.02059765                0.09392750               -0.02947299               -0.00656090                0.00128883
               3.00048851                4.99970039                4.00251582                0.01000000               -0.01635539               -0.02227868                0.09177835               -0.02027414                0.00300547               -0.00966548
               4.00031944                4.99953672                4.00244034                0.01000000               -0.01800756               -0.02249062                0.09096135               -0.01104203                0.00972175               -0.01711379
               5.00012836                4.99944996                4.00246491                0.01000000               -0.02132236               -0.02200843                0.09321476               -0.00218902                0.01244067               -0.01975845
               5.99989299                4.99943983                4.00257478                0.01000001               -0.02576674               -0.02224903                0.09813684                0.00531689                0.01251800               -0.01907013
               6.99961302                4.99949461                4.00273852                0.01000000               -0.03037994               -0.02478118                0.10394426                0.01215923                0.01140581               -0.01575172
               7.99928539                4.99960403                4.00295084                0.01000001               -0.03415423               -0.02518829                0.11086462                0.01532924                0.00929326               -0.00952893
               8.99892994                4.99970580                4.00315708                0.01000001               -0.03564660               -0.02740770                0.11221459                0.01248775                0.00678767               -0.00386050
               9.99857246                4.99973474                4.00330286                0.01000000               -0.03574768               -0.02549734                0.10566377                0.00742430                0.00668724               -0.00486780
               0.00100203                6.00040247                4.00373936                0.99221465               -0.03009119               -0.00841886                0.10255308               -0.03279056               -0.00362063                0.02417570
               1.00070112                6.00008440                4.00347998                0.01000000               -0.01752975               -0.02086333                0.09668327               -0.03022089               -0.02160482                0.00795243
               2.00065144                5.99969785                4.00287347                0.01000003               -0.00967615               -0.02303882                0.09493437               -0.02791298               -0.02047564               -0.00036119
               3.00050760                5.99945841                4.00258790                0.01000000               -0.01469508               -0.02295237                0.09230893               -0.01384101                0.00112376               -0.01444811
               4.00035753                5.99929914                4.00244011                0.01000000               -0.01673422               -0.02549698                0.09072225               -0.00519624                0.00983115               -0.01991537
               5.00017291                5.99921586                4.00244990                0.01000001               -0.02116454               -0.02442772                0.09364882                0.00083468                0.01585074               -0.02059984
               5.99993424                5.99920008                4.00256988                0.01000000               -0.02632208               -0.02526409                0.09917200                0.00505736                0.01735248               -0.01744416
               6.99964647                5.99923451                4.00276466                0.01000001               -0.03084598               -0.02802235                0.10670701                0.00681351                0.01650132               -0.01038509
               7.99931732                5.99931014                4.00300870                0.01000313               -0.03429957               -0.03203042                0.11434502                0.00782406                0.01524013               -0.00122902
               8.99896048                5.99941845                4.00326473                0.01000000               -0.03667552               -0.03227179                0.11789918                0.00654447                0.01186638                0.00952470
               9.99858381                5.99950829                4.00342969                0.01000000               -0.03766651               -0.02405109                0.11102163                0.00355378                0.00961749                0.01620285
               0.00131015                7.00008825                4.00389816                1.00000000               -0.03069162               -0.03176721                0.10541312               -0.00048222               -0.00411836                0.01413709
               1.00100324                6.99978539                4.00352691                0.99999999               -0.02979351               -0.03013319                0.09893268               -0.00118052               -0.00824632               -0.00590371
               2.00071428                6.99947793                4.00306395                0.01000827               -0.01964201               -0.02501239                0.09207675               -0.00970850               -0.01169939               -0.00806152
               3.00061040                6.99924134                4.00261428                0.01000003               -0.01281118               -0.02728532                0.08487348               -0.00855607               -0.00120511               -0.02100234
               4.00045806                6.99902678                4.00245803                0.01000001               -0.01831423               -0.02767885                0.09320260               -0.00498933                0.01486557               -0.02321302
               5.00024411                6.99896140                4.00248611                0.01000000               -0.02412824               -0.02653130                0.09471385                0.00431249                0.02239112               -0.02068187
               5.99997549                6.99893455                4.00264398                0.01000001               -0.03024445               -0.02726784                0.10246667                0.00273861                0.02510229               -0.01662010
               6.99963922                6.99893417                4.00291784                0.01000001               -0.03587842               -0.03084721                0.11293722               -0.00139712                0.02522925               -0.00760445
               7.99925793                6.99896342                4.00326897                0.01000001               -0.03882718               -0.03763924                0.12405140               -0.00609854                0.02354513                0.00860299
               8.99886268                6.99906036                4.00363594                0.01000000               -0.03970341               -0.04206938                0.13029395               -0.00577485                0.01771058                0.02723922
               9.99846386                6.99925372                4.00387355                0.01000001               -0.03988213               -0.03345566                0.12450158               -0.00429444                0.01365299                0.04672944
               0.00159810                7.99976713                4.00412274                1.00000000               -0.03102678               -0.03246691                0.10780920               -0.00094038               -0.00164967                0.01849495
               1.00128783                7.99948174                4.00367376                0.99999999               -0.02983914               -0.03034750                0.10017767               -0.00143063               -0.00102659                0.00174602
               2.00100132                7.99919760                4.00322947                0.01000000               -0.02501064               -0.02815701                0.09316351               -0.00153890               -0.01139288               -0.01043717
               3.00078762                7.99891270                4.00256364                0.01000000               -0.02318129               -0.03016602                0.12820307               -0.00356969               -0.00244026               -0.01503404
               4.00053769                7.99874556                4.00250230                0.01000002               -0.02181105               -0.02805151                0.08542817                0.00382706                0.02716366               -0.02161074
               5.00035140                7.99868524                4.00259499                0.01000001               -0.02607188               -0.02751776                0.09803227                0.00625394                0.03208861               -0.01842731
               6.00001625                7.99865472                4.00279161                0.01000001               -0.03808704               -0.02790608                0.10686364                0.00137558                0.03351427               -0.01309376
               6.99958966                7.99861756                4.00317023                0.01000001               -0.04735482               -0.03061730                0.12093367               -0.00876967                0.03864246               -0.00419944
               7.99906916                7.99855736                4.00374397                0.01001326               -0.05174843               -0.03825438                0.13844710               -0.02190125                0.03768770                0.01348577
               8.99855469                7.99857707                4.00433735                0.01000000               -0.04789680               -0.05226107                0.14907118               -0.03338969                0.02770282                0.06793367
               9.99811122                7.99883918                4.00478131                0.01000001               -0.04434677               -0.06640181                0.14751158               -0.02830933                0.02250853                0.08950170
               0.00186212                8.99943891                4.00438035                0.99999999               -0.03179706               -0.03286688                0.10970379               -0.00077166                0.00216037                0.01581846
               1.00154415                8.99917844                4.00387206                0.99999995               -0.03047913               -0.03012754                0.10065863               -0.00136583                0.00258608                0.00319006
               2.00125254                8.99891479                4.00336174                1.00000000               -0.02765572               -0.02762493                0.09005322               -0.00224614               -0.00044897               -0.00587174
               3.00099104                8.99863802                4.00278337                0.01000002               -0.02452388               -0.02520027                0.07639652                0.00055775                0.01881217               -0.00699039
               4.00076206                8.99846575                4.00266966                0.01000001               -0.02655044               -0.02535485                0.08953669                0.00771824                0.03589721               -0.01148858
               5.00046003                8.99841105                4.00275525                0.01000001               -0.03456927               -0.02603307                0.09764578                0.00542926                0.03891705               -0.01057963
               6.00007068                8.99837643                4.00301205                0.01000000               -0.04494221               -0.02688325                0.10891154                0.00135994                0.04237200               -0.00601594
               6.99956119                8.99832182                4.00348958                0.01000000               -0.06051418               -0.02856029                0.12556695               -0.00735166                0.05134390                0.00036618
               7.99886040                8.99819833                4.00426767                0.01000001               -0.08240610               -0.03085601                0.14733650               -0.02257384                0.08338220                0.01413807
               8.99791307                8.99801514                4.00575660                0.99999999               -0.07434764               -0.05504382                0.18395341               -0.04311736                0.04915795                0.04879807
               9.99737344                8.99792568                4.00624418                0.99999996               -0.05396221               -0.07080191                0.17361608               -0.04135107               -0.00112198                0.04861378
               0.00210360                9.99910979                4.00456306                1.00000000               -0.03189627               -0.03291198                0.10989081                0.00108718                0.01130261                0.01180784
               1.00178464                9.99887919                4.00404964                1.00000000               -0.03033938               -0.02992555                0.10031811                0.00081371                0.01558794                0.00200137
               2.00149681                9.99864510                4.00360950                1.00000000               -0.02684160               -0.02696878                0.08835969                0.00090237                0.01698739               -0.00093367
               3.00124781                9.99840869                4.00310218                0.01000002               -0.02888908               -0.02293283                0.07549641                0.00534471                0.02880369               -0.00510527
               4.00091903                9.99823846                4.00292074                0.01000001               -0.03492486               -0.02272911                0.08258569                0.00349056                0.03411379               -0.00070911
               5.00054931                9.99816457                4.00298530                0.01000000               -0.03931765               -0.02464724                0.09119717                0.00285723                0.04026334               -0.00186894
               6.00013268                9.99811705                4.00326258                0.01000000               -0.04642958               -0.02593737                0.10182612                0.00028892                0.04626417                0.00066257
               6.99962072                9.99804636                4.00378857                0.01001941               -0.06041607               -0.02754636                0.11936522               -0.00288774                0.06269013                0.00508863
               7.99892436                9.99794024                4.00473380                0.01000002               -0.08278613               -0.02580933                0.14514825               -0.02211224                0.09410940                0.01901599
               8.99796499                9.99747619                4.00622646                0.99998675               -0.07306170               -0.05389518                0.17321043               -0.02066205                0.05144633                0.00110441
               9.99746312                9.99742314                4.00671478                1.00000000               -0.05018715               -0.05025376                0.16289806                0.00366312                0.00120246               -0.00101360
               0.00099366                0.00132755                5.00422773                1.00000000               -0.02410102               -0.02432753                0.07960645                0.00090157               -0.00361413                0.00343047
               1.00075265                0.00113994                5.00408901                0.99999999               -0.02436178               -0.02501446                0.08147171                0.00036626               -0.00399785               -0.00105239
               2.00050642                0.00096392                5.00394411                0.01000000               -0.01438857               -0.02547215                0.08329710                0.00798563               -0.00806270               -0.00180938
               3.00046488                0.00095367                5.00372652                0.01000000               -0.00622502               -0.03600167                0.09747003                0.00286594               -0.00101731               -0.01245613
               4.00038192                0.00084187                5.00379891                0.01000000               -0.00705549               -0.03815308                0.09923521               -0.00708052                0.02940601               -0.00879104
               5.00032377                0.00068219                5.00421775                0.01000000                0.00195792               -0.04023157                0.10659544               -0.02310699                0.04176899               -0.01430992
               6.00042108                0.00037157                5.00464557                0.49110084               -0.00869945               -0.02721323                0.11397460               -0.03082475                0.04246027                0.00018667
               7.00014978                0.00074367                5.00521758                1.00000000               -0.03027862               -0.03387421                0.11567307                0.00229396                0.03282635                0.00127184
               7.99981551                0.00107622                5.00545888                1.00000000               -0.03385687               -0.03420916                0.11574755                0.00093552                0.01344209                0.00028461
               8.99947264                0.00140198                5.00564343                0.99999999               -0.03455762               -0.03413531                0.11587504                0.00100384                0.00826949                0.00070713
               9.99912435                0.00171314                5.00578676                1.00000000               -0.03482846               -0.03445263                0.11700914                0.00132724                0.00605470                0.00492038
               0.00119028                1.00108427                5.00410274                1.00000000               -0.02521604               -0.02479191                0.08282696                0.00057510                0.00103907                0.00373494
               1.00093812                1.00088980                5.00396591                0.01000000               -0.02554344               -0.02553117                0.08492927                0.00026465                0.00268393               -0.00277751
               2.00067941                1.00070920                5.00386221                0.01000000               -0.01917809               -0.02436532                0.08692859                0.00378032                0.00029524               -0.01126556
               3.00055456                1.00059365                5.00367332                0.01000000               -0.01162793               -0.03338513                0.10031923               -0.00402127                0.00550652               -0.00882380
               4.00044686                1.00046034                5.00377063                0.01000000               -0.01133566               -0.03507184                0.09996392               -0.01338939                0.02778444               -0.01283517
               5.00032785                1.00027987                5.00413321                0.01000000               -0.01823811               -0.03351395                0.10505659               -0.02382899                0.03591582               -0.01936023
               6.00008209                1.00009944                5.00457023                0.01000000               -0.02537271               -0.01929826                0.10740893               -0.02050334                0.03444252               -0.01177432
               6.99982039                1.00040492                5.00509731                1.00000000               -0.02931944               -0.03289029                0.10910541               -0.00119660                0.02153657                0.00085323
               7.99949570                1.00073412                5.00527410                0.99999999               -0.03280884               -0.03321110                0.11020591                0.00098038                0.00192470                0.00033948
               8.99916422                1.00106063                5.00541425                0.99999761               -0.03346170               -0.03349418                0.11179400                0.00107743               -0.00037381               -0.00054522
               9.99882647                1.00136861                5.00554689                0.99999997               -0.03377459               -0.03378593                0.11347245                0.00109579               -0.00053505                0.00549628
               0.00139412                2.00083171                5.00398474                0.01000000               -0.02611057               -0.02512203                0.08599781               -0.00501629                0.00147054               -0.00899382
               1.00113301                2.00062932                5.00380877                0.01000000               -0.02579727               -0.02240909                0.08823655               -0.00276595               -0.00060347               -0.00949531
               2.00087817                2.00047662                5.00358859                0.01000001               -0.02498506               -0.02316293                0.10015380               -0.00544350                0.00207544               -0.01252718
               3.00063331                2.00028596                5.00355352                0.01000001               -0.02251303               -0.02735544                0.09613029               -0.01220265                0.01599041               -0.01089765
               4.00042791                2.00014044                5.00365501                0.01000001               -0.02126101               -0.02853043                0.09765966               -0.01545635                0.02042794               -0.01689137
               5.00020809                2.00001191                5.00389892                0.01000000               -0.02709749               -0.02403276                0.10161776               -0.01708867                0.02936916               -0.02514061
               5.99988596                1.99998560                5.00430458                0.01000000               -0.03584664               -0.01458441                0.10414585               -0.00897816                0.04428539               -0.02958404
               6.99949116                2.00008586                5.00497646                0.01000005               -0.03532759               -0.02406096                0.10236838                0.00346538                0.02009462               -0.03081267
               7.99917941                2.00041199                5.00509733                0.01007162               -0.03157289               -0.02936114                0.10429871                0.00909708               -0.01095270               -0.01946027
               8.99885970                2.00073210                5.00516266                1.00000000               -0.03245532               -0.03239332                0.10850747                0.00060310               -0.00843374               -0.00459218
               9.99853030                2.00103742                5.00532230                0.99999997               -0.03293965               -0.03273950                0.11034731                0.00075858               -0.00316669                0.00511996
               0.00149475                3.00058183                5.00360625                0.01000003               -0.02568498               -0.02399994                0.08862261               -0.00690491                0.00345186                0.00346870
               1.00123790                3.00044161                5.00354677                0.01000000               -0.02904258               -0.01773454                0.09579299               -0.01456741                0.01116441                0.00305944
               2.00091390                3.00024594                5.00352262                0.01000001               -0.02956040               -0.02178765                0.09593226               -0.01941169                0.01149979                0.00017557
               3.00064669                3.00004654                5.00346840                0.01000001               -0.02510558               -0.02344195                0.09370571               -0.01714245                0.00977848               -0.01098764
               4.00041178                2.99988973                5.00352197                0.01000000               -0.02528919               -0.02452917                0.09638730               -0.01327099                0.01581088               -0.01752019
               5.00014091                2.99979922                5.00367933                0.01000000               -0.02916023               -0.02207624                0.09936173               -0.00717632                0.02062450               -0.02360319
               5.99982858                2.99980775                5.00394932                0.01000001               -0.03387969               -0.01984228                0.10118956                0.00395292                0.02155249               -0.03046682
               6.99946331                2.99992370                5.00424492                0.01000000               -0.03985857               -0.01949254                0.10525262                0.01678221                0.01492927               -0.04722774
               7.99903141                3.00014690                5.00452910                0.01000000               -0.04562297               -0.02677298                0.11833128                0.02026488                0.01166750               -0.03405855
               8.99855085                3.00041276                5.00485214                0.01000000               -0.04002045               -0.03244834                0.10638480                0.02112729                0.00344140               -0.01412944
               9.99823100                3.00071382                5.00507735                0.12969457               -0.03198531               -0.04594592                0.10693183                0.02423476               -0.00103009               -0.01037519
               0.00153646                4.00035171                5.00389252                0.01000000               -0.03589067               -0.01451334                0.09915721               -0.01379356               -0.00378547                0.04522414
               1.00117755                4.00027463                5.00372842                0.01000000               -0.03257254               -0.01424617                0.09738764               -0.02366808               -0.00310630                0.02665470
               2.00088501                4.00004086                5.00355020                0.01000001               -0.02654407               -0.02161086                0.09358293               -0.02574791                0.00056291                0.00038903
               3.00064667                3.99981713                5.00343778                0.01000000               -0.02375967               -0.02460769                0.09396407               -0.01875336                0.00690037               -0.01019624
               4.00040982                3.99964985                5.00341945                0.01000001               -0.02500619               -0.02517598                0.09520986               -0.01046667                0.01252765               -0.01732915
               5.00014655                3.99957038                5.00351317                0.01000001               -0.02846416               -0.02454383                0.09791245               -0.00025091                0.01715411               -0.02058579
               5.99984053                3.99958876                5.00369739                0.01000007               -0.03294494               -0.02438576                0.10195874                0.00988157                0.01841871               -0.02272094
               6.99948765                3.99969601                5.00392802                0.01000000               -0.03724415               -0.02570645                0.10695049                0.01954504                0.01682200               -0.02211512
               7.99909565                3.99987653                5.00417568                0.01000001               -0.03861624               -0.02975317                0.11025708                0.02853756                0.01243432               -0.01560547
               8.99871533                4.00008313                5.00439816                0.01000001               -0.03413857               -0.03568985                0.11086800                0.02825479                0.00726428               -0.01493455
               9.99841288                4.00011850                5.00454169                0.01000000               -0.03024463               -0.04946092                0.10670994                0.01943674                0.00783822               -0.02383112
               0.00137305                5.00029157                5.00447393                0.01266751               -0.02976662               -0.00010521                0.09000745               -0.02758663               -0.02562922                0.04120330
               1.00107538                5.00015669                5.00408648                0.01000000               -0.02583066               -0.01788582                0.09249212               -0.03480566               -0.02162121                0.02661925
               2.00085644                4.99981373                5.00366535                0.01000000               -0.02063748               -0.02610343                0.09479072               -0.02898327               -0.01073923               -0.00014141
               3.00066263                4.99955439                5.00345004                0.01000000               -0.02036226               -0.02753967                0.09352948               -0.01629224                0.00382568               -0.01212410
               4.00044919                4.99938621                5.00337215                0.01000001               -0.02328266               -0.02794017                0.09458013               -0.00555566                0.01298308               -0.01740082
               5.00019698                4.99930834                5.00342591                0.01000001               -0.02743028               -0.02778093                0.09765057                0.00368663                0.01890377               -0.01815517
               5.99990059                4.99932003                5.00358214                0.01000001               -0.03152719               -0.02878459                0.10225152                0.01182780                0.02182422               -0.01544417
               6.99956644                4.99940958                5.00380907                0.01000492               -0.03427745               -0.03150972                0.10783988                0.01863896                0.02179820               -0.00948020
               7.99921504                4.99955184                5.00405858                0.01000000               -0.03462282               -0.03551146                0.11178741                0.02331991                0.01956929               -0.00194277
               8.99887398                4.99969896                5.00427925                0.01000000               -0.03330215               -0.03914744                0.11271987                0.01925394                0.01365916                0.00438457
               9.99854899                4.99972460                5.00437858                0.01000000               -0.03249866               -0.03546944                0.10878492                0.01081996                0.01065613                0.00134031
               0.00125448                6.00034961                5.00477414                0.99189331               -0.02952013               -0.01281232                0.10318685               -0.02804143               -0.00401118                0.01816757
               1.00095928                5.99991691                5.00443747                0.01000000               -0.01734181               -0.02659363                0.09506406               -0.02661353               -0.01824137                0.00404921
               2.00090765                5.99951880                5.00380918                0.01000000               -0.01054702               -0.03009363                0.09336751               -0.02079183               -0.01907739               -0.00344327
               3.00074834                5.99926633                5.00349432                0.01000001               -0.01814478               -0.03078869                0.09202388               -0.00813510                0.00419911               -0.01595868
               4.00054475                5.99909105                5.00337064                0.01000007               -0.02309399               -0.03051462                0.09435325               -0.00009888                0.01677167               -0.01921346
               5.00028646                5.99901477                5.00341449                0.01000001               -0.02844481               -0.03018725                0.09817197                0.00662489                0.02496910               -0.01679506
               5.99997585                5.99901307                5.00359271                0.01000001               -0.03289179               -0.03144968                0.10400848                0.00954304                0.02947212               -0.01051546
               6.99962863                5.99906581                5.00386360                0.01000000               -0.03515977               -0.03589152                0.11120895                0.01021351                0.03085235               -0.00068391
               7.99927266                5.99916630                5.00417752                0.01000001               -0.03504936               -0.04165117                0.11737294                0.01042860                0.02884306                0.01180857
               8.99892764                5.99930018                5.00445128                0.01000000               -0.03473290               -0.04329305                0.11920169                0.00827746                0.02005459                0.02414136
               9.99857800                5.99940911                5.00456109                0.01000171               -0.03496370               -0.03209020                0.11457558                0.00461272                0.01434296                0.03016329
               0.00167762                7.00003532                5.00495293                1.00000000               -0.03036943               -0.03187537                0.10523396               -0.00008505               -0.00343251                0.01568679
               1.00137393                6.99962482                5.00450899                0.99999996               -0.02932215               -0.02963006                0.09767055               -0.00090183               -0.00756176               -0.00487144
               2.00109118                6.99921185                5.00397730                0.01000002               -0.02231232               -0.02900968                0.09066663               -0.00561413               -0.00653008               -0.01019075
               3.00092768                6.99893861                5.00354497                0.01000462               -0.01961981               -0.03334623                0.09349578                0.00122964                0.00625242               -0.02257962
               4.00069878                6.99877592                5.00339716                0.01000000               -0.02601091               -0.03186042                0.09492238                0.00718161                0.02389542               -0.02133732
               5.00040746                6.99870460                5.00346593                0.01000002               -0.03291914               -0.03028640                0.09941360                0.00904649                0.03483388               -0.01564516
               6.00004040                6.99869104                5.00370199                0.01000000               -0.03949957               -0.03109486                0.10726164                0.00538758                0.04058392               -0.00670569
               6.99961747                6.99869174                5.00407641                0.01000001               -0.04255784               -0.03608068                0.11696724               -0.00312158                0.04303481                0.00588405
               7.99918924                6.99871881                5.00452487                0.01000001               -0.04103736               -0.04600471                0.12610642               -0.01077877                0.04077114                0.02696034
               8.99879672                6.99883310                5.00494137                0.01000001               -0.03829262               -0.05286270                0.13073117               -0.00985980                0.02812769                0.04931418
               9.99842339                6.99908280                5.00513070                0.01000000               -0.03733335               -0.04067631                0.12660351               -0.00657524                0.01907851                0.07124017
               0.00207379                7.99971210                5.00520224                0.99999999               -0.03090769               -0.03259106                0.10777006               -0.00050477               -0.00117338                0.02045034
               1.00176471                7.99932431                5.00467127                1.00000000               -0.02961107               -0.03012052                0.09943723               -0.00096687               -0.00067257                0.00202584
               2.00148157                7.99893860                5.00414785                0.01000000               -0.02779225               -0.02755785                0.09131758                0.00118753               -0.00089137               -0.01237777
               3.00120887                7.99859941                5.00360887                0.01000000               -0.02795827               -0.03242881                0.09852467                0.00837367                0.01005412               -0.02940456
               4.00092240                7.99845384                5.00344349                0.01000001               -0.03282972               -0.02974415                0.09465434                0.01512853                0.03806998               -0.01967992
               5.00055227                7.99840904                5.00357139                0.01000000               -0.04129723               -0.02702418                0.09949491                0.01194446                0.04699681               -0.01164942
               6.00009646                7.99839117                5.00388765                0.01000001               -0.05069262               -0.02753448                0.11026157                0.00260023                0.05295199               -0.00242298
               6.99953842                7.99834420                5.00439537                0.01000001               -0.05903659               -0.03076399                0.12308988               -0.01392846                0.06129045                0.01025651
               7.99891573                7.99824621                5.00513044                0.01000001               -0.05859813               -0.04095680                0.13859814               -0.03420362                0.06037738                0.03348420
               8.99836646                7.99824293                5.00581815                0.01000001               -0.04843099               -0.06119269                0.14794101               -0.04911461                0.04203955                0.10354991
               9.99794711                7.99859559                5.00625595                0.01000000               -0.04193518               -0.07913601                0.14763597               -0.03948942                0.03149105                0.12243267
               0.00244311                8.99938350                5.00547681                0.99999999               -0.03150237               -0.03294791                0.10938178               -0.00035974                0.00250036                0.01740400
               1.00212809                8.99902241                5.00487432                1.00000000               -0.03016415               -0.03015379                0.10015886               -0.00073331                0.00224354                0.00290726
               2.00183983                8.99866070                5.00426239                1.00000000               -0.02740863               -0.02757126                0.09033225               -0.00136236               -0.00219743               -0.00831291
               3.00157991                8.99829004                5.00356753                0.01000000               -0.03240530               -0.02733551                0.07943314                0.01208520                0.02865397               -0.02151032
               4.00119172                8.99818104                5.00357237                0.01000001               -0.04354464               -0.02187661                0.09084202                0.01507077                0.05517852               -0.01171065
               5.00070902                8.99816411                5.00373021                0.01000000               -0.05172411               -0.02175496                0.09846183                0.01037582                0.05564181               -0.00477180
               6.00015724                8.99814035                5.00410814                0.01000000               -0.06125809               -0.02269711                0.11023591                0.00186287                0.06319798                0.00097649
               6.99948386                8.99807647                5.00474669                0.01000001               -0.07753988               -0.02419157                0.12589164               -0.01152202                0.07750444                0.00956553
               7.99860644                8.99789968                5.00573048                0.01000000               -0.10094026               -0.02626834                0.14610521               -0.03459151                0.12142090                0.02728445
               8.99746505                8.99760925                5.00759326                1.00000000               -0.08390781               -0.05849374                0.18327009               -0.06120673                0.07259724                0.07152442
               9.99692829                8.99750008                5.00798097                0.99999999               -0.05367690               -0.07999694                0.17364320               -0.05636923               -0.00096036                0.06696432
               0.00278878                9.99905314                5.00566422                0.99999999               -0.03159310               -0.03303568                0.11012955                0.00137573                0.01224770                0.01301352
               1.00247285                9.99872123                5.00505166                0.99999997               -0.03010451               -0.03011750                0.10058467                0.00117781                0.01572872                0.00145819
               2.00218669                9.99838718                5.00450658                1.00000000               -0.02713093               -0.02735198                0.09068387                0.00125938                0.01571023               -0.00216872
               3.00193023                9.99805270                5.00389518                0.01000000               -0.04184729               -0.02373402                0.08096255                0.01648805                0.03515657               -0.00388988
               4.00134974                9.99801631                5.00375331                0.01000000               -0.05648765               -0.01647297                0.08524985                0.01186415                0.04725567               -0.00244377
               5.00080048                9.99797394                5.00390904                0.01000000               -0.05641908               -0.01901736                0.09395069                0.00519141                0.05541500                0.00187158
               6.00022136                9.99793723                5.00429859                0.01000000               -0.06259125               -0.02031229                0.10513479                0.00073374                0.06624290                0.00497472
               6.99954865                9.99786037                5.00499143                0.01000000               -0.07651256               -0.02160955                0.12121365               -0.00434006                0.09100562                0.00999990
               7.99869111                9.99772084                5.00618351                0.01000002               -0.10033648               -0.01788348                0.14515238               -0.03089897                0.12932397                0.02754137
               8.99754192                9.99707305                5.00795952                0.99999999               -0.08265238               -0.05361963                0.17330097               -0.02857310                0.07066867                0.00126769
               9.99703806                9.99699565                5.00834710                0.99999998               -0.05038591               -0.05044317                0.16363722                0.00323706                0.00108765               -0.00112984
               0.00108583                0.00146982                6.00502488                1.00000000               -0.02420578               -0.02440450                0.07991308                0.00074446               -0.00365827                0.00340307
               1.00084377                0.00123568                6.00490525                0.99999999               -0.02446578               -0.02497940                0.08173466                0.00030207               -0.00409509               -0.00106364
               2.00059652                0.00101175                6.00477902                0.01000000               -0.01612965               -0.02554223                0.08354522                0.00548786               -0.00380710               -0.00171314
               3.00052118                0.00090190                6.00466677                0.01000000               -0.00903016               -0.03482891                0.09370495                0.00013790                0.00667884               -0.00942148
               4.00041591                0.00076309                6.00481579                0.01000000               -0.00844838               -0.03641062                0.10087747               -0.00705894                0.03176429               -0.01080834
               5.00035221                0.00064180                6.00524139                0.01000005                0.00097905               -0.03830529                0.10710633               -0.01611970                0.06513806               -0.01372630
               6.00043549                0.00053479                6.00611652                0.52230107               -0.01420588               -0.04061526                0.12580240               -0.02804735                0.05300892               -0.00067625
               7.00006810                0.00090561                6.00641922                1.00000000               -0.03563103               -0.03487619                0.11797726               -0.00103602                0.01593666               -0.00195524
               7.99972287                0.00128583                6.00660876                1.00000000               -0.03434676               -0.03422625                0.11582314                0.00056719                0.01007641                0.00021654
               8.99938116                0.00166119                6.00680748                0.99999999               -0.03458783               -0.03433046                0.11644990                0.00050794                0.00786318                0.00073920
               9.99903112                0.00202089                6.00695850                0.99999999               -0.03500438               -0.03448834                0.11720108                0.00096659                0.00537722                0.00496401
               0.00132741                1.00122577                6.00493179                1.00000000               -0.02515853               -0.02484546                0.08294322                0.00048335                0.00102774                0.00365166
               1.00107583                1.00098588                6.00481384                0.01000000               -0.02545661               -0.02544582                0.08474036                0.00005483                0.00270833               -0.00276657
               2.00081828                1.00075632                6.00472890                0.01000000               -0.02144715               -0.02557775                0.08654012               -0.00091211                0.00396299               -0.00870883
               3.00064689                1.00055361                6.00463414                0.01000000               -0.01714555               -0.03186126                0.09548356               -0.00744358                0.01097154               -0.01170704
               4.00047537                1.00039899                6.00478738                0.01000000               -0.01708603               -0.03354574                0.10060185               -0.01214445                0.02682005               -0.01490907
               5.00030517                1.00025875                6.00513042                0.01000000               -0.02261272               -0.03264729                0.10435027               -0.02262722                0.05384852               -0.01679612
               6.00002312                1.00012864                6.00597090                0.01000000               -0.03114757               -0.02650467                0.12002825               -0.01827551                0.04309222               -0.02939886
               6.99968221                1.00055685                6.00621779                1.00000000               -0.03361800               -0.03370154                0.11164576                0.00213815                0.00630477               -0.00232221
               7.99935076                1.00094357                6.00637858                0.99999995               -0.03317502               -0.03351541                0.11116294                0.00088488                0.00125607                0.00035953
               8.99901871                1.00131788                6.00653449                0.99999999               -0.03348369               -0.03363940                0.11217329                0.00055891                0.00022669               -0.00019099
               9.99868108                1.00167600                6.00667935                1.00000000               -0.03376306               -0.03388248                0.11316179                0.00092454               -0.00033040                0.00594388
               0.00157527                2.00097291                6.00484527                0.01000000               -0.02609562               -0.03053031                0.08596196               -0.00863292                0.00153571                0.00003705
               1.00131432                2.00072676                6.00468818                0.01000000               -0.02823644               -0.02521251                0.08774418               -0.01126603                0.00199607               -0.00417037
               2.00101054                2.00050019                6.00453914                0.01002572               -0.02923355               -0.02578623                0.09394728               -0.01226471                0.00443799               -0.01202865
               3.00072965                2.00026468                6.00452852                0.01000000               -0.02713305               -0.02769987                0.09659654               -0.01488012                0.01381150               -0.01381338
               4.00046788                2.00009218                6.00464055                0.01000001               -0.02798159               -0.02858379                0.09903297               -0.01443423                0.02287537               -0.01966635
               5.00017001                1.99998886                6.00492934                0.01000000               -0.03479988               -0.02492313                0.10260041               -0.01288546                0.02791695               -0.02374834
               5.99977189                2.00000470                6.00529059                0.01000000               -0.04370440               -0.01518184                0.10370415               -0.00130062                0.04311577               -0.04270967
               6.99929593                2.00023158                6.00601326                0.01000002               -0.03961744               -0.02756863                0.10510350                0.01334850                0.02363035               -0.02820028
               7.99897954                2.00061553                6.00615326                0.01157599               -0.03180094               -0.03277094                0.10626330                0.01243419               -0.00835311               -0.01079636
               8.99865991                2.00098840                6.00624530                1.00000000               -0.03230855               -0.03236177                0.10837584                0.00064549               -0.00671030               -0.00358308
               9.99833337                2.00134324                6.00642055                0.99999997               -0.03265413               -0.03277273                0.10952809                0.00078883               -0.00239373                0.00577623
               0.00164705                3.00061516                6.00468011                0.01000000               -0.03238235               -0.03153468                0.10348658               -0.01041214                0.00060286                0.00669213
               1.00132322                3.00048163                6.00456642                0.01000000               -0.03059875               -0.02474594                0.09959969               -0.01820929                0.00112879                0.00352757
               2.00103507                3.00024060                6.00447574                0.01000000               -0.02829636               -0.02626731                0.09489036               -0.02260154                0.00574072               -0.00408905
               3.00075730                2.99999961                6.00442735                0.01000001               -0.02862845               -0.02731307                0.09602441               -0.01815392                0.01117372               -0.01288145
               4.00046250                2.99982731                6.00449234                0.01000000               -0.03111813               -0.02699989                0.09759817               -0.01020568                0.01730761               -0.01908762
               5.00013493                2.99976029                6.00467274                0.01000000               -0.03540602               -0.02455632                0.10007232                0.00063070                0.02391050               -0.02421320
               5.99975438                2.99982500                6.00498773                0.01008551               -0.03982886               -0.02234371                0.10303148                0.01496949                0.02439499               -0.02486988
               6.99933836                3.00000548                6.00530464                0.01000001               -0.04558807               -0.02539539                0.10693705                0.02964332                0.02366559               -0.03982589
               7.99884262                3.00028815                6.00570798                0.01000000               -0.05172220               -0.03216007                0.11574133                0.03430525                0.00984348               -0.02583608
               8.99830391                3.00067065                6.00590693                0.01000000               -0.04277188               -0.03737972                0.10525154                0.03465932               -0.00339487               -0.00917443
               9.99798718                3.00102055                6.00614001                0.12440231               -0.03167289               -0.05514241                0.10578409                0.03646704               -0.00145302               -0.00739775
               0.00163409                4.00034221                6.00489964                0.01001207               -0.03093965               -0.02080460                0.09602849               -0.01378245               -0.00804074                0.02378153
               1.00132470                4.00023184                6.00470019                0.01000000               -0.02967808               -0.02278174                0.09533707               -0.02057030               -0.00541730                0.01291764
               2.00104053                3.99997484                6.00449688                0.01000001               -0.02724205               -0.02818509                0.09517257               -0.02401470                0.00008720               -0.00024822
               3.00077986                3.99971841                6.00438436                0.01000000               -0.02687182               -0.02991240                0.09511042               -0.01608715                0.00824353               -0.01231217
               4.00050310                3.99955218                6.00438313                0.01000003               -0.02974604               -0.02948963                0.09702133               -0.00399794                0.01587002               -0.01777108
               5.00018494                3.99949773                6.00450429                0.01001042               -0.03385034               -0.02873772                0.09973194                0.00835787                0.02173004               -0.01926380
               5.99982609                3.99955782                6.00472319                0.01000001               -0.03796462               -0.02946865                0.10300056                0.02089350                0.02457523               -0.01958630
               6.99942564                3.99972367                6.00500573                0.01000000               -0.04128084               -0.03180241                0.10776294                0.03243445                0.02246936               -0.01525975
               7.99900047                3.99997232                6.00527649                0.01000000               -0.04024719               -0.03624115                0.11093152                0.04405562                0.01683922               -0.01397442
               8.99862070                4.00024080                6.00550539                0.01000000               -0.03187834               -0.04651367                0.11084490                0.04236333                0.00830420               -0.00701200
               9.99836291                4.00024039                6.00561588                0.01000005               -0.02577941               -0.06391980                0.10785038                0.02994515                0.00676553               -0.01947506
               0.00159214                5.00019907                6.00513130                0.01000004               -0.03129543               -0.00276925                0.09465596               -0.01925487                0.00022450                0.04289922
               1.00127919                5.00002600                6.00490550                0.01000000               -0.02619675               -0.02444800                0.09294178               -0.02728099               -0.00261225                0.02185385
               2.00106821                4.99967690                6.00462727                0.01000000               -0.02104839               -0.03289053                0.09402203               -0.02260624               -0.00296336               -0.00258494
               3.00085822                4.99940137                6.00438641                0.01000078               -0.02324896               -0.03370568                0.09450705               -0.00945594                0.00614345               -0.01357812
               4.00060323                4.99923752                6.00433195                0.01001206               -0.02808862               -0.03311584                0.09665896                0.00269335                0.01836378               -0.01733662
               5.00029645                4.99918553                6.00441792                0.01000007               -0.03284566               -0.03288971                0.09999129                0.01316984                0.02603959               -0.01574302
               5.99994631                4.99923563                6.00461981                0.01000000               -0.03619500               -0.03439556                0.10440874                0.02161902                0.03035295               -0.01024182
               6.99957255                4.99936943                6.00489532                0.01000000               -0.03698556               -0.03850881                0.10922223                0.02903831                0.03100587               -0.00237701
               7.99920660                4.99956333                6.00518659                0.01000000               -0.03447151               -0.04461528                0.11301235                0.03384910                0.02709427                0.00744446
               8.99888312                4.99974037                6.00541148                0.01000000               -0.03098414               -0.05008198                0.11360078                0.02680636                0.01768347                0.01359412
               9.99858692                4.99974215                6.00547856                0.01000000               -0.02961966               -0.04404761                0.11082408                0.01458550                0.01260306                0.00865842
               0.00159515                6.00028683                6.00580310                0.98635626               -0.02938923               -0.01125939                0.10268010               -0.02753228               -0.00379015                0.03668252
               1.00130125                5.99974288                6.00538126                0.01000000               -0.01910533               -0.02859181                0.09425960               -0.02106731               -0.01469376                0.01080327
               2.00121304                5.99931703                6.00474082                0.01000000               -0.01355681               -0.03707298                0.09316243               -0.01095447               -0.01401868               -0.00832503
               3.00103012                5.99904430                6.00442838                0.01000002               -0.02201221               -0.03630842                0.09375905                0.00150967                0.01005713               -0.01730914
               4.00077279                5.99888986                6.00432717                0.01000001               -0.02899486               -0.03551645                0.09636130                0.01037074                0.02448090               -0.01832603
               5.00045022                5.99883994                6.00441334                0.01000000               -0.03491094               -0.03469662                0.10065112                0.01597800                0.03503785               -0.01327496
               6.00007458                5.99886991                6.00465005                0.01000000               -0.03857551               -0.03650682                0.10652901                0.01719722                0.04142057               -0.00371906
               6.99967871                5.99895350                6.00498884                0.01000000               -0.03840336               -0.04246740                0.11301819                0.01572963                0.04335656                0.00953501
               7.99930651                5.99908002                6.00535615                0.01000001               -0.03503523               -0.05068116                0.11817927                0.01437269                0.03956172                0.02464930
               8.99897800                5.99923916                6.00564877                0.01003402               -0.03277251               -0.05302999                0.11991631                0.01078516                0.02636275                0.03864291
               9.99865106                5.99935944                6.00572120                0.01000000               -0.03269464               -0.03792474                0.11650808                0.00601866                0.01749379                0.04361933
               0.00212939                6.99997388                6.00600283                1.00000000               -0.03017531               -0.03172873                0.10483791                0.00009863               -0.00281191                0.01695472
               1.00182763                6.99945416                6.00548032                1.00000000               -0.02908451               -0.02929818                0.09694781               -0.00054675               -0.00674696               -0.00366084
               2.00154770                6.99893544                6.00487728                0.01000002               -0.02560256               -0.03260415                0.08972309                0.00269426               -0.00010572               -0.01264575
               3.00131558                6.99867520                6.00448420                0.01000001               -0.02663468               -0.03711240                0.09356739                0.01273491                0.01608149               -0.02097401
               4.00101500                6.99852719                6.00435648                0.01000000               -0.03398139               -0.03565570                0.09642055                0.01900911                0.03413272               -0.02064386
               5.00063596                6.99849160                6.00447438                0.01000000               -0.04191518               -0.03259853                0.10165132                0.01876259                0.04773696               -0.01122067
               6.00017670                6.99850549                6.00478921                0.01000000               -0.04794608               -0.03348998                0.10940003                0.01026065                0.05621372                0.00121533
               6.99967703                6.99852008                6.00525719                0.01000000               -0.04841564               -0.04005455                0.11851376               -0.00309096                0.05968859                0.01799250
               7.99920839                6.99854971                6.00579110                0.01000000               -0.04288158               -0.05292882                0.12679087               -0.01464477                0.05536691                0.04439965
               8.99881940                6.99867977                6.00625057                0.01000000               -0.03708186               -0.06214963                0.13098104               -0.01370418                0.03667858                0.07033141
               9.99846675                6.99898366                6.00640562                0.01002487               -0.03526520               -0.04609348                0.12782545               -0.00889223                0.02322973                0.09368325
               0.00263656                7.99965225                6.00627814                0.99999999               -0.03077984               -0.03244394                0.10735017               -0.00014752               -0.00101619                0.02164150
               1.00232877                7.99915692                6.00566251                0.99999999               -0.02953380               -0.02989798                0.09899050               -0.00057439               -0.00049313                0.00226821
               2.00204589                7.99866495                6.00505582                0.01000001               -0.03178507               -0.02728207                0.09074018                0.00564141                0.00417610               -0.01367344
               3.00169306                7.99830205                6.00453413                0.01000000               -0.03546575               -0.03768450                0.09182639                0.02251759                0.01905320               -0.03569583
               4.00133657                7.99817675                6.00439538                0.01000000               -0.04229488               -0.03027362                0.09513130                0.02869303                0.04747631               -0.02055571
               5.00084717                7.99818797                6.00458489                0.01000000               -0.05426308               -0.02568224                0.10196249                0.02122555                0.06296790               -0.00792387
               6.00025131                7.99820011                6.00499684                0.01000001               -0.06372446               -0.02602363                0.11156121                0.00529481                0.07174898                0.00491092
               6.99957268                7.99815240                6.00563203                0.01000000               -0.06986957               -0.03015048                0.12390830               -0.01833856                0.08333114                0.02160019
               7.99885392                7.99802144                6.00651594                0.01000000               -0.06513530               -0.04293750                0.13852924               -0.04611865                0.08112680                0.05113463
               8.99826997                7.99799617                6.00729617                0.01000002               -0.04942362               -0.06877557                0.14778167               -0.06443820                0.05528742                0.13783687
               9.99786545                7.99843757                6.00773403                0.01000002               -0.04045239               -0.09049198                0.14814702               -0.05025768                0.03939416                0.15354100
               0.00311711                8.99932501                6.00656799                0.99999999               -0.03136584               -0.03285070                0.10892472               -0.00002431                0.00246069                0.01792798
               1.00280345                8.99885620                6.00587524                1.00000000               -0.03008583               -0.03016167                0.10016308               -0.00035627                0.00183814                0.00255545
               2.00251539                8.99838980                6.00516839                1.00000000               -0.02746559               -0.02758098                0.09102195               -0.00065438               -0.00338298               -0.00971003
               3.00225414                8.99792151                6.00437203                0.01000000               -0.04062209               -0.03132310                0.08135985                0.02715327                0.03749350               -0.02885743
               4.00170295                8.99792172                6.00448650                0.01000000               -0.06085180               -0.01745230                0.09195277                0.02850799                0.07262762               -0.01405379
               5.00103710                8.99797796                6.00472449                0.01000000               -0.06923949               -0.01718095                0.10027943                0.01642343                0.07299501               -0.00283526
               6.00031816                8.99798502                6.00521677                0.01002349               -0.07740834               -0.01822371                0.11143270                0.00314752                0.08397839                0.00556972
               6.99948893                8.99791707                6.00600742                0.01000000               -0.09379559               -0.01977614                0.12631495               -0.01554146                0.10298925                0.01640245
               7.99844225                8.99769096                6.00718977                0.01000001               -0.11872099               -0.02182169                0.14592494               -0.04619917                0.15846573                0.03894960
               8.99711451                8.99730426                6.00942200                0.99999999               -0.09317194               -0.06135750                0.18249150               -0.07861670                0.09574747                0.09389486
               9.99657881                8.99717382                6.00971704                0.99999999               -0.05357060               -0.08846352                0.17359421               -0.07083085               -0.00098991                0.08463947
               0.00357368                9.99899524                6.00676565                1.00000000               -0.03168347               -0.03297667                0.11015820                0.00150225                0.01248452                0.01337550
               1.00325685                9.99855368                6.00606133                1.00000000               -0.03030952               -0.03025176                0.10130649                0.00124466                0.01569590                0.00110611
               2.00296749                9.99811333                6.00542317                0.99999998               -0.02763204               -0.02764648                0.09235774                0.00130562                0.01549910               -0.00286848
               3.00270421                9.99767559                6.00472143                0.01000000               -0.05586055               -0.02459175                0.08361966                0.03072575                0.04203223               -0.00397995
               4.00185028                9.99782770                6.00462573                0.01000005               -0.07959394               -0.00940135                0.08868886                0.02317130                0.06052431               -0.00437104
               5.00111233                9.99784435                6.00486431                0.01000000               -0.07375672               -0.01336085                0.09701414                0.00791973                0.07130710                0.00294821
               6.00037515                9.99783564                6.00536528                0.01000000               -0.07782090               -0.01493813                0.10771588                0.00132560                0.08601809                0.00740993
               6.99955591                9.99775688                6.00621284                0.01000000               -0.09162021               -0.01601881                0.12281852               -0.00583380                0.11768902                0.01337432
               7.99854274                9.99758501                6.00763685                0.01000001               -0.11705675               -0.01059484                0.14572753               -0.03934332                0.16296364                0.03481471
               8.99721478                9.99676902                6.00969248                0.99999649               -0.09165120               -0.05352402                0.17331531               -0.03580940                0.08927071                0.00123848
               9.99670972                9.99666830                6.00998753                1.00000000               -0.05050566               -0.05055214                0.16442472                0.00301854                0.00111331               -0.00110446
               0.00115974                0.00158179                7.00582599                1.00000000               -0.02431381               -0.02448797                0.08031455                0.00066831               -0.00365741                0.00340514
               1.00091660                0.00130149                7.00572371                0.99999999               -0.02454871               -0.02499551                0.08196062                0.00026277               -0.00408214               -0.00106736
               2.00066877                0.00102990                7.00561502                0.01000000               -0.01774617               -0.02550018                0.08362045                0.00341115                0.00025407               -0.00170829
               3.00056168                0.00083049                7.00560062                0.01000005               -0.01130915               -0.03327350                0.09311457               -0.00198619                0.01378144               -0.00941137
               4.00044258                0.00068252                7.00581646                0.01000000               -0.01179394               -0.03451259                0.10065717               -0.00560494                0.04024067               -0.01101366
               5.00032580                0.00062961                7.00635987                0.01000005               -0.00695775               -0.03736125                0.10976404               -0.01211174                0.06621636               -0.01436867
               6.00030343                0.00064929                7.00716162                0.46617297               -0.01747665               -0.03118965                0.11514535               -0.02079611                0.05038768               -0.00162940
               6.99997627                0.00110742                7.00757712                0.99999989               -0.03373306               -0.03429840                0.11674271                0.00083400                0.02094865               -0.00203409
               7.99962877                0.00154090                7.00777534                1.00000000               -0.03480539               -0.03440816                0.11659284                0.00030341                0.00986905               -0.00019944
               8.99928016                0.00196276                7.00797243                0.99999999               -0.03494519               -0.03437699                0.11669099                0.00027410                0.00753482                0.00082092
               9.99892986                0.00237073                7.00813079                1.00000000               -0.03502963               -0.03452823                0.11717074                0.00082429                0.00553486                0.00501221
               0.00144673                1.00133692                7.00576160                1.00000000               -0.02515513               -0.02488316                0.08302423                0.00042566                0.00102285                0.00366416
               1.00119518                1.00105154                7.00566072                0.01000001               -0.02541752               -0.02540815                0.08465341                0.00002217                0.00268314               -0.00279268
               2.00093838                1.00077490                7.00559301                0.01000000               -0.02398347               -0.02703488                0.08629108               -0.00479742                0.00728567               -0.00685404
               3.00071551                1.00049776                7.00558299                0.01000000               -0.02256996               -0.03070028                0.09448087               -0.00955258                0.01560817               -0.01199734
               4.00048698                1.00033740                7.00578266                0.01000000               -0.02471020               -0.03201851                0.10005748               -0.00998784                0.03206722               -0.01516616
               5.00022130                1.00025599                7.00622021                0.01000000               -0.03152071               -0.03174943                0.10691711               -0.01047081                0.05190489               -0.01910200
               5.99985656                1.00033739                7.00697080                0.01000000               -0.03412506               -0.02673551                0.11071692               -0.00653183                0.04062945               -0.02043459
               6.99953880                1.00076443                7.00733022                1.00000000               -0.03262173               -0.03362070                0.11189034               -0.00078729                0.01165855               -0.00216834
               7.99920413                1.00119682                7.00749736                0.99999995               -0.03354079               -0.03371150                0.11208032                0.00030516                0.00146420               -0.00014092
               8.99886799                1.00161899                7.00765772                1.00000000               -0.03369941               -0.03373831                0.11251240                0.00033372                0.00047732                0.00011306
               9.99853014                1.00202544                7.00781012                0.99999999               -0.03378455               -0.03392251                0.11304847                0.00074915                0.00003120                0.00616514
               0.00173901                2.00108413                7.00570398                0.01000001               -0.02599519               -0.03378018                0.08574580               -0.01470793                0.00154163                0.00549645
               1.00147906                2.00079333                7.00556365                0.01000000               -0.03062080               -0.02756920                0.08735855               -0.01626294                0.00384975               -0.00080779
               2.00112660                2.00048921                7.00546753                0.01000332               -0.03354645               -0.02842391                0.09250332               -0.01737160                0.00709561               -0.01079187
               3.00080813                2.00021649                7.00548545                0.01000001               -0.03210022               -0.02823454                0.09560117               -0.01544972                0.01554301               -0.01521686
               4.00048459                2.00004215                7.00563567                0.01000001               -0.03458682               -0.02859951                0.09941557               -0.00981527                0.02434119               -0.02037911
               5.00011639                1.99999462                7.00595093                0.01000000               -0.04101179               -0.02579920                0.10297524               -0.00125813                0.03128960               -0.02540745
               5.99966436                2.00011458                7.00637866                0.01000000               -0.05076495               -0.02298187                0.10684374                0.01341979                0.04495578               -0.03685628
               6.99910110                2.00043500                7.00707853                0.01005963               -0.04420224               -0.03148552                0.10696745                0.02148318                0.02259847               -0.02483557
               7.99878031                2.00086667                7.00722260                0.01288779               -0.03214450               -0.03449331                0.10744188                0.01374285               -0.00737491               -0.00536121
               8.99845821                2.00128799                7.00733018                1.00000000               -0.03241858               -0.03249026                0.10861031                0.00042732               -0.00567814               -0.00292967
               9.99813194                2.00169228                7.00751286                0.99999997               -0.03262660               -0.03274554                0.10915169                0.00070947               -0.00193269                0.00617417
               0.00173418                3.00066131                7.00567599                0.01000001               -0.02693322               -0.03539912                0.09658652               -0.01433995               -0.00380478                0.00953333
               1.00146484                3.00050015                7.00553876                0.01000000               -0.02831951               -0.02997130                0.09546455               -0.02309938                0.00071799                0.00440256
               2.00116779                3.00020642                7.00542042                0.01000001               -0.03056396               -0.03024187                0.09456585               -0.02455472                0.00555682               -0.00527466
               3.00085356                2.99993307                7.00538889                0.01000001               -0.03276214               -0.03023351                0.09620456               -0.01619226                0.01225627               -0.01462991
               4.00051254                2.99976541                7.00547393                0.01000000               -0.03649222               -0.02936668                0.09846531               -0.00351788                0.01942034               -0.01984806
               5.00012372                2.99974001                7.00568078                0.01000003               -0.04139830               -0.02773443                0.10115077                0.01185177                0.02569906               -0.02314192
               5.99968458                2.99987775                7.00600995                0.01000001               -0.04536731               -0.02748103                0.10311778                0.02804741                0.02764116               -0.02383336
               6.99921637                3.00013472                7.00638366                0.01000417               -0.05292920               -0.03174303                0.10773224                0.04559199                0.03043203               -0.03397167
               7.99862599                3.00050695                7.00684393                0.01000000               -0.05827253               -0.03741158                0.11801493                0.04934653                0.00909008               -0.01861395
               8.99805092                3.00096919                7.00695717                0.01000000               -0.04451132               -0.04248286                0.10502854                0.04736986               -0.00782945               -0.00377127
               9.99773577                3.00137053                7.00719303                0.01001772               -0.03151571               -0.06509136                0.10515429                0.04989830               -0.00161313               -0.00362653
               0.00177453                4.00037615                7.00581309                0.01000001               -0.03025708               -0.02076113                0.09647193               -0.01347608               -0.00304885                0.03572636
               1.00147196                4.00019390                7.00563516                0.01000000               -0.02859727               -0.02937243                0.09533153               -0.02147261               -0.00177632                0.01469668
               2.00120259                3.99988437                7.00545365                0.01000001               -0.02733299               -0.03441645                0.09523991               -0.02168063                0.00241868               -0.00370259
               3.00092530                3.99961182                7.00533998                0.01000000               -0.02976471               -0.03471284                0.09597238               -0.01011429                0.01057959               -0.01371065
               4.00060729                3.99945482                7.00535987                0.01012672               -0.03421068               -0.03349872                0.09760468                0.00502644                0.01945531               -0.01789470
               5.00024109                3.99943993                7.00550781                0.01003516               -0.03883489               -0.03277908                0.10019369                0.02081616                0.02588806               -0.01730375
               5.99983059                3.99956495                7.00575741                0.01000003               -0.04286748               -0.03447083                0.10384836                0.03529413                0.02968313               -0.01447256
               6.99938374                3.99980014                7.00608328                0.01000000               -0.04489086               -0.03778989                0.10844512                0.04784401                0.02794170               -0.00912203
               7.99893278                4.00011844                7.00639431                0.01000000               -0.04208597               -0.04429451                0.11176839                0.06264810                0.01954878               -0.01069286
               8.99854202                4.00043834                7.00661506                0.01000000               -0.03027836               -0.05708599                0.11149733                0.05783846                0.00755261                0.00143318
               9.99832721                4.00039045                7.00669870                0.01000000               -0.02148088               -0.07890429                0.10825898                0.04176740                0.00543758               -0.01325120
               0.00182915                5.00024609                7.00636705                0.01214828               -0.03019760               -0.00822118                0.09821369               -0.02094688               -0.01623337                0.04856898
               1.00152717                4.99991270                7.00594532                0.01000000               -0.02564454               -0.03178748                0.09466531               -0.02361335               -0.01289180                0.02072728
               2.00131626                4.99951809                7.00554579                0.01000000               -0.02231729               -0.03910412                0.09416324               -0.01481623               -0.00298176               -0.00550760
               3.00108083                4.99923881                7.00534018                0.01000003               -0.02656487               -0.03947289                0.09540309                0.00075836                0.01194227               -0.01520786
               4.00078496                4.99909543                7.00530533                0.01003677               -0.03254583               -0.03774131                0.09725035                0.01438665                0.02402526               -0.01707688
               5.00042991                4.99908443                7.00542574                0.01000000               -0.03773557               -0.03735649                0.10056681                0.02580771                0.03296233               -0.01305162
               6.00003025                4.99918833                7.00567031                0.01000000               -0.04050680               -0.03978365                0.10540878                0.03463305                0.03817372               -0.00447555
               6.99961977                4.99937892                7.00599352                0.01000000               -0.03947454               -0.04527490                0.10986009                0.04193193                0.03885748                0.00553794
               7.99924076                4.99962106                7.00631882                0.01000000               -0.03420474               -0.05318261                0.11287029                0.04598667                0.03324531                0.01622547
               8.99893568                4.99982747                7.00655126                0.01000001               -0.02869338               -0.06021924                0.11396581                0.03596086                0.02082548                0.02280051
               9.99866689                4.99979245                7.00659506                0.01000000               -0.02687883               -0.05180044                0.11194753                0.01928835                0.01405255                0.01637650
               0.00202236                6.00021173                7.00682774                0.97567150               -0.02946761               -0.01733572                0.10260150               -0.02349409               -0.00370224                0.02591510
               1.00172769                5.99955815                7.00632266                0.01000000               -0.02211052               -0.03211776                0.09448384               -0.01360340               -0.01108606                0.00596034
               2.00158015                5.99910229                7.00567243                0.01000000               -0.01822800               -0.04370794                0.09325574                0.00165666               -0.00779837               -0.01081882
               3.00136313                5.99882236                7.00536950                0.01000001               -0.02653734               -0.04127171                0.09435961                0.01434950                0.01732037               -0.01868087
               4.00104941                5.99869999                7.00529786                0.01000003               -0.03493937               -0.04003008                0.09743154                0.02383652                0.03317078               -0.01775141
               5.00066434                5.99869280                7.00542751                0.01000000               -0.04103231               -0.03878997                0.10188349                0.02844222                0.04518330               -0.01000841
               6.00022876                5.99876928                7.00572329                0.01000000               -0.04373443               -0.04098879                0.10770245                0.02767324                0.05275441                0.00282727
               6.99978965                5.99889464                7.00612397                0.01000000               -0.04123969               -0.04852578                0.11372932                0.02375429                0.05458224                0.01933083
               7.99940397                5.99905478                7.00654110                0.01000000               -0.03499027               -0.05870176                0.11864776                0.02008759                0.04872210                0.03732095
               8.99908985                5.99923395                7.00684960                0.01000001               -0.03104774               -0.06175662                0.12036180                0.01398754                0.03144101                0.05275800
               9.99878301                5.99935444                7.00689125                0.01000417               -0.03068343               -0.04244050                0.11769232                0.00759821                0.01991127                0.05647160
               0.00266641                6.99989937                7.00704969                0.99996988               -0.03018687               -0.03159748                0.10473630                0.00021549               -0.00240278                0.01788237
               1.00236454                6.99927035                7.00644794                1.00000000               -0.02906147               -0.02917015                0.09686320               -0.00029796               -0.00617397               -0.00273175
               2.00208518                6.99864394                7.00577176                0.01000001               -0.02972180               -0.03641316                0.08947659                0.01281699                0.00612559               -0.01548281
               3.00177011                6.99841338                7.00541632                0.01000002               -0.03469661               -0.04123487                0.09331728                0.02690682                0.02652053               -0.02256855
               4.00139125                6.99829483                7.00532557                0.01000000               -0.04203203               -0.03936454                0.09718216                0.03335080                0.04493485               -0.02038276
               5.00092947                6.99830863                7.00549896                0.01000000               -0.05046900               -0.03461714                0.10285071                0.03097812                0.06073327               -0.00794816
               6.00038187                6.99836856                7.00588999                0.01000000               -0.05600547               -0.03537258                0.11044394                0.01776567                0.07110153                0.00805325
               6.99980936                6.99840841                7.00644668                0.01000000               -0.05393356               -0.04343343                0.11915042               -0.00126224                0.07506312                0.02891918
               7.99930320                6.99844702                7.00706069                0.01000000               -0.04467928               -0.05922779                0.12700532               -0.01729583                0.06853058                0.06073267
               8.99891577                6.99859233                7.00756099                0.01000000               -0.03626606               -0.07028622                0.13132888               -0.01695582                0.04419564                0.09059028
               9.99857788                6.99894364                7.00768721                0.01000001               -0.03378936               -0.04997276                0.12894226               -0.01105677                0.02683706                0.11535672
               0.00328473                7.99957978                7.00734924                0.99999999               -0.03075584               -0.03224148                0.10693705                0.00006777               -0.00092817                0.02225907
               1.00297717                7.99897475                7.00665108                1.00000000               -0.02956306               -0.02978273                0.09887083               -0.00029226               -0.00044500                0.00243002
               2.00269347                7.99837402                7.00596266                0.01000001               -0.03634003               -0.02723967                0.09086134                0.01065564                0.00848711               -0.01446296
               3.00225037                7.99799766                7.00544540                0.01000000               -0.04361473               -0.04438945                0.09128837                0.03901222                0.02866246               -0.04207095
               4.00182117                7.99791270                7.00534611                0.01000000               -0.05200954               -0.03126106                0.09535507                0.04516790                0.06029934               -0.02183824
               5.00121018                7.99800046                7.00561064                0.01000000               -0.06684368               -0.02403219                0.10297761                0.03291563                0.07846632               -0.00569244
               6.00048430                7.99806183                7.00611888                0.01000000               -0.07621171               -0.02426284                0.11256518                0.00987622                0.08997106                0.01054195
               6.99968594                7.99802597                7.00687353                0.01000000               -0.08050862               -0.02923520                0.12434941               -0.02151583                0.10410265                0.03136294
               7.99887412                7.99787023                7.00790103                0.01000000               -0.07159131               -0.04446336                0.13851040               -0.05698877                0.10077808                0.06750334
               8.99825412                7.99782823                7.00877378                0.01000005               -0.05074281               -0.07507501                0.14779027               -0.07891384                0.06801333                0.17090938
               9.99785927                7.99835499                7.00921889                0.01000000               -0.03948480               -0.10021344                0.14875593               -0.06029736                0.04722531                0.18344570
               0.00387782                8.99925455                7.00765531                0.99999999               -0.03133687               -0.03272253                0.10861342                0.00013432                0.00238657                0.01806293
               1.00356445                8.99867469                7.00687759                0.99999996               -0.03012187               -0.03017862                0.10036171               -0.00016629                0.00154225                0.00231587
               2.00327538                8.99809914                7.00608283                0.99999999               -0.02763901               -0.02768936                0.09187724               -0.00030015               -0.00409748               -0.01050326
               3.00301167                8.99752559                7.00519472                0.01000000               -0.04917840               -0.03616876                0.08308374                0.04442079                0.04620778               -0.03470137
               4.00229181                8.99766961                7.00541143                0.01000000               -0.07865090               -0.01311404                0.09314784                0.04492898                0.08975726               -0.01607757
               5.00143865                8.99782799                7.00573580                0.01000003               -0.08689684               -0.01235998                0.10177945                0.02452940                0.09001740               -0.00185196
               6.00055388                8.99788330                7.00633679                0.01000001               -0.09340049               -0.01367103                0.11262818                0.00523071                0.10407523                0.00860394
               6.99957064                8.99782370                7.00727299                0.01000000               -0.10963540               -0.01544816                0.12701529               -0.01903136                0.12748952                0.02206067
               7.99836117                8.99755776                7.00864898                0.01000001               -0.13589533               -0.01736228                0.14595637               -0.05681253                0.19426114                0.04983885
               8.99685274                8.99709083                7.01124309                1.00000000               -0.10213767               -0.06356779                0.18172341               -0.09479212                0.11809637                0.11544731
               9.99631842                8.99693937                7.01145286                1.00000000               -0.05343204               -0.09611992                0.17356524               -0.08459795               -0.00098534                0.10157570
               0.00444712                9.99892533                7.00786739                1.00000000               -0.03178700               -0.03292196                0.11015893                0.00151470                0.01251170                0.01342059
               1.00412925                9.99837118                7.00707779                0.99999999               -0.03052736               -0.03035166                0.10188938                0.00122490                0.01570267                0.00090675
               2.00383657                9.99782024                7.00635374                0.99999998               -0.02804655               -0.02789065                0.09356935                0.00127405                0.01558617               -0.00320424
               3.00356831                9.99727429                7.00556757                0.01000000               -0.07096078               -0.02513006                0.08534702                0.04717368                0.04932443               -0.00402783
               4.00241735                9.99765042                7.00552709                0.01000000               -0.10406202               -0.00191883                0.09116601                0.03650228                0.07404522               -0.00592124
               5.00148707                9.99775326                7.00584932                0.01000000               -0.09120793               -0.00747285                0.09954949                0.01174140                0.08683677                0.00353828
               6.00059319                9.99778841                7.00645291                0.01000002               -0.09281065               -0.00948927                0.10987272                0.00211928                0.10504108                0.00894985
               6.99963086                9.99771701                7.00744780                0.01000000               -0.10612250               -0.01066923                0.12443073               -0.00724964                0.14310447                0.01615866
               7.99847074                9.99752298                7.00909806                0.01000000               -0.13270997               -0.00347746                0.14639672               -0.04704952                0.19521943                0.04196551
               8.99697666                9.99655687                7.01142583                1.00000000               -0.10002529               -0.05339609                0.17335045               -0.04212729                0.10714332                0.00124382
               9.99647024                9.99643259                7.01163559                0.99999999               -0.05064235               -0.05067819                0.16519165                0.00275362                0.00110834               -0.00111007
               0.00121726                0.00166670                8.00663117                1.00000000               -0.02441496               -0.02456353                0.08071154                0.00059866               -0.00366552                0.00340699
               1.00097311                0.00134031                8.00654447                0.99974802               -0.02462889               -0.02502253                0.08220467                0.00024182               -0.00408135               -0.00107160
               2.00072468                0.00102159                8.00645143                0.01000000               -0.01888700               -0.02548626                0.08369756                0.00213611                0.00408072               -0.00170110
               3.00059537                0.00074894                8.00652906                0.01000000               -0.01316014               -0.03201055                0.09286895               -0.00315609                0.02196833               -0.00906653
               4.00046148                0.00061041                8.00682894                0.01000000               -0.01319955               -0.03339590                0.10090015               -0.00395758                0.04736194               -0.01116291
               5.00033138                0.00063375                8.00743667                0.01000000               -0.01177388               -0.03480999                0.10845060               -0.00395271                0.07920484               -0.01499437
               6.00022600                0.00088385                8.00841942                0.45846799               -0.02290137               -0.03809416                0.12135268               -0.01378244                0.05648369               -0.00046974
               6.99987335                0.00135872                8.00875407                1.00000000               -0.03505257               -0.03466440                0.11733623               -0.00075525                0.01578218               -0.00278564
               7.99952495                0.00183780                8.00894062                1.00000000               -0.03484696               -0.03443091                0.11667320                0.00017521                0.00896390               -0.00027216
               8.99917641                0.00230702                8.00914130                0.99999999               -0.03499268               -0.03446338                0.11691946                0.00014107                0.00758399                0.00082848
               9.99882509                0.00276245                8.00930192                1.00000000               -0.03513158               -0.03452245                0.11714775                0.00072228                0.00552184                0.00509540
               0.00154964                1.00142107                8.00659227                1.00000000               -0.02515570               -0.02491254                0.08310625                0.00037654                0.00101078                0.00367319
               1.00129808                1.00109008                8.00650691                0.01000091               -0.02539578               -0.02538739                0.08459142                0.00001566                0.00266839               -0.00279678
               2.00104172                1.00076673                8.00645472                0.01000000               -0.02643422               -0.02823241                0.08608256               -0.00776337                0.01043616               -0.00511974
               3.00076940                1.00042884                8.00652375                0.01000000               -0.02811146               -0.02972496                0.09403362               -0.01066397                0.02142265               -0.01185220
               4.00047949                1.00027645                8.00678853                0.01000000               -0.03071346               -0.03085396                0.10025277               -0.00577137                0.03615035               -0.01577949
               5.00015513                1.00028566                8.00726876                0.01000000               -0.03769011               -0.03068055                0.10575369               -0.00260498                0.06185740               -0.01874946
               5.99972569                1.00050291                8.00818524                0.01000000               -0.03831536               -0.03277171                0.11713481                0.00219137                0.04509081               -0.02805057
               6.99938882                1.00101208                8.00845560                1.00000000               -0.03365718               -0.03386439                0.11257187                0.00105948                0.00669528               -0.00309198
               7.99905255                1.00149349                8.00862019                0.99999998               -0.03366627               -0.03380327                0.11247774                0.00028755                0.00125298               -0.00018661
               8.99871550                1.00196239                8.00878473                1.00000000               -0.03378292               -0.03383351                0.11280403                0.00017023                0.00069219                0.00023618
               9.99837689                1.00241723                8.00894032                0.99999999               -0.03386060               -0.03393201                0.11307870                0.00069603                0.00017911                0.00632189
               0.00188676                2.00116845                8.00656019                0.01006353               -0.02589978               -0.03621724                0.08550489               -0.01880133                0.00155132                0.00821767
               1.00162776                2.00083256                8.00643535                0.01000000               -0.03280503               -0.02959543                0.08697698               -0.02082226                0.00558138                0.00116849
               2.00123066                2.00045694                8.00638921                0.01000001               -0.03776971               -0.03088703                0.09192012               -0.02118773                0.01006498               -0.00855986
               3.00087237                2.00015444                8.00644054                0.01000001               -0.03707137               -0.02881760                0.09536343               -0.01420474                0.01789683               -0.01534142
               4.00048923                1.99999333                8.00662886                0.01000001               -0.04097746               -0.02851523                0.09938188               -0.00273867                0.02739626               -0.02102323
               5.00005282                2.00002014                8.00698885                0.01000000               -0.04729127               -0.02725439                0.10368809                0.00964242                0.03309226               -0.02505455
               5.99954341                2.00022842                8.00742746                0.01000000               -0.05744310               -0.02666596                0.10594159                0.02699600                0.04567867               -0.04287671
               6.99890396                2.00068143                8.00815261                0.01003268               -0.04815098               -0.03453942                0.10779409                0.03287622                0.02391356               -0.02296176
               7.99858039                2.00116174                8.00830209                0.01399437               -0.03239374               -0.03746625                0.10821325                0.01736440               -0.00678410                0.00402705
               8.99825608                2.00163035                8.00841751                0.99999999               -0.03255217               -0.03260249                0.10885854                0.00023979               -0.00513868               -0.00253405
               9.99792934                2.00208381                8.00860358                0.99999997               -0.03267385               -0.03275234                0.10912314                0.00066072               -0.00167003                0.00634465
               0.00184540                3.00069672                8.00661184                0.01000001               -0.02522500               -0.04013899                0.09306809               -0.01774459               -0.00224181                0.01630055
               1.00159315                3.00049817                8.00647571                0.01000000               -0.02746553               -0.03566699                0.09322978               -0.02634435                0.00042513                0.00736370
               2.00129609                3.00014899                8.00636705                0.01000001               -0.03221154               -0.03407588                0.09436821               -0.02461310                0.00638937               -0.00593325
               3.00094892                2.99985248                8.00635144                0.01000001               -0.03685333               -0.03307675                0.09626121               -0.01149930                0.01424429               -0.01535534
               4.00055902                2.99970614                8.00646164                0.01000000               -0.04180131               -0.03152231                0.09883039                0.00616132                0.02189628               -0.02039362
               5.00011289                2.99974057                8.00669575                0.01000776               -0.04773482               -0.03067238                0.10154935                0.02578967                0.02817853               -0.02299005
               5.99960432                2.99996959                8.00705009                0.01005026               -0.04999319               -0.03102004                0.10459061                0.04407996                0.02983268               -0.02051144
               6.99911303                3.00032129                8.00745929                0.01000002               -0.05767038               -0.03750301                0.10414876                0.06090995                0.03421734               -0.02897610
               7.99845092                3.00074417                8.00806828                0.01000000               -0.06574043               -0.04390833                0.14234642                0.06341673               -0.00997691               -0.00279395
               8.99779822                3.00131034                8.00800750                0.01000000               -0.04838627               -0.04774919                0.10511417                0.06146438               -0.01645738                0.00210129
               9.99748319                3.00176218                8.00824310                0.01001797               -0.03150272               -0.07552383                0.10507959                0.06393548               -0.00166123                0.00005756
               0.00192897                4.00036567                8.00682907                0.01000000               -0.02803557               -0.02704611                0.09848460               -0.01136789               -0.00567225                0.02561347
               1.00164861                4.00011922                8.00660682                0.01000000               -0.02724399               -0.03725635                0.09601885               -0.01703907               -0.00302552                0.00912292
               2.00138409                3.99977542                8.00640168                0.01000001               -0.02816933               -0.04005089                0.09512581               -0.01543445                0.00364838               -0.00449462
               3.00108522                3.99949291                8.00630381                0.01000000               -0.03298557               -0.03923951                0.09636402               -0.00119671                0.01349395               -0.01515823
               4.00072437                3.99936288                8.00633522                0.01000001               -0.03900285               -0.03740771                0.09816440                0.01764715                0.02284820               -0.01824666
               5.00030517                3.99940670                8.00650816                0.01000000               -0.04400451               -0.03678835                0.10099064                0.03614775                0.03032728               -0.01564722
               5.99984428                3.99960802                8.00680015                0.01002367               -0.04787946               -0.03946788                0.10422272                0.05311800                0.03464153               -0.00989233
               6.99934758                3.99993137                8.00717463                0.01000000               -0.04923079               -0.04408937                0.10979841                0.06318564                0.03099370               -0.00124552
               7.99885967                4.00028357                8.00751185                0.01000000               -0.04401102               -0.05015637                0.10781132                0.08034217                0.02343000               -0.00719023
               8.99846736                4.00067537                8.00773533                0.01000000               -0.02776473               -0.06742513                0.11173310                0.07574670                0.00689305                0.00990015
               9.99830437                4.00057333                8.00778106                0.01001942               -0.01629830               -0.09425222                0.10811285                0.05465567                0.00332894               -0.00625194
               0.00211094                5.00015580                8.00709558                0.01000198               -0.02683304               -0.01215887                0.09012704               -0.01016073                0.00257704                0.04772389
               1.00184261                4.99975305                8.00679880                0.01000000               -0.02486170               -0.03798784                0.09221479               -0.01107971                0.00249351                0.01841150
               2.00161371                4.99934797                8.00651053                0.01000000               -0.02525449               -0.04503673                0.09543226               -0.00296023                0.00559132               -0.00783620
               3.00133752                4.99906769                8.00629447                0.01001052               -0.03077679               -0.04491817                0.09577229                0.01379420                0.01595651               -0.01690816
               4.00099817                4.99895799                8.00627695                0.01000000               -0.03734057               -0.04241427                0.09789260                0.02954640                0.03000991               -0.01666654
               5.00059071                4.99900480                8.00642925                0.01000002               -0.04280834               -0.04200745                0.10143458                0.04227667                0.04030946               -0.00992860
               6.00014201                4.99918023                8.00672799                0.01000000               -0.04447636               -0.04506178                0.10603859                0.05118147                0.04574008                0.00124982
               6.99970119                4.99943950                8.00709252                0.01000000               -0.04141226               -0.05222112                0.10986288                0.05828861                0.04546852                0.01320589
               7.99931376                4.99974104                8.00744400                0.01000000               -0.03388988               -0.05995002                0.11335490                0.06089903                0.03857596                0.02544983
               8.99902339                4.99996184                8.00769080                0.01000001               -0.02666933               -0.06953838                0.11393210                0.04627110                0.02443828                0.03216965
               9.99878038                4.99987714                8.00771751                0.01000303               -0.02430119               -0.05883087                0.11235206                0.02461102                0.01571464                0.02482618
               0.00253126                6.00012249                8.00785513                0.96428860               -0.02964120               -0.01728848                0.10276712               -0.01760925               -0.00370801                0.04038214
               1.00223485                5.99935946                8.00727093                0.01000000               -0.02605126               -0.03409699                0.09508076               -0.00541663               -0.00787781                0.01028292
               2.00201023                5.99887469                8.00660593                0.01000000               -0.02418804               -0.05062089                0.09369309                0.01616030               -0.00168911               -0.01577734
               3.00175109                5.99859454                8.00631557                0.01005492               -0.03160188               -0.04598834                0.09457166                0.02972840                0.02497652               -0.02041990
               4.00137820                5.99851460                8.00627580                0.01002725               -0.04113140               -0.04433534                0.09781587                0.04024442                0.04203406               -0.01716277
               5.00092846                5.99856655                8.00645101                0.01000000               -0.04724915               -0.04276425                0.10263556                0.04438342                0.05511093               -0.00658665
               6.00043321                5.99870678                8.00680410                0.01000000               -0.04879582               -0.04546298                0.10832827                0.04147031                0.06340110                0.00895081
               6.99995254                5.99888695                8.00726343                0.01000000               -0.04389505               -0.05453031                0.11414251                0.03421000                0.06491731                0.02888198
               7.99955531                5.99908457                8.00772911                0.01000000               -0.03479291               -0.06683004                0.11872100                0.02742916                0.05722121                0.04995361
               8.99925668                5.99928460                8.00805600                0.01000001               -0.02946563               -0.06972197                0.12078051                0.01827772                0.03630442                0.06679843
               9.99896600                5.99939672                8.00807505                0.01000001               -0.02906842               -0.04569928                0.11863502                0.00974462                0.02262038                0.06960388
               0.00328482                6.99981003                8.00809756                0.99995185               -0.03027364               -0.03153391                0.10479905                0.00026068               -0.00231378                0.01837665
               1.00298209                6.99907111                8.00741758                1.00000000               -0.02914936               -0.02917935                0.09712816               -0.00014372               -0.00593209               -0.00228254
               2.00270183                6.99833555                8.00666681                0.01000407               -0.03449508               -0.04050336                0.08975519                0.02439497                0.01213169               -0.01835255
               3.00229218                6.99814793                8.00635055                0.01000002               -0.04353876               -0.04561580                0.09351113                0.04337508                0.03721487               -0.02473796
               4.00183106                6.99807128                8.00630012                0.01000000               -0.05029929               -0.04302354                0.09742478                0.05003568                0.05605712               -0.02087931
               5.00128620                6.99814952                8.00653140                0.01000000               -0.05900243               -0.03646348                0.10345976                0.04574799                0.07350694               -0.00534382
               6.00065101                6.99827097                8.00699809                0.01000000               -0.06393012               -0.03713129                0.11106784                0.02770012                0.08532070                0.01408125
               7.00000760                6.99834889                8.00764020                0.01000000               -0.05931588               -0.04667987                0.11944145                0.00267538                0.08947204                0.03906896
               7.99946469                6.99840444                8.00833120                0.01000000               -0.04654008               -0.06506720                0.12717025               -0.01837886                0.08093326                0.07620022
               8.99907679                6.99856740                8.00887715                0.01000001               -0.03568271               -0.07761723                0.13161327               -0.01927987                0.05169718                0.10999104
               9.99875104                6.99896315                8.00898447                0.01000000               -0.03257553               -0.05279399                0.12975060               -0.01273748                0.03080881                0.13603574
               0.00401432                7.99949182                8.00841688                0.99999999               -0.03078691               -0.03209558                0.10668169                0.00017889               -0.00087547                0.02253005
               1.00370645                7.99877588                8.00763993                1.00000000               -0.02965043               -0.02976463                0.09900088               -0.00012528               -0.00041143                0.00250388
               2.00342131                7.99806462                8.00687305                0.01000002               -0.04117983               -0.02734524                0.09133973                0.01604105                0.01262429               -0.01489626
               3.00288286                7.99768223                8.00635990                0.01000000               -0.05219953               -0.05213102                0.09188969                0.05735074                0.03836320               -0.04803817
               4.00237732                7.99765413                8.00630248                0.01000000               -0.06195632               -0.03260475                0.09608829                0.06405037                0.07335463               -0.02335562
               5.00164373                7.99783728                8.00664444                0.01000000               -0.07947428               -0.02236417                0.10373988                0.04679571                0.09403234               -0.00402930
               6.00078784                7.99796415                8.00724814                0.01000000               -0.08855731               -0.02239514                0.11320145                0.01637690                0.10739958                0.01542686
               6.99987258                7.99795335                8.00811902                0.01000000               -0.09093024               -0.02824376                0.12477077               -0.02309928                0.12388320                0.04036663
               7.99896923                7.99778323                8.00928615                0.01000000               -0.07801034               -0.04568684                0.13844694               -0.06642073                0.11958155                0.08305967
               8.99831238                7.99773226                8.01025197                0.01000000               -0.05247419               -0.08031154                0.14800947               -0.09233101                0.08010432                0.20257944
               9.99791975                7.99834084                8.01070915                0.01000001               -0.03926286               -0.10872608                0.14953117               -0.06971568                0.05490145                0.21214821
               0.00472028                8.99916812                8.00874026                0.99999998               -0.03135065               -0.03261633                0.10841654                0.00020934                0.00233823                0.01811100
               1.00440677                8.99847581                8.00788248                0.99999996               -0.03019884               -0.03022297                0.10063995               -0.00006867                0.00137925                0.00218801
               2.00411630                8.99778865                8.00700593                0.99999999               -0.02785397               -0.02786007                0.09273220               -0.00011940               -0.00449109               -0.01092608
               3.00384969                8.99710531                8.00603370                0.01000000               -0.05796432               -0.04164468                0.08464096                0.06325173                0.05482767               -0.03968397
               4.00295702                8.99741919                8.00634946                0.01000000               -0.09688048               -0.00880888                0.09441868                0.06345205                0.10647423               -0.01773291
               5.00191208                8.99770223                8.00676008                0.01000001               -0.10472716               -0.00746044                0.10299841                0.03416999                0.10670842               -0.00113525
               6.00086247                8.99782307                8.00746933                0.01000001               -0.10927729               -0.00908768                0.11372110                0.00857239                0.12347694                0.01134725
               6.99972654                8.99778402                8.00854772                0.01000001               -0.12525502               -0.01114557                0.12778261               -0.02160489                0.15095395                0.02744513
               7.99835737                8.99749070                8.01010890                0.01000001               -0.15269885               -0.01285347                0.14602603               -0.06614883                0.22877230                0.06023629
               8.99667256                8.99696117                8.01305647                1.00000000               -0.11089033               -0.06519169                0.18095521               -0.10971701                0.13966544                0.13619556
               9.99613957                8.99678863                8.01318835                1.00000000               -0.05329953               -0.10301063                0.17353289               -0.09762349               -0.00098705                0.11782218
               0.00540312                9.99883949                8.00896883                1.00000000               -0.03185672               -0.03286293                0.11009837                0.00147645                0.01252540                0.01342582
               1.00508455                9.99817142                8.00809912                0.99999999               -0.03068433               -0.03043973                0.10231732                0.00117426                0.01572805                0.00080325
               2.00478943                9.99750742                8.00729456                1.00000000               -0.02836016               -0.02812255                0.09450739                0.00120869                0.01568739               -0.00337067
               3.00451735                9.99684933                8.00642837                0.01000000               -0.08699971               -0.02559721                0.08672762                0.06529171                0.05659480               -0.00408317
               4.00304944                9.99747795                8.00644905                0.01000000               -0.12970501                0.00587605                0.09301066                0.05117873                0.08768902               -0.00716596
               5.00192325                9.99768807                8.00685530                0.01003264               -0.10859707               -0.00141628                0.10140202                0.01633881                0.10215821                0.00401481
               6.00087750                9.99778240                8.00756273                0.01000001               -0.10751975               -0.00406693                0.11174493                0.00362081                0.12348493                0.01045051
               6.99977285                9.99773044                8.00870145                0.01000000               -0.12041949               -0.00535783                0.12586968               -0.00818093                0.16731324                0.01900830
               7.99846911                9.99752616                8.01056478                0.01000644               -0.14763712                0.00354533                0.14700949               -0.05392760                0.22592320                0.04882073
               8.99682011                9.99642842                8.01315949                0.99999947               -0.10783748               -0.05327436                0.17338299               -0.04752179                0.12438458                0.00124294
               9.99631236                9.99628062                8.01329136                0.99999999               -0.05077533               -0.05080036                0.16596023                0.00249902                0.00110992               -0.00110919
               0.00125984                0.00172773                9.00744023                1.00000000               -0.02451215               -0.02463696                0.08110815                0.00052705               -0.00364876                0.00341322
               1.00101472                0.00135517                9.00736780                0.99997939               -0.02470237               -0.02504576                0.08243425                0.00021630               -0.00406498               -0.00108262
               2.00076579                0.00098930                9.00728897                0.01000001               -0.01955883               -0.02545737                0.08375771                0.00167624                0.00796368               -0.00170614
               3.00062354                0.00065977                9.00745800                0.01000001               -0.01417898               -0.03105355                0.09282205               -0.00380044                0.02995760               -0.00871327
               4.00048221                0.00054007                9.00783446                0.01000000               -0.01520654               -0.03181936                0.10057665               -0.00143414                0.05562836               -0.01133887
               5.00031941                0.00066554                9.00852888                0.01000000               -0.01832550               -0.03367158                0.10877319                0.00264371                0.08705594               -0.01531756
               6.00011570                0.00110827                9.00958867                0.43984052               -0.02743443               -0.03399300                0.11708660               -0.00526040                0.05896572               -0.00182467
               6.99977072                0.00164865                9.00992384                1.00000000               -0.03474439               -0.03446032                0.11692289                0.00010518                0.01552119               -0.00315251
               7.99942081                0.00217631                9.01010880                1.00000000               -0.03500902               -0.03447022                0.11682528                0.00011468                0.00879364               -0.00034380
               8.99907054                0.00269247                9.01031082                0.99999999               -0.03508683               -0.03449589                0.11699446                0.00009280                0.00759208                0.00085730
               9.99871908                0.00319583                9.01047374                1.00000000               -0.03514637               -0.03456157                0.11721692                0.00068474                0.00561030                0.00514469
               0.00163767                1.00148136                9.00742373                1.00000000               -0.02515718               -0.02494063                0.08319268                0.00032886                0.00102264                0.00368198
               1.00138610                1.00110471                9.00735255                0.01000001               -0.02537059               -0.02536387                0.08451586                0.00001559                0.00268615               -0.00280743
               2.00113026                1.00073473                9.00731466                0.01000000               -0.02879735               -0.02918122                0.08584259               -0.00992827                0.01375065               -0.00339049
               3.00081015                1.00034923                9.00746366                0.01000000               -0.03326365               -0.02888950                0.09386278               -0.01049861                0.02725774               -0.01163968
               4.00046498                1.00022188                9.00778772                0.01000440               -0.03742000               -0.02957470                0.09991289               -0.00092040                0.04169965               -0.01582814
               5.00006175                1.00032883                9.00833528                0.01000000               -0.04467203               -0.02995059                0.10626421                0.01033461                0.06707140               -0.01963092
               5.99957154                1.00076834                9.00931349                0.01000000               -0.04119974               -0.03580402                0.11307896                0.01368431                0.04699229               -0.02729986
               6.99923775                1.00130405                9.00958166                1.00000000               -0.03357454               -0.03382883                0.11265383               -0.00013603                0.00641350               -0.00330315
               7.99890005                1.00183160                9.00974692                0.99999998               -0.03380249               -0.03385944                0.11276214                0.00011924                0.00125917               -0.00026954
               8.99856170                1.00234751                9.00991380                0.99999996               -0.03387459               -0.03389601                0.11300187                0.00010113                0.00079760                0.00035166
               9.99822256                1.00285022                9.01007170                1.00000000               -0.03391449               -0.03397240                0.11323045                0.00063672                0.00028813                0.00638725
               0.00201971                2.00122892                9.00741408                0.01000000               -0.02580444               -0.03814633                0.08527855               -0.02190623                0.00154601                0.01068712
               1.00176166                2.00084789                9.00730319                0.01000000               -0.03485003               -0.03143802                0.08659332               -0.02456045                0.00732221                0.00303473
               2.00132271                2.00040567                9.00730593                0.01000001               -0.04176254               -0.03297189                0.09148101               -0.02381622                0.01324785               -0.00631738
               3.00092641                2.00008198                9.00739272                0.01000000               -0.04192496               -0.02932696                0.09507998               -0.01116911                0.02091247               -0.01516451
               4.00048421                1.99994858                9.00762331                0.01000001               -0.04733857               -0.02853488                0.09937153                0.00628606                0.03083184               -0.02113683
               4.99997964                2.00006653                9.00802469                0.01000000               -0.05350223               -0.02839641                0.10359509                0.02403533                0.03619870               -0.02557697
               5.99941416                2.00039219                9.00849749                0.01000001               -0.06374535               -0.03367542                0.10700356                0.04258513                0.04757441               -0.04284413
               6.99870473                2.00097208                9.00923441                0.01000000               -0.05172143               -0.03854345                0.10837223                0.03758517                0.02447065               -0.02465931
               7.99837974                2.00149912                9.00938686                0.02518600               -0.03253935               -0.02951468                0.10865954                0.00103333               -0.00647368                0.03296050
               8.99805395                2.00201455                9.00950735                0.99999999               -0.03266704               -0.03270634                0.10910838                0.00012612               -0.00482601               -0.00227602
               9.99772639                2.00251639                9.00969533                0.99999999               -0.03275530               -0.03280059                0.10930595                0.00062273               -0.00153758                0.00639649
               0.00196159                3.00071843                9.00753735                0.01000000               -0.02434596               -0.04121187                0.09229664               -0.01995408               -0.00165450                0.02030105
               1.00171813                3.00047595                9.00740336                0.01000000               -0.02708706               -0.03973127                0.09250783               -0.02829841                0.00108576                0.00949039
               2.00141985                3.00007529                9.00730779                0.01000000               -0.03371342               -0.03773389                0.09383497               -0.02287004                0.00799002               -0.00571959
               3.00104386                2.99976269                9.00731411                0.01000003               -0.04068488               -0.03581794                0.09617480               -0.00444382                0.01676533               -0.01569807
               4.00060615                2.99965118                9.00745054                0.01000001               -0.04725079               -0.03370009                0.09892668                0.01869506                0.02479084               -0.02039713
               5.00009885                2.99976090                9.00771176                0.01000002               -0.05442260               -0.03365220                0.10199827                0.04233519                0.03146744               -0.02201127
               5.99951770                3.00009483                9.00810177                0.01000000               -0.06081587               -0.03514890                0.10471243                0.06075351                0.02931728               -0.01886409
               6.99888253                3.00053318                9.00846663                0.01000002               -0.08197277               -0.04150378                0.10877229                0.08668284                0.05888227               -0.02326348
               7.99787824                3.00124131                9.00969085                0.01000001               -0.06677856               -0.04501017                0.11555859                0.08105718               -0.00765443               -0.00177854
               8.99754696                3.00169338                9.00905945                0.01000000               -0.03234520               -0.05307538                0.10532262                0.06548128               -0.04491274                0.00745019
               9.99723134                3.00219421                9.00929462                0.07900228               -0.03156175               -0.08626952                0.10533371                0.07887968               -0.00166404                0.00345314
               0.00210559                4.00040468                9.00778278                0.01000003               -0.02667444               -0.02719611                0.09606673               -0.00950906               -0.00391015                0.03357136
               1.00183884                4.00005327                9.00755554                0.01000771               -0.02635095               -0.04295650                0.09507878               -0.01548651               -0.00141206                0.01123801
               2.00157857                3.99965100                9.00735617                0.01000001               -0.02886006               -0.04590836                0.09530449               -0.00875419                0.00599714               -0.00596610
               3.00126164                3.99936562                9.00726726                0.01000001               -0.03593321               -0.04369017                0.09639845                0.01066280                0.01689288               -0.01613140
               4.00085990                3.99927458                9.00732316                0.01000001               -0.04394726               -0.04148313                0.09892353                0.03360462                0.02737537               -0.01809295
               5.00038270                3.99939349                9.00752763                0.01000762               -0.05014761               -0.04089439                0.10200770                0.05504270                0.03471004               -0.01352315
               5.99985695                3.99968921                9.00784186                0.01000000               -0.05453926               -0.04427217                0.10505405                0.07563013                0.04013034               -0.00600072
               6.99929191                4.00014200                9.00827925                0.01000000               -0.05081387               -0.04894676                0.10861115                0.09201537                0.03204338                0.00779810
               7.99884068                4.00059891                9.00855053                0.01000001               -0.04406176               -0.06642549                0.11099384                0.11733982                0.02507229               -0.02303678
               8.99841068                4.00095304                9.00884972                0.01000000               -0.02691662               -0.07715977                0.11031588                0.08980263                0.01096123                0.01908751
               9.99830234                4.00079100                9.00886096                0.01000001               -0.01083342               -0.10996128                0.10811271                0.06861588                0.00183945                0.00054755
               0.00247423                5.00017451                9.00816959                0.01000002               -0.03121473               -0.01936490                0.10483776               -0.00521849               -0.00218307                0.05491833
               1.00216208                4.99961682                9.00778961                0.01000000               -0.02709080               -0.04541191                0.09866480               -0.00184533               -0.00047516                0.01834094
               2.00193242                4.99915712                9.00745444                0.01000000               -0.02642737               -0.05102669                0.09479529                0.00976167                0.00790274               -0.01029967
               3.00163354                4.99888889                9.00725563                0.01000002               -0.03410198               -0.05038647                0.09616864                0.02977720                0.02174367               -0.01864763
               4.00125038                4.99882152                9.00726318                0.01000913               -0.04242351               -0.04705040                0.09879787                0.04744326                0.03665991               -0.01679130
               5.00078507                4.99894301                9.00745443                0.01000001               -0.04842942               -0.04672819                0.10259345                0.06217173                0.04746403               -0.00766605
               6.00028179                4.99920939                9.00779108                0.01000000               -0.04859672               -0.05055099                0.10647136                0.07193221                0.05264603                0.00653668
               6.99981313                4.99955424                9.00819078                0.01000000               -0.04338949               -0.06086981                0.11046294                0.07872446                0.05240267                0.01972394
               7.99941400                4.99991280                9.00858592                0.01000000               -0.03311023               -0.07161330                0.11318654                0.07555423                0.04389202                0.03771459
               8.99915093                5.00015019                9.00882991                0.01000001               -0.02431245               -0.07847347                0.11408865                0.05707507                0.02700467                0.04154558
               9.99892775                4.99999498                9.00884210                0.01002395               -0.02231789               -0.06557149                0.11243317                0.02922887                0.01763425                0.03370885
               0.00311659                6.00001738                9.00888308                0.95202732               -0.02972657               -0.02346784                0.10282958               -0.01194221               -0.00372641                0.03748879
               1.00281933                5.99914503                9.00822428                0.01000000               -0.03074287               -0.03805592                0.09559537                0.00638244               -0.00477763                0.00778308
               2.00250174                5.99863046                9.00754629                0.01000001               -0.03132710               -0.05736757                0.09431396                0.03376487                0.00410068               -0.01944579
               3.00219279                5.99835789                9.00726093                0.01000000               -0.03735443               -0.05073018                0.09497039                0.04753308                0.03235775               -0.02261604
               4.00175465                5.99833357                9.00725418                0.01000000               -0.04772618               -0.04854774                0.09838651                0.05910984                0.05109946               -0.01734745
               5.00123826                5.99845892                9.00748023                0.01000000               -0.05351436               -0.04673459                0.10321813                0.06305956                0.06512961               -0.00422789
               6.00068436                5.99867819                9.00788986                0.01000000               -0.05376380               -0.05016226                0.10878977                0.05816911                0.07374130                0.01454822
               7.00016299                5.99892460                9.00840682                0.01000000               -0.04642732               -0.06100239                0.11438694                0.04705057                0.07464175                0.03792445
               7.99975582                5.99916665                9.00891553                0.01000000               -0.03464951               -0.07494042                0.11894905                0.03649430                0.06518491                0.06131600
               8.99947000                5.99938357                9.00926521                0.01000000               -0.02792406               -0.07770009                0.12097810                0.02292225                0.04102761                0.08031351
               9.99919733                5.99947957                9.00926395                0.01000003               -0.02726631               -0.04823634                0.11907472                0.01218263                0.02508773                0.08217776
               0.00398009                6.99970516                9.00914567                1.00000000               -0.03034378               -0.03148518                0.10482045                0.00028163               -0.00235638                0.01868994
               1.00367665                6.99885571                9.00839051                0.99999997               -0.02926177               -0.02925483                0.09748855               -0.00009718               -0.00585234               -0.00203338
               2.00339486                6.99800977                9.00756686                0.01000000               -0.03977805               -0.04467444                0.09036057                0.03714093                0.01772342               -0.02128536
               3.00288109                6.99787429                9.00728654                0.01000002               -0.05316578               -0.05020735                0.09382070                0.06181010                0.04782301               -0.02700810
               4.00233154                6.99785056                9.00727406                0.01000000               -0.05897277               -0.04686571                0.09794835                0.06915524                0.06741379               -0.02149548
               5.00170164                6.99800832                9.00756816                0.01000000               -0.06760257               -0.03838647                0.10403078                0.06312409                0.08639695               -0.00313483
               6.00097949                6.99820614                9.00811135                0.01000000               -0.07179751               -0.03895329                0.11150450                0.03996149                0.09906637                0.01955975
               7.00026569                6.99833420                9.00883551                0.01000000               -0.06472866               -0.04994125                0.11971471                0.00852323                0.10326124                0.04858069
               7.99968491                6.99841399                9.00960410                0.01001477               -0.04846160               -0.07064616                0.12720105               -0.01805120                0.09268898                0.09101123
               8.99929645                6.99859619                9.01019325                0.01000001               -0.03527506               -0.08415417                0.13169075               -0.02102662                0.05848155                0.12869608
               9.99897941                6.99903025                9.01028223                0.01000000               -0.03170406               -0.05427480                0.13014982               -0.01431243                0.03436715                0.15616390
               0.00482113                7.99938768                9.00948288                0.99999999               -0.03083550               -0.03201714                0.10654764                0.00022840               -0.00085186                0.02265806
               1.00451277                7.99855993                9.00863110                1.00000000               -0.02975756               -0.02982225                0.09927841               -0.00004984               -0.00039541                0.00254621
               2.00422598                7.99773697                9.00778945                0.01000000               -0.04622895               -0.02753313                0.09200756                0.02166434                0.01670980               -0.01512210
               3.00358819                7.99735374                9.00728319                0.01000000               -0.06111278               -0.06054256                0.09285290                0.07714440                0.04773174               -0.05322155
               4.00300372                7.99739626                9.00726788                0.01000001               -0.07215130               -0.03410904                0.09672026                0.08504182                0.08622467               -0.02471510
               5.00214517                7.99769119                9.00768544                0.01000000               -0.09230041               -0.02069479                0.10442878                0.06270897                0.10920843               -0.00251854
               6.00115771                7.99789913                9.00838291                0.01000000               -0.10097829               -0.02052439                0.11380145                0.02454340                0.12428906                0.01988582
               7.00012560                7.99792578                9.00936895                0.01002879               -0.10124557               -0.02720141                0.12496866               -0.02304648                0.14269609                0.04884730
               7.99913280                7.99775373                9.01066996                0.01000000               -0.08461996               -0.04650748                0.13831478               -0.07411691                0.13758562                0.09777330
               8.99843320                7.99770049                9.01173397                0.01007798               -0.05449256               -0.08444797                0.14753907               -0.10447540                0.09213463                0.23274741
               9.99804295                7.99839407                9.01220951                0.01000001               -0.03902524               -0.11583275                0.14900138               -0.07786602                0.06262055                0.23913590
               0.00564015                8.99906481                9.00982364                0.99999999               -0.03137869               -0.03254929                0.10827985                0.00024090                0.00231810                0.01815261
               1.00532636                8.99825926                9.00889038                0.99999996               -0.03029069               -0.03029882                0.10095567               -0.00002014                0.00130384                0.00212902
               2.00503433                8.99745911                9.00793747                0.99999999               -0.02808313               -0.02807040                0.09356515               -0.00003714               -0.00468969               -0.01113928
               3.00476470                8.99666343                9.00688754                0.01000000               -0.06697046               -0.04752303                0.08607246                0.08334004                0.06326404               -0.04421261
               4.00369493                8.99716838                9.00729980                0.01000000               -0.11558764               -0.00441712                0.09561676                0.08357368                0.12264401               -0.01923893
               5.00245295                8.99759442                9.00779577                0.01000001               -0.12295775               -0.00240432                0.10405336                0.04493310                0.12288100               -0.00044003
               6.00123577                8.99779565                9.00861121                0.01000000               -0.12513946               -0.00442517                0.11462678                0.01273858                0.14206506                0.01393834
               6.99995016                8.99779017                9.00982864                0.01000001               -0.14039520               -0.00680323                0.12818210               -0.02311696                0.17326408                0.03239049
               7.99842787                8.99748384                9.01156950                0.01000001               -0.16917779               -0.00830489                0.14603722               -0.07422844                0.26177119                0.07014999
               8.99656660                8.99690723                9.01486219                1.00000000               -0.11964675               -0.06623949                0.18018978               -0.12328333                0.16044731                0.15596684
               9.99603493                8.99671360                9.01492351                0.99990611               -0.05316698               -0.10948468                0.17349964               -0.11007546               -0.00098702                0.13314842
               0.00643705                9.99873669                9.01006935                1.00000000               -0.03189738               -0.03281195                0.10998849                0.00141670                0.01254883                0.01344822
               1.00611808                9.99795396                9.00912413                1.00000000               -0.03079953               -0.03053026                0.10266185                0.00111517                0.01576267                0.00075903
               2.00582106                9.99717557                9.00824389                1.00000000               -0.02861798               -0.02835403                0.09532511                0.00113873                0.01575683               -0.00345185
               3.00554572                9.99640328                9.00730213                0.01133482               -0.10384268               -0.02601529                0.08799254                0.08471919                0.06371313               -0.00410723
               4.00374421                9.99730791                9.00738730                0.01000000               -0.15645792                0.01395292                0.09447620                0.06691939                0.10122598               -0.00819200
               5.00241656                9.99764311                9.00787736                0.01000001               -0.12637342                0.00486840                0.10286805                0.02149674                0.11707115                0.00450182
               6.00121674                9.99781062                9.00868781                0.01000003               -0.12207423                0.00149674                0.11308771                0.00542718                0.14100718                0.01194974
               6.99997507                9.99778971                9.00996519                0.01000000               -0.13427821               -0.00004546                0.12684470               -0.00865797                0.19049768                0.02155563
               7.99853117                9.99758763                9.01203825                0.01000000               -0.16186475                0.01037844                0.14760140               -0.06036997                0.25554035                0.05549320
               8.99673778                9.99637570                9.01489349                0.99990292               -0.11512385               -0.05315280                0.17341556               -0.05204468                0.14093977                0.00124406
               9.99622870                9.99620438                9.01495480                1.00000000               -0.05090824               -0.05092229                0.16672731                0.00224430                0.00110926               -0.00111069
               0.00128913                0.00176796               10.00825333                1.00000000               -0.02460666               -0.02471092                0.08150772                0.00045217               -0.00365665                0.00341329
               1.00104307                0.00134916               10.00819315                0.99999933               -0.02476905               -0.02506227                0.08264724                0.00018618               -0.00407163               -0.00107986
               2.00079375                0.00093608               10.00812658                0.01000000               -0.01970191               -0.02541260                0.08378881                0.00189677                0.01183891               -0.00170760
               3.00064903                0.00056336               10.00838550                0.01000001               -0.01452942               -0.03020337                0.09268570               -0.00370110                0.03813307               -0.00833510
               4.00050316                0.00047712               10.00884047                0.01000000               -0.01653724               -0.03060770                0.10042240                0.00143259                0.06363311               -0.01138097
               5.00031828                0.00071460               10.00961213                0.01000001               -0.02464044               -0.03173738                0.10800685                0.01128002                0.09606874               -0.01580310
               6.00001035                0.00139772               10.01076116                0.42469982               -0.03273189               -0.03496236                0.11691373                0.00415234                0.06322537               -0.00094901
               6.99966364                0.00198004               10.01109253                1.00000000               -0.03482515               -0.03445856                0.11676467               -0.00014840                0.01496621               -0.00332307
               7.99931385                0.00255470               10.01127712                1.00000000               -0.03501649               -0.03446602                0.11679964                0.00008308                0.00861375               -0.00038984
               8.99896332                0.00311821               10.01148119                1.00000000               -0.03512002               -0.03453172                0.11705430                0.00007147                0.00761849                0.00087499
               9.99861145                0.00366943               10.01164625                1.00000000               -0.03518645               -0.03460430                0.11731088                0.00066213                0.00563674                0.00517595
               0.00171245                1.00152085               10.00825612                1.00000000               -0.02515839               -0.02496944                0.08328449                0.00028449                0.00101875                0.00368113
               1.00146087                1.00109854               10.00819723                0.01000000               -0.02534162               -0.02533604                0.08442620                0.00001911                0.00267967               -0.00280394
               2.00120562                1.00068195               10.00817157                0.01000000               -0.03096863               -0.02993037                0.08556503               -0.01124396                0.01715272               -0.00155808
               3.00084150                1.00026132               10.00840101                0.01000000               -0.03818779               -0.02813267                0.09361625               -0.00933492                0.03350011               -0.01132253
               4.00044187                1.00017104               10.00878679                0.01000528               -0.04353579               -0.02846707                0.09972046                0.00533207                0.04716950               -0.01600580
               4.99997078                1.00039723               10.00939404                0.01000000               -0.05113523               -0.02912395                0.10563174                0.02306912                0.07362838               -0.01980374
               5.99941916                1.00104809               10.01044681                0.01000000               -0.04435558               -0.04072288                0.11305025                0.02565220                0.05027175               -0.02934842
               6.99908367                1.00163545               10.01070867                1.00000000               -0.03367821               -0.03383817                0.11269810                0.00011480                0.00589548               -0.00352590
               7.99874560                1.00221004               10.01087543                0.99999998               -0.03385021               -0.03388465                0.11289533                0.00007786                0.00124223               -0.00030644
               8.99840667                1.00277289               10.01104477                0.99999996               -0.03393736               -0.03395134                0.11317822                0.00005647                0.00086224                0.00041008
               9.99806685                1.00332339               10.01120492                0.99999997               -0.03398160               -0.03403070                0.11344234                0.00060894                0.00033819                0.00643027
               0.00213945                2.00126857               10.00826576                0.01000000               -0.02570990               -0.03934064                0.08506046               -0.02422166                0.00154741                0.01315804
               1.00188235                2.00084244               10.00816722                0.01000000               -0.03666804               -0.03314535                0.08620717               -0.02737754                0.00914949                0.00499731
               2.00140609                2.00033747               10.00821883                0.01000001               -0.04545540               -0.03487944                0.09111051               -0.02511116                0.01677015               -0.00398246
               3.00097324                2.00000070               10.00834214                0.01000000               -0.04660949               -0.02986726                0.09479423               -0.00648601                0.02434124               -0.01482185
               4.00047390                1.99990777               10.00861630                0.01000001               -0.05353163               -0.02863455                0.09917573                0.01733692                0.03478081               -0.02120703
               4.99990261                2.00013213               10.00906075                0.01000001               -0.05943603               -0.02999114                0.10350531                0.03978569                0.03984691               -0.02547798
               5.99928518                2.00058326               10.00956753                0.01000001               -0.06993068               -0.04000776                0.10677191                0.05938924                0.05016533               -0.04432353
               6.99850400                2.00130327               10.01032006                0.01000000               -0.05536036               -0.04121368                0.10865584                0.04558302                0.02518555               -0.01861577
               7.99817797                2.00187701               10.01047529                0.02781680               -0.03264482               -0.03325554                0.10896748                0.00476603               -0.00629888                0.01494148
               8.99785110                2.00243918               10.01059967                0.99999999               -0.03276666               -0.03279583                0.10936139                0.00006670               -0.00465435               -0.00212717
               9.99752264                2.00298881               10.01078970                0.99999999               -0.03284622               -0.03288870                0.10960935                0.00059908               -0.00146672                0.00641764
               0.00208028                3.00073404               10.00845777                0.01000001               -0.02358618               -0.04318609                0.09187668               -0.02155114               -0.00104359                0.02520697
               1.00184442                3.00043563               10.00832587                0.01000000               -0.02675744               -0.04423588                0.09206898               -0.02925222                0.00216716                0.01215445
               2.00154514                2.99998436               10.00824375                0.01000000               -0.03514748               -0.04140085                0.09344534               -0.01927184                0.01021448               -0.00542450
               3.00114147                2.99966398               10.00827493                0.01000000               -0.04439764               -0.03859702                0.09596111                0.00484136                0.01984363               -0.01580237
               4.00065718                2.99959835               10.00844018                0.01000001               -0.05252321               -0.03596986                0.09896457                0.03355261                0.02844832               -0.02024859
               5.00009101                2.99979741               10.00873572                0.01000002               -0.06106926               -0.03692786                0.10220769                0.06138263                0.03485100               -0.02119403
               5.99943580                3.00024794               10.00914434                0.01000000               -0.06947126               -0.03922885                0.10528745                0.08119301                0.03748205               -0.01654481
               6.99870158                3.00081118               10.00963473                0.01000000               -0.08653932               -0.04700399                0.10967413                0.10363831                0.04752456               -0.02033752
               7.99770501                3.00154493               10.01037945                0.01000000               -0.07026955               -0.04746202                0.09162931                0.09592328               -0.00049175               -0.00011387
               8.99729619                3.00211697               10.01011395                0.01000000               -0.03627248               -0.05762577                0.10560960                0.08228693               -0.02661631                0.01141021
               9.99697956                3.00266561               10.01034977                0.12527304               -0.03166311               -0.09760040                0.10574760                0.09466649               -0.00166261                0.00674096
               0.00230524                4.00040485               10.00875041                0.01000003               -0.02582581               -0.02900880                0.09675561               -0.00736487               -0.00334925                0.03673206
               1.00204698                3.99995772               10.00850840                0.01000847               -0.02564681               -0.04922517                0.09522115               -0.00957766               -0.00021746                0.01203323
               2.00179231                3.99950945               10.00830777                0.01000001               -0.02954495               -0.05162542                0.09509891                0.00158288                0.00859923               -0.00682060
               3.00145608                3.99922876               10.00823178                0.01000001               -0.03903918               -0.04814527                0.09646079                0.02505501                0.02074084               -0.01698312
               4.00101152                3.99918838               10.00831369                0.01000000               -0.04877070               -0.04536010                0.09902056                0.05200947                0.03198555               -0.01786607
               5.00048067                3.99939357               10.00854831                0.01000000               -0.05581270               -0.04492643                0.10214401                0.07656950                0.04017270               -0.01196234
               5.99989527                3.99979868               10.00890124                0.01000001               -0.06004489               -0.04924857                0.10558460                0.09962043                0.04510085               -0.00234258
               6.99927977                4.00036319               10.00934686                0.01000001               -0.05523133               -0.05523828                0.10745218                0.11909501                0.04133710                0.00721960
               7.99879064                4.00092777               10.00973173                0.01000001               -0.04518082               -0.07072950                0.11137334                0.13854653                0.02734060               -0.00158671
               8.99837616                4.00128666               10.00994165                0.01000000               -0.02359757               -0.08698583                0.10885443                0.10600726                0.00777537                0.02738071
               9.99831869                4.00103681               10.00994331                0.01000001               -0.00574664               -0.12586442                0.10814503                0.08146949                0.00251445                0.00709619
               0.00282724                5.00015386               10.00919233                0.01000001               -0.02789742               -0.02543285                0.10119146                0.00318158               -0.00419488                0.05594892
               1.00254827                4.99945113               10.00877210                0.01000000               -0.02607446               -0.05217463                0.09763480                0.01135480                0.00091314                0.01631990
               2.00230575                4.99895185               10.00840644                0.01000001               -0.02923095               -0.05680527                0.09543150                0.02566148                0.01148446               -0.01212941
               3.00196365                4.99870107               10.00821784                0.01000002               -0.03865925               -0.05587284                0.09639904                0.04867769                0.02720115               -0.02005487
               4.00153257                4.99869115               10.00825291                0.01000000               -0.04757787               -0.05158046                0.09909153                0.06835883                0.04313137               -0.01651446
               5.00101209                4.99889888               10.00848112                0.01000001               -0.05369937               -0.05126524                0.10276371                0.08432632                0.05462314               -0.00547461
               6.00045858                4.99926297               10.00885741                0.01000000               -0.05288457               -0.05606016                0.10674592                0.09468569                0.06030988                0.01055121
               6.99995440                4.99970641               10.00930178                0.01000001               -0.04530548               -0.06812441                0.11068006                0.10036540                0.05854763                0.02665209
               7.99955247                5.00013034               10.00970773                0.01000000               -0.03235511               -0.08175264                0.11310227                0.09404069                0.04879051                0.04223908
               8.99930730                5.00037726               10.00997257                0.01000000               -0.02219023               -0.08795683                0.11406513                0.06853205                0.03000834                0.05111441
               9.99910867                5.00014832               10.00996618                0.01000000               -0.01986318               -0.07183280                0.11239833                0.03468663                0.01879327                0.04240246
               0.00377434                5.99989620               10.00991172                0.93936129               -0.02982533               -0.02849140                0.10289057               -0.00215748               -0.00372317                0.03715315
               1.00347609                5.99891423               10.00918284                0.01000000               -0.03593759               -0.04137567                0.09610710                0.01863653               -0.00189878                0.00585756
               2.00305559                5.99837335               10.00849221                0.01000001               -0.03928714               -0.06425866                0.09484023                0.05257953                0.00974938               -0.02314617
               3.00269035                5.99811131               10.00821498                0.01000000               -0.04373492               -0.05577845                0.09572803                0.06806064                0.03985229               -0.02458601
               4.00218089                5.99815677               10.00824353                0.01000001               -0.05474863               -0.05317347                0.09920146                0.08110541                0.06006954               -0.01739644
               5.00159537                5.99836826               10.00851537                0.01000000               -0.05997221               -0.05086353                0.10373440                0.08427368                0.07492158               -0.00197853
               6.00098145                5.99867748               10.00897989                0.01000000               -0.05878325               -0.05469248                0.10910737                0.07694226                0.08377397                0.01963557
               7.00041971                5.99900071               10.00955117                0.01000000               -0.04904187               -0.06740189                0.11454803                0.06204521                0.08424634                0.04586201
               8.00000061                5.99929271               10.01010809                0.01000000               -0.03454478               -0.08300573                0.11904046                0.04675402                0.07286726                0.07288482
               8.99972881                5.99952753               10.01047557                0.01000000               -0.02651612               -0.08523478                0.12105552                0.02842172                0.04534189                0.09328415
               9.99947029                5.99960015               10.01045654                0.01000000               -0.02585250               -0.05037297                0.11939522                0.01485075                0.02733797                0.09481803
               0.00474802                6.99958404               10.01019397                1.00000000               -0.03041734               -0.03145927                0.10483635                0.00028266               -0.00245837                0.01888580
               1.00444385                6.99862362               10.00936735                1.00000000               -0.02938754               -0.02936549                0.09789547               -0.00007380               -0.00586373               -0.00190527
               2.00416027                6.99766668               10.00847402                0.01000000               -0.04512020               -0.04908881                0.09111797                0.05048556                0.02293106               -0.02411212
               3.00354144                6.99758550               10.00822696                0.01000000               -0.06312739               -0.05472561                0.09457100                0.08148544                0.05795479               -0.02953271
               4.00289772                6.99762768               10.00825909                0.01000001               -0.06822945               -0.05113392                0.09888773                0.09073921                0.07879617               -0.02269409
               5.00217685                6.99788161               10.00861201                0.01000001               -0.07663685               -0.04044852                0.10467858                0.08294689                0.09877721               -0.00114729
               6.00136498                6.99816912               10.00922818                0.01000000               -0.07983908               -0.04077369                0.11187975                0.05427099                0.11235307                0.02472836
               7.00058007                6.99835837               10.01003449                0.01000000               -0.07021270               -0.05317704                0.11992096                0.01604218                0.11642765                0.05748383
               7.99996073                6.99847022               10.01087523                0.01000002               -0.05058874               -0.07597112                0.12715258               -0.01652531                0.10414191                0.10503387
               8.99956830                6.99867256               10.01151096                0.01000001               -0.03501471               -0.09046309                0.13177699               -0.02213266                0.06542077                0.14653400
               9.99926044                6.99914086               10.01158746                0.01000002               -0.03078610               -0.05589420                0.13056766               -0.01562994                0.03800225                0.17502642
               0.00570084                7.99926701               10.01054783                0.99999999               -0.03088677               -0.03196720                0.10645939                0.00024760               -0.00083741                0.02270982
               1.00539197                7.99832692               10.00962549                1.00000000               -0.02987113               -0.02991283                0.09962106               -0.00001335               -0.00038626                0.00257158
               2.00510341                7.99739157               10.00871320                0.01000000               -0.05164541               -0.02776287                0.09277220                0.02774779                0.02074116               -0.01524195
               3.00435906                7.99701680               10.00821696                0.01000000               -0.07019205               -0.06916914                0.09343117                0.09768615                0.05894283               -0.06078632
               4.00369957                7.99713409               10.00823689                0.01000270               -0.08230954               -0.03563447                0.09738438                0.10732238                0.09933622               -0.02601423
               5.00271287                7.99755929               10.00873302                0.01000000               -0.10547352               -0.01900531                0.10520071                0.08046781                0.12413249               -0.00110784
               6.00159010                7.99786201               10.00952417                0.01000000               -0.11367115               -0.01860905                0.11435202                0.03418945                0.14045041                0.02420717
               7.00043945                7.99793716               10.01061839                0.01000001               -0.11170919               -0.02613936                0.12510061               -0.02176254                0.16091654                0.05682768
               7.99935592                7.99777329               10.01205244                0.01000000               -0.09119627               -0.04724023                0.13834240               -0.08101905                0.15470339                0.11188303
               8.99861552                7.99771827               10.01320275                0.01000001               -0.05674175               -0.08757835                0.14699486               -0.11659156                0.10336302                0.26266340
               9.99822108                7.99848227               10.01368917                0.01000001               -0.03944377               -0.12172755                0.14839509               -0.08676249                0.06944185                0.26625998
               0.00663315                8.99894469               10.01090586                1.00000000               -0.03141298               -0.03249948                0.10816823                0.00025171                0.00231081                0.01820039
               1.00631902                8.99802536               10.00990159                1.00000000               -0.03038978               -0.03039111                0.10129121                0.00000169                0.00127100                0.00210699
               2.00602535                8.99711142               10.00887724                0.99999999               -0.02831850               -0.02830102                0.09438198               -0.00000382               -0.00478664               -0.01124611
               3.00575265                8.99620212               10.00775515                0.01000000               -0.07618403               -0.05393855                0.08741436                0.10463485                0.07145542               -0.04847454
               4.00450167                8.99691499               10.00826179                0.01000000               -0.13471775                0.00025059                0.09657250                0.10492631                0.13831752               -0.02038359
               5.00305829                8.99750150               10.00884114                0.01000000               -0.14153849                0.00278115                0.10502377                0.05666239                0.13853830                0.00041655
               6.00167090                8.99779694               10.00976187                0.01000000               -0.14123781                0.00030997                0.11541626                0.01768969                0.15989469                0.01636371
               7.00023354                8.99783559               10.01111137                0.01000001               -0.15558264               -0.00243539                0.12856012               -0.02392996                0.19479582                0.03732740
               7.99855925                8.99752542               10.01302964                0.01000001               -0.18530226               -0.00373864                0.14616185               -0.08094462                0.29354745                0.07970979
               8.99652749                8.99692099               10.01666027                0.99999997               -0.12810321               -0.06637728                0.17942836               -0.13561360                0.18051157                0.17562668
               9.99599718                8.99670631               10.01665834                0.99999999               -0.05303068               -0.11432095                0.17346755               -0.12192622               -0.00099151                0.14908994
               0.00754454                9.99861702               10.01116860                1.00000000               -0.03192649               -0.03276726                0.10985669                0.00134691                0.01257994                0.01348054
               1.00722527                9.99771910               10.01015236                1.00000000               -0.03089803               -0.03062600                0.10297836                0.00105198                0.01579975                0.00074312
               2.00692658                9.99682555               10.00920106                0.99999999               -0.02885384               -0.02858727                0.09610207                0.00106863                0.01580496               -0.00349081
               3.00664819                9.99593802               10.00818822                0.01000001               -0.12139285               -0.02640977                0.08921976                0.10523225                0.07058679               -0.00411879
               4.00449872                9.99713910               10.00833858                0.01000002               -0.18420139                0.02241146                0.09567310                0.08354935                0.11442051               -0.00911379
               5.00296417                9.99761492               10.00891266                0.01000343               -0.14444534                0.01134134                0.10408099                0.02704270                0.13161842                0.00509303
               6.00160981                9.99786821               10.00982449                0.01000000               -0.13659008                0.00712687                0.11419219                0.00756812                0.15807562                0.01327688
               7.00023237                9.99788846               10.01123835                0.01000001               -0.14790959                0.00528699                0.12767036               -0.00860145                0.21278570                0.02430972
               7.99865162                9.99769852               10.01351681                0.01000003               -0.17550042                0.01730989                0.14795102               -0.06564968                0.28410109                0.06212199
               8.99672236                9.99639072               10.01662780                0.99999999               -0.12198492               -0.05302736                0.17345050               -0.05564697                0.15688643                0.00124030
               9.99621192                9.99619585               10.01662590                0.99999999               -0.05104355               -0.05104651                0.16749003                0.00198648                0.00111394               -0.00110699
               0.00130707                0.00179041               11.00907038                0.99996489               -0.02470350               -0.02478533                0.08190606                0.00037824               -0.00365549                0.00341310
               1.00106003                0.00132542               11.00902075                0.99999995               -0.02484232               -0.02508552                0.08287599                0.00015872               -0.00407046               -0.00107647
               2.00081022                0.00086517               11.00896474                0.01000002               -0.01938586               -0.02538528                0.08384685                0.00276125                0.01571043               -0.00170403
               3.00067232                0.00046204               11.00931172                0.01000000               -0.01409917               -0.02959006                0.09251246               -0.00300622                0.04618297               -0.00789199
               4.00052824                0.00041981               11.00984291                0.01000000               -0.01761100               -0.02938741                0.10003514                0.00489132                0.07152878               -0.01148185
               5.00032010                0.00078566               11.01068902                0.01000001               -0.03142129               -0.03015272                0.10742180                0.02032768                0.10457844               -0.01605181
               5.99989981                0.00171797               11.01192695                0.41060914               -0.03830080               -0.03429800                0.11591222                0.01446542                0.06723609               -0.00123158
               6.99955408                0.00234990               11.01225914                1.00000000               -0.03476942               -0.03439012                0.11651320               -0.00000772                0.01474510               -0.00349051
               7.99920442                0.00297189               11.01244480                0.99999999               -0.03501515               -0.03445767                0.11672078                0.00008279                0.00852158               -0.00040721
               8.99885378                0.00358281               11.01265190                0.99999996               -0.03513681               -0.03455817                0.11707930                0.00007417                0.00763864                0.00088393
               9.99850169                0.00418201               11.01281996                1.00000000               -0.03520890               -0.03466320                0.11743816                0.00065280                0.00566310                0.00519694
               0.00177584                1.00154256               11.00908942                1.00000000               -0.02515971               -0.02499892                0.08337486                0.00023436                0.00101795                0.00368091
               1.00152424                1.00107457               11.00904107                0.01000000               -0.02531564               -0.02531126                0.08434617                0.00001530                0.00267880               -0.00280201
               2.00126953                1.00061132               11.00902596                0.01000000               -0.03296545               -0.03056625                0.08531653               -0.01177304                0.02065061                0.00037238
               3.00086493                1.00016614               11.00933599                0.01000000               -0.04270925               -0.02752113                0.09333336               -0.00709609                0.03984959               -0.01095270
               4.00041534                1.00012594               11.00978213                0.01000000               -0.04953205               -0.02743793                0.09934897                0.01254854                0.05277090               -0.01604210
               4.99987429                1.00048413               11.01044792                0.01000000               -0.05764974               -0.02851846                0.10519756                0.03771509                0.07980290               -0.02001979
               5.99926235                1.00137499               11.01157450                0.01000000               -0.04736231               -0.04548886                0.11217639                0.03901087                0.05349637               -0.03022894
               6.99892705                1.00200600               11.01183562                1.00000000               -0.03367745               -0.03381011                0.11264176               -0.00005337                0.00567074               -0.00365105
               7.99858880                1.00262731               11.01200482                0.99999998               -0.03387946               -0.03389801                0.11296068                0.00004735                0.00123696               -0.00032569
               8.99824946                1.00323723               11.01217736                0.99999996               -0.03398906               -0.03399926                0.11333385                0.00003704                0.00090066                0.00044643
               9.99790902                1.00383538               11.01234055                0.99999999               -0.03404404               -0.03410607                0.11369546                0.00058126                0.00036950                0.00645409
               0.00224774                2.00129043               11.00911529                0.01000000               -0.02561544               -0.04023178                0.08484313               -0.02568945                0.00154787                0.01572449
               1.00199158                2.00081920               11.00902734                0.01000000               -0.03822730               -0.03483531                0.08581706               -0.02926705                0.01108023                0.00712417
               2.00148319                2.00025384               11.00912814                0.01000001               -0.04879039               -0.03667296                0.09075520               -0.02510165                0.02053411               -0.00146910
               3.00101577                1.99991162               11.00928861                0.01000000               -0.05109876               -0.03045662                0.09447283               -0.00017064                0.02805187               -0.01435378
               4.00046121                1.99987105               11.00960682                0.01000703               -0.05952160               -0.02885605                0.09887334                0.03013321                0.03898057               -0.02105695
               4.99982534                2.00021529               11.01009480                0.01000001               -0.06515259               -0.03173403                0.10318615                0.05772788                0.04355009               -0.02535052
               5.99915816                2.00080820               11.01063293                0.01000007               -0.07623235               -0.04723802                0.10640124                0.07821950                0.05294372               -0.04441464
               6.99830069                2.00167370               11.01140752                0.01000001               -0.05920105               -0.04531844                0.10879239                0.05782950                0.02616256               -0.01984413
               7.99797414                2.00229393               11.01156621                0.03454459               -0.03271231               -0.03223619                0.10918477                0.00147604               -0.00619280                0.01950413
               8.99764645                2.00290283               11.01169458                0.99999999               -0.03285642               -0.03288098                0.10962340                0.00004086               -0.00455653               -0.00204068
               9.99731701                2.00349989               11.01188751                1.00000000               -0.03294349               -0.03299838                0.10997602                0.00057767               -0.00142716                0.00643018
               0.00220452                3.00073792               11.00937488                0.01000000               -0.02290301               -0.04428356                0.09151672               -0.02226175               -0.00031536                0.03028411
               1.00197549                3.00037786               11.00924474                0.01000000               -0.02647232               -0.04857473                0.09170329               -0.02872574                0.00341435                0.01518060
               2.00167507                2.99987786               11.00917669                0.01000000               -0.03655893               -0.04509724                0.09313589               -0.01384348                0.01268793               -0.00480552
               3.00124431                2.99955701               11.00923333                0.01000000               -0.04803717               -0.04142863                0.09572303                0.01628631                0.02326692               -0.01563486
               4.00071433                2.99954882               11.00942983                0.01000001               -0.05763029               -0.03832652                0.09877872                0.05071558                0.03221388               -0.01994446
               5.00009171                2.99984945               11.00975592                0.01000000               -0.06730013               -0.04032278                0.10200402                0.08273402                0.03937211               -0.02023874
               5.99936833                3.00043023               11.01020752                0.01000000               -0.07469009               -0.04394565                0.10521271                0.10262222                0.03932199               -0.01451840
               6.99859790                3.00109963               11.01066012                0.01000000               -0.09895685               -0.05271758                0.10501590                0.12699092                0.05404575               -0.01805569
               7.99738919                3.00198259               11.01152344                0.01006707               -0.07767971               -0.05275116                0.10427499                0.11492637               -0.00259407                0.00459569
               8.99704431                3.00257961               11.01117164                0.01000001               -0.03313747               -0.06303951                0.10595037                0.09504909               -0.03101984                0.01475636
               9.99672644                3.00317541               11.01140958                0.13884928               -0.03178683               -0.10916874                0.10623965                0.11119515               -0.00166378                0.00966109
               0.00252262                4.00040476               11.00971789                0.01000003               -0.02454900               -0.03028714                0.09645026               -0.00439211               -0.00303699                0.04086708
               1.00227713                3.99984770               11.00945996                0.01000000               -0.02477234               -0.05545404                0.09498317               -0.00310575                0.00100334                0.01327150
               2.00202718                3.99935190               11.00925814                0.01000891               -0.03032957               -0.05738823                0.09494942                0.01383134                0.01129057               -0.00710926
               3.00167054                3.99908304               11.00919648                0.01000001               -0.04220479               -0.05262064                0.09639001                0.04197001                0.02468596               -0.01742426
               4.00118308                3.99910452               11.00930357                0.01000001               -0.05359679               -0.04937146                0.09895445                0.07305931                0.03682268               -0.01751605
               5.00059860                3.99940884               11.00957051                0.01000000               -0.06113258               -0.04914957                0.10208237                0.10030414                0.04531691               -0.01018165
               5.99996043                3.99992928               11.00995355                0.01001184               -0.06552233               -0.05442398                0.10506624                0.12547586                0.05039784                0.00017776
               6.99928816                4.00061935               11.01042829                0.01000001               -0.05838688               -0.06083288                0.10709297                0.14227436                0.04345582                0.01388406
               7.99879269                4.00123890               11.01077800                0.01000001               -0.04667770               -0.08006819                0.10683259                0.16762560                0.03048225                0.00065564
               8.99835460                4.00164204               11.01102681                0.01000000               -0.02216889               -0.09705243                0.10820130                0.12629738                0.01095917                0.03459909
               9.99834931                4.00131652               11.01102386                0.01000000               -0.00052917               -0.14228062                0.10815285                0.09694582                0.00345655                0.01327869
               0.00323080                5.00013218               11.01019342                0.01000002               -0.02645570               -0.03229777                0.09977731                0.01252356               -0.00287484                0.05883578
               1.00296624                4.99926878               11.00974231                0.01000000               -0.02572178               -0.05903879                0.09688034                0.02608216                0.00222859                0.01536009
               2.00271636                4.99873009               11.00936307                0.01000001               -0.03175747               -0.06259706                0.09565040                0.04366139                0.01491982               -0.01366061
               3.00233109                4.99850459               11.00918361                0.01000000               -0.04333173               -0.06129950                0.09663262                0.06996320                0.03254378               -0.02108395
               4.00184972                4.99856139               11.00924501                0.01000000               -0.05290306               -0.05625304                0.09925322                0.09172170                0.04963523               -0.01616196
               5.00127303                4.99886646               11.00950970                0.01000001               -0.05911961               -0.05601879                0.10286100                0.10910480                0.06172736               -0.00339266
               6.00066733                4.99934175               11.00992600                0.01000001               -0.05696289               -0.06145753                0.10671501                0.11900642                0.06725248                0.01475299
               7.00013377                4.99988297               11.01040438                0.01000002               -0.04741591               -0.07551092                0.11016176                0.12355150                0.06543445                0.03255726
               7.99971901                5.00038122               11.01084797                0.01000000               -0.03205622               -0.08910286                0.11303917                0.11258292                0.05357537                0.05220131
               8.99949265                5.00063856               11.01111121                0.01000000               -0.02013077               -0.09655861                0.11372490                0.08111785                0.03206906                0.06070499
               9.99931640                5.00032980               11.01109007                0.01000002               -0.01762462               -0.07809372                0.11238987                0.04076537                0.02002344                0.05091058
               0.00449989                5.99975881               11.01094089                0.92654983               -0.02990279               -0.03427104                0.10291209                0.00848000               -0.00372566                0.03790789
               1.00420086                5.99866693               11.01014642                0.01000000               -0.04176504               -0.04469167                0.09657578                0.03271198                0.00076847                0.00475896
               2.00366459                5.99809996               11.00944309                0.01000007               -0.04811763               -0.07117766                0.09528516                0.07338195                0.01503161               -0.02670071
               3.00323851                5.99785705               11.00917549                0.01000000               -0.05044724               -0.06114725                0.09620685                0.09017668                0.04693272               -0.02604789
               4.00265565                5.99797946               11.00923821                0.01001512               -0.06190880               -0.05790303                0.09957501                0.10520444                0.06856444               -0.01718217
               5.00200033                5.99828846               11.00955491                0.01000001               -0.06658009               -0.05493687                0.10403411                0.10778659                0.08415085                0.00030284
               6.00132404                5.99870013               11.01007201                0.01000001               -0.06403081               -0.05926596                0.10928216                0.09787057                0.09340855                0.02443289
               7.00071972                5.99910913               11.01069778                0.01000000               -0.05176413               -0.07331625                0.11453997                0.07850707                0.09330541                0.05361808
               8.00028876                5.99945685               11.01129633                0.01000000               -0.03456670               -0.09054520                0.11884503                0.05870014                0.08020331                0.08300531
               9.00002838                5.99971086               11.01168633                0.01000000               -0.02533088               -0.09194411                0.12100571                0.03488915                0.04960591                0.10591680
               9.99978214                5.99975464               11.01165185                0.01000001               -0.02462405               -0.05158245                0.11959521                0.01788053                0.02951782                0.10712106
               0.00558415                6.99944676               11.01124240                1.00000000               -0.03048264               -0.03144083                0.10482831                0.00027728               -0.00259835                0.01903443
               1.00527933                6.99837495               11.01034842                1.00000000               -0.02951408               -0.02948984                0.09831242               -0.00007003               -0.00591722               -0.00182719
               2.00499387                6.99730654               11.00938922                0.01000001               -0.05121039               -0.05355189                0.09194673                0.06457232                0.02802994               -0.02675890
               3.00425512                6.99728165               11.00917796                0.01000000               -0.07357319               -0.06236158                0.09596911                0.10508176                0.06749123               -0.03112663
               4.00352241                6.99740333               11.00925182                0.01000001               -0.07735154               -0.05530974                0.09946105                0.11524077                0.08887429               -0.02305791
               5.00270809                6.99776772               11.00966173                0.01000001               -0.08591668               -0.04242770                0.10517796                0.10466558                0.11027990                0.00092034
               6.00180407                6.99815643               11.01034894                0.01000000               -0.08804459               -0.04252760                0.11216397                0.07031146                0.12484722                0.02969752
               7.00094720                6.99841665               11.01123393                0.01000000               -0.07563959               -0.05618369                0.11988120                0.02549143                0.12903327                0.06595950
               8.00029128                6.99857032               11.01214715                0.01000001               -0.05272817               -0.08099403                0.12711373               -0.01316118                0.11507659                0.11872364
               8.99989263                6.99879968               11.01282879                0.01000000               -0.03524136               -0.09532080                0.13169106               -0.02184104                0.07200284                0.16388976
               9.99958646                6.99929815               11.01289358                0.01000001               -0.03061777               -0.05531241                0.13066446               -0.01631265                0.04130084                0.19372983
               0.00664906                7.99912999               11.01161206                0.99999999               -0.03093769               -0.03193535                0.10638924                0.00025119               -0.00082969                0.02272699
               1.00633968                7.99807713               11.01062352                1.00000000               -0.02998620               -0.03002046                0.09999263                0.00000016               -0.00038253                0.00258958
               2.00604934                7.99702892               11.00964489                0.01081509               -0.05481619               -0.02801102                0.09358245                0.03119298                0.02421101               -0.01531164
               3.00524336                7.99660982               11.00915182                0.01007498               -0.07874749               -0.07794863                0.09240731                0.11992385                0.06718771               -0.06447558
               4.00447439                7.99687327               11.00921557                0.01000001               -0.09514104               -0.03721513                0.09877050                0.13414795                0.11100399               -0.02707276
               5.00334054                7.99743991               11.00978945                0.01000000               -0.11965189               -0.01723073                0.10593158                0.09959309                0.13797076                0.00040417
               6.00208135                7.99784958               11.01066995                0.01000000               -0.12624383               -0.01669118                0.11471593                0.04524590                0.15575612                0.02837887
               7.00081566                7.99798546               11.01187096                0.01000000               -0.12194203               -0.02499454                0.12531841               -0.01907559                0.17843931                0.06457295
               7.99964251                7.99783697               11.01343681                0.01000000               -0.09759652               -0.04783263                0.13831387               -0.08611890                0.17132297                0.12559086
               8.99886373                7.99780445               11.01467387                0.01000000               -0.05917796               -0.09024829                0.14711758               -0.12665333                0.11411613                0.29147336
               9.99845895                7.99864839               11.01517741                0.01000000               -0.04047833               -0.12697424                0.14910139               -0.09398016                0.07628227                0.29313782
               0.00769490                8.99880805               11.01198700                1.00000000               -0.03144951               -0.03245897                0.10806347                0.00025279                0.00231036                0.01824875
               1.00738040                8.99777454               11.01091621                1.00000000               -0.03049280               -0.03049209                0.10163660                0.00000971                0.00125727                0.00210040
               2.00708504                8.99674632               11.00982511                0.99999999               -0.02855754               -0.02854125                0.09518944                0.00000463               -0.00483842               -0.01130582
               3.00680925                8.99572268               11.00863583                0.01000001               -0.08548779               -0.05775315                0.08869958                0.12446422                0.07917827               -0.05208211
               4.00537528                8.99665902               11.00923125                0.01000000               -0.15428067                0.00494008                0.09732559                0.12671141                0.15301816               -0.02116013
               5.00372364                8.99742311               11.00989624                0.01000000               -0.16059204                0.00810130                0.10591854                0.06930335                0.15350302                0.00115013
               6.00216344                8.99782261               11.01091954                0.01000000               -0.15726686                0.00506718                0.11611885                0.02324323                0.17701960                0.01879306
               7.00057830                8.99791676               11.01239985                0.01000000               -0.17067652                0.00182429                0.12900903               -0.02430707                0.21556648                0.04201844
               7.99874991                8.99761367               11.01449273                0.01000001               -0.20150799                0.00093820                0.14621817               -0.08704035                0.32435676                0.08888712
               8.99654814                8.99699471               11.01845076                0.99999997               -0.13654750               -0.06695031                0.17868485               -0.14761574                0.19967556                0.19437940
               9.99601896                8.99675867               11.01839286                1.00000000               -0.05291768               -0.12006452                0.17343625               -0.13381382               -0.00099362                0.16419211
               0.00872114                9.99848081               11.01226649                0.99999658               -0.03195324               -0.03272414                0.10972070                0.00127258                0.01261288                0.01351542
               1.00840161                9.99746729               11.01118370                1.00000000               -0.03099263               -0.03072493                0.10329302                0.00098521                0.01583547                0.00073884
               2.00810129                9.99645809               11.01016593                0.99999998               -0.02908359               -0.02882238                0.09687065                0.00099861                0.01584359               -0.00351188
               3.00781994                9.99545476               11.00908652                0.01000001               -0.13965549               -0.02679164                0.09043861                0.12676755                0.07714949               -0.00412627
               4.00530818                9.99697207               11.00930076                0.01002720               -0.21284601                0.03130447                0.09676019                0.10064831                0.12719010               -0.00965387
               5.00356302                9.99760193               11.00995898                0.01000000               -0.16278086                0.01788228                0.10506191                0.03288100                0.14579065                0.00562521
               6.00205256                9.99795092               11.01097165                0.01002976               -0.15122773                0.01283137                0.11528562                0.00991253                0.17457723                0.01457886
               7.00053846                9.99802194               11.01251860                0.01000000               -0.16144093                0.01051833                0.12833599               -0.00874322                0.23411192                0.02679865
               7.99882374                9.99785573               11.01499727                0.01000000               -0.18860236                0.02420636                0.14813764               -0.07044175                0.31183759                0.06821956
               8.99676642                9.99646544               11.01836250                1.00000000               -0.12844889               -0.05292718                0.17348636               -0.05860362                0.17239363                0.00123758
               9.99625477                9.99624710               11.01830460                0.99999999               -0.05116496               -0.05115634                0.16823381                0.00174653                0.00111011               -0.00110999
               0.00131529                0.00179815               12.00989145                1.00000000               -0.02479994               -0.02485863                0.08229959                0.00030477               -0.00365898                0.00340884
               1.00106729                0.00128698               12.00985067                1.00000000               -0.02491515               -0.02510747                0.08310457                0.00013119               -0.00407306               -0.00107765
               2.00081699                0.00077956               12.00980352                0.01000000               -0.01863849               -0.02535592                0.08390941                0.00417263                0.01952824               -0.00170376
               3.00069452                0.00035698               12.01023575                0.01000000               -0.01302771               -0.02915965                0.09226939               -0.00174560                0.05405847               -0.00743117
               4.00055643                0.00036904               12.01084117                0.01000000               -0.01843553               -0.02827587                0.09961058                0.00883153                0.07921178               -0.01148960
               5.00032581                0.00087577               12.01176057                0.01000000               -0.03857373               -0.02847137                0.10683389                0.03031301                0.11265770               -0.01630871
               5.99978496                0.00207799               12.01307940                0.39571743               -0.04425557               -0.03404519                0.11500520                0.02571664                0.07138075               -0.00106615
               6.99944070                0.00275726               12.01342279                1.00000000               -0.03467198               -0.03432114                0.11622385                0.00003187                0.01501868               -0.00358774
               7.99909152                0.00342650               12.01361154                0.99999999               -0.03498872               -0.03443949                0.11660526                0.00009331                0.00846798               -0.00042315
               8.99874093                0.00408496               12.01382278                0.99999999               -0.03514603               -0.03458228                0.11709262                0.00008750                0.00765598                0.00089113
               9.99838860                0.00473219               12.01399502                1.00000000               -0.03523268               -0.03472806                0.11758124                0.00065003                0.00568246                0.00521183
               0.00182951                1.00154956               12.00992362                1.00000000               -0.02516065               -0.02502751                0.08346178                0.00018527                0.00101653                0.00367785
               1.00157790                1.00103591               12.00988415                0.01000000               -0.02528945               -0.02528626                0.08426729                0.00001209                0.00267729               -0.00280267
               2.00132372                1.00052600               12.00987790                0.01000000               -0.03477873               -0.03111002                0.08507228               -0.01160068                0.02419298                0.00240772
               3.00088232                1.00006538               12.01026768                0.01000001               -0.04691827               -0.02703469                0.09298596               -0.00393193                0.04627131               -0.01048342
               4.00038535                1.00008628               12.01077377                0.01000000               -0.05539281               -0.02650531                0.09893428                0.02082810                0.05835136               -0.01603381
               4.99977447                1.00059106               12.01149799                0.01000000               -0.06419837               -0.02793280                0.10470756                0.05364730                0.08566932               -0.02017133
               5.99910138                1.00173754               12.01269034                0.01000000               -0.05038537               -0.05080181                0.11141384                0.05346754                0.05682840               -0.03116920
               6.99876676                1.00241404               12.01296151                1.00000000               -0.03363928               -0.03376794                0.11251998               -0.00010827                0.00594092               -0.00373354
               7.99842860                1.00308211               12.01313465                0.99999998               -0.03389025               -0.03390156                0.11298444                0.00003192                0.00123903               -0.00034066
               8.99808896                1.00373914               12.01331145                0.99999996               -0.03403634               -0.03404400                0.11348100                0.00002738                0.00092609                0.00046906
               9.99774787                1.00438491               12.01347883                0.99999999               -0.03410845               -0.03419028                0.11397175                0.00055813                0.00039031                0.00647280
               0.00234631                2.00129760               12.00996262                0.01000000               -0.02552095               -0.04062231                0.08462379               -0.02639637                0.00154867                0.01836002
               1.00209110                2.00078126               12.00988356                0.01000000               -0.03954030               -0.03646453                0.08542967               -0.03036219                0.01311476                0.00941409
               2.00155550                2.00015736               12.01003393                0.01000001               -0.05177488               -0.03838736                0.09038847               -0.02391950                0.02444721                0.00126634
               3.00105560                1.99981628               12.01023160                0.01000000               -0.05540916               -0.03109872                0.09409804                0.00764646                0.03187382               -0.01367591
               4.00044732                1.99983894               12.01059376                0.01000000               -0.06540477               -0.02917873                0.09849980                0.04471782                0.04320102               -0.02084673
               4.99974750                2.00031712               12.01112447                0.01000001               -0.07079967               -0.03370672                0.10276660                0.07746554                0.04724334               -0.02506732
               5.99903132                2.00106195               12.01169556                0.01000001               -0.08267712               -0.05502931                0.10604760                0.09907169                0.05579405               -0.04527289
               6.99809396                2.00208190               12.01249591                0.01000000               -0.06321320               -0.04923742                0.10884341                0.06931666                0.02725776               -0.01869000
               7.99776706                2.00274847               12.01265898                0.03914020               -0.03276464               -0.03285248                0.10935100                0.00175968               -0.00612899                0.01378075
               8.99743867                2.00340408               12.01279214                0.99999999               -0.03294195               -0.03296372                0.10989245                0.00003096               -0.00449542               -0.00198810
               9.99710822                2.00404839               12.01298922                1.00000000               -0.03304478               -0.03312117                0.11037916                0.00055753               -0.00140269                0.00644215
               0.00233426                3.00073712               12.01028810                0.01000001               -0.02233657               -0.04469744                0.09110512               -0.02234742                0.00042151                0.03558611
               1.00211090                3.00030662               12.01015993                0.01000001               -0.02619811               -0.05278375                0.09132374               -0.02715824                0.00468451                0.01854614
               2.00181030                2.99975825               12.01010647                0.01000000               -0.03786100               -0.04882311                0.09279795               -0.00685560                0.01526388               -0.00386346
               3.00135368                2.99944341               12.01018939                0.01000000               -0.05157127               -0.04431396                0.09542517                0.02966145                0.02672893               -0.01522013
               4.00077888                2.99950271               12.01041575                0.01000001               -0.06264568               -0.04080325                0.09846309                0.07000751                0.03613747               -0.01947613
               5.00010076                2.99991692               12.01077580                0.01000000               -0.07304187               -0.04404838                0.10170847                0.10618835                0.04295215               -0.01925298
               5.99931804                3.00063695               12.01124859                0.01000000               -0.08170949               -0.04890993                0.10428094                0.12632423                0.04301991               -0.01269570
               6.99846657                3.00142930               12.01173505                0.01000000               -0.10882166               -0.05926410                0.10609612                0.15092941                0.04880455               -0.01591601
               7.99714160                3.00242506               12.01246495                0.01000000               -0.08384567               -0.05660590                0.09908776                0.13426391               -0.00114727                0.00719494
               8.99678966                3.00307987               12.01223296                0.01000003               -0.03355933               -0.06825027                0.10632688                0.11041203               -0.02520442                0.01751302
               9.99647042                3.00372249               12.01247457                0.15511582               -0.03192423               -0.12132501                0.10677451                0.12853716               -0.00166589                0.01236631
               0.00276036                4.00040365               12.01067941                0.01000000               -0.02335601               -0.03147692                0.09590096               -0.00092136               -0.00242587                0.04482562
               1.00252680                3.99972558               12.01040806                0.01000000               -0.02393792               -0.06173702                0.09461989                0.00447728                0.00227192                0.01471618
               2.00228160                3.99918090               12.01020676                0.01000000               -0.03112124               -0.06322787                0.09476375                0.02784878                0.01396624               -0.00705108
               3.00190437                3.99893000               12.01015958                0.01000001               -0.04538248               -0.05715125                0.09625421                0.06104370                0.02860148               -0.01755699
               4.00137395                3.99902287               12.01029278                0.01000000               -0.05836716               -0.05347190                0.09879639                0.09632227                0.04150003               -0.01694565
               5.00073703                3.99943615               12.01058996                0.01000000               -0.06642564               -0.05351534                0.10180729                0.12628847                0.05020584               -0.00850235
               6.00004544                4.00008375               12.01100256                0.01000000               -0.07062944               -0.05986872                0.10461940                0.15256923                0.05434226                0.00358387
               6.99932444                4.00089662               12.01148871                0.01000001               -0.06218350               -0.06706116                0.10615510                0.17035764                0.04747347                0.01790924
               7.99880177                4.00161635               12.01186838                0.01000001               -0.04874807               -0.08845139                0.10796244                0.19590030                0.03293367                0.01347892
               8.99834948                4.00203908               12.01210568                0.01000000               -0.02040222               -0.10740134                0.10818869                0.14612246                0.01205045                0.04202338
               9.99839372                4.00162189               12.01210637                0.01000483                0.00442433               -0.15919736                0.10834275                0.11233055                0.00511267                0.01889699
               0.00367197                5.00010758               12.01118788                0.01000003               -0.02487748               -0.03991356                0.09923501                0.02285089               -0.00190450                0.06188727
               1.00342320                4.99907188               12.01070971                0.01000000               -0.02545593               -0.06611388                0.09663533                0.04242891                0.00408736                0.01493076
               2.00316285                4.99849369               12.01031945                0.01000001               -0.03453105               -0.06838589                0.09564972                0.06370264                0.01845146               -0.01476051
               3.00273258                4.99830038               12.01015050                0.01000000               -0.04818389               -0.06670051                0.09671002                0.09345419                0.03767443               -0.02180913
               4.00219918                4.99843327               12.01023797                0.01000000               -0.05834631               -0.06082751                0.09927276                0.11725234                0.05581157               -0.01561467
               5.00156565                4.99884662               12.01053834                0.01000000               -0.06451098               -0.06069265                0.10268099                0.13569357                0.06833941               -0.00116541
               6.00090896                4.99943957               12.01099171                0.01000001               -0.06122627               -0.06702771                0.10650895                0.14513868                0.07394060                0.01888064
               7.00034113                5.00008807               12.01150501                0.01000003               -0.04959050               -0.08265496                0.10986800                0.14767511                0.07135239                0.03917646
               7.99991715                5.00065603               12.01196851                0.01000000               -0.03172743               -0.09813573                0.11222530                0.13290639                0.05818597                0.06000732
               8.99970658                5.00093184               12.01224707                0.01000000               -0.01828662               -0.10553991                0.11351481                0.09492224                0.03483578                0.07038610
               9.99955141                5.00053854               12.01221397                0.01000000               -0.01551625               -0.08414115                0.11247695                0.04746345                0.02137015                0.05919982
               0.00528878                5.99960538               12.01196996                0.91362902               -0.02995193               -0.04070114                0.10285808                0.02039454               -0.00372898                0.03900420
               1.00498926                5.99840331               12.01111436                0.01000000               -0.04808159               -0.04809531                0.09696833                0.04816386                0.00319562                0.00403462
               2.00432715                5.99781318               12.01039791                0.01000001               -0.05776893               -0.07819968                0.09561701                0.09605791                0.01998156               -0.02966870
               3.00383388                5.99759599               12.01013911                0.01000000               -0.05771934               -0.06568666                0.09655194                0.11446173                0.05360894               -0.02666423
               4.00317276                5.99780632               12.01023503                0.01000000               -0.06946427               -0.06220540                0.09970804                0.13092832                0.07657864               -0.01670690
               5.00244460                5.99822230               12.01059605                0.01000001               -0.07330025               -0.05905695                0.10419417                0.13282770                0.09282978                0.00279677
               6.00170676                5.99874320               12.01116554                0.01001044               -0.06915543               -0.06372240                0.10920572                0.12009947                0.10250102                0.02923431
               7.00106149                5.99924352               12.01184197                0.01000000               -0.05453142               -0.07918472                0.11422109                0.09659235                0.10190662                0.06116381
               8.00061613                5.99965364               12.01248499                0.01000000               -0.03480370               -0.09759056                0.11865413                0.07175084                0.08713670                0.09357604
               9.00036541                5.99992828               12.01289568                0.01000000               -0.02432683               -0.09845156                0.12088922                0.04203858                0.05355043                0.11814196
              10.00012959                5.99993906               12.01284845                0.01000000               -0.02358228               -0.05243212                0.11976608                0.02135153                0.03165952                0.11909825
               0.00648401                6.99929356               12.01229054                1.00000000               -0.03053364               -0.03142179                0.10477802                0.00026890               -0.00274614                0.01918174
               1.00617868                6.99810997               12.01133360                1.00000000               -0.02963454               -0.02961922                0.09871756               -0.00008142               -0.00597701               -0.00174729
               2.00589132                6.99692970               12.01031296                0.01000000               -0.05750037               -0.05818642                0.09281919                0.08044334                0.03334726               -0.02915637
               3.00502867                6.99698665               12.01014634                0.01000000               -0.08499408               -0.06632901                0.09637715                0.12788600                0.07680631               -0.03329881
               4.00419144                6.99718916               12.01024831                0.01000001               -0.08716714               -0.05965580                0.09992089                0.13940443                0.09762109               -0.02239401
               5.00328533                6.99766548               12.01071557                0.01000003               -0.09508572               -0.04447190                0.10555812                0.12746362                0.12087863                0.00332371
               6.00228973                6.99816513               12.01147146                0.01000000               -0.09613976               -0.04421039                0.11212947                0.08779277                0.13665282                0.03444280
               7.00136253                6.99850438               12.01243211                0.01000000               -0.08111641               -0.05904047                0.11976525                0.03594860                0.14090581                0.07418034
               8.00066740                6.99870422               12.01341750                0.01000000               -0.05503038               -0.08570574                0.12696498               -0.00891146                0.12527113                0.13162950
               9.00026192                6.99896281               12.01414478                0.01000000               -0.03552592               -0.10012580                0.13155839               -0.02112458                0.07804964                0.18042379
               9.99995688                6.99948990               12.01420075                0.01000001               -0.03050440               -0.05466635                0.13085193               -0.01678838                0.04452691                0.21183824
               0.00766133                7.99897694               12.01267562                0.99999999               -0.03098411               -0.03191566                0.10632295                0.00024395               -0.00082355                0.02273618
               1.00735149                7.99781092               12.01162535                1.00000000               -0.03009955               -0.03013917                0.10037884               -0.00000587               -0.00037970                0.00260799
               2.00705934                7.99664945               12.01058485                0.01000000               -0.06096729               -0.02827142                0.09442211                0.03880666                0.02596559               -0.01536984
               3.00613214                7.99626941               12.01006510                0.01000181               -0.08886589               -0.08804366                0.09478312                0.14325794                0.07168554               -0.06483131
               4.00528202                7.99661320               12.01021230                0.01000000               -0.10571185               -0.03912878                0.09959535                0.15868111                0.12217364               -0.02780110
               5.00401790                7.99733286               12.01085165                0.01000000               -0.13291537               -0.01552542                0.10639782                0.12002621                0.15043179                0.00194916
               6.00262371                7.99785899               12.01181849                0.01000000               -0.13882684               -0.01470155                0.11490648                0.05739067                0.17019568                0.03248221
               7.00124137                7.99806271               12.01312476                0.01000000               -0.13221220               -0.02380300                0.12538110               -0.01551643                0.19479059                0.07200066
               7.99997947                7.99793952               12.01481872                0.01000000               -0.10420623               -0.04807558                0.13808094               -0.09044351                0.18695824                0.13868438
               8.99915724                7.99792576               12.01614510                0.01000000               -0.06199114               -0.09214258                0.14705227               -0.13674205                0.12416276                0.31851048
               9.99873965                7.99884574               12.01667120                0.01000000               -0.04175976               -0.13134633                0.14942629               -0.10119176                0.08270438                0.31794810
               0.00882094                8.99865524               12.01306712                0.99994441               -0.03148854               -0.03242941                0.10796766                0.00024645                0.00231206                0.01829081
               1.00850605                8.99750719               12.01193432                0.99999999               -0.03059886               -0.03060136                0.10199103                0.00000414                0.00124881                0.00209428
               2.00820896                8.99636427               12.01078103                1.00000000               -0.02879899               -0.02878862                0.09599183               -0.00000614               -0.00487946               -0.01135654
               3.00793007                8.99522578               12.00952914                0.01000000               -0.09536713               -0.06576487                0.08994995                0.14832599                0.08643199               -0.05395434
               4.00630162                8.99640659               12.01020831                0.01000000               -0.17450048                0.00968940                0.09848638                0.15086164                0.16694955               -0.02226761
               5.00444006                8.99735497               12.01095951                0.01000000               -0.17969638                0.01345417                0.10653769                0.08278496                0.16771425                0.00177560
               6.00270769                8.99787110               12.01208425                0.01000000               -0.17341978                0.00982833                0.11675676                0.02956882                0.19318204                0.02138412
               7.00097167                8.99802832               12.01369155                0.01000000               -0.18561112                0.00621085                0.12910047               -0.02403848                0.23563044                0.04651428
               7.99899547                8.99774271               12.01595401                0.01000001               -0.21753993                0.00571589                0.14613693               -0.09216769                0.35404665                0.09759147
               8.99662087                8.99711996               12.02023397                0.99999998               -0.14511839               -0.06668821                0.17797141               -0.15870391                0.21821807                0.21238107
               9.99609310                8.99686297               12.02012706                1.00000000               -0.05277689               -0.12477755                0.17340177               -0.14518477               -0.00099584                0.17861924
               0.00996237                9.99832836               12.01336302                1.00000000               -0.03198282               -0.03268872                0.10959555                0.00119666                0.01264436                0.01354435
               1.00964254                9.99719889               12.01221822                1.00000000               -0.03108708               -0.03082943                0.10361474                0.00091472                0.01587028                0.00073447
               2.00934063                9.99607368               12.01113848                0.99999998               -0.02930961               -0.02905956                0.09763629                0.00092767                0.01587903               -0.00353064
               3.00905635                9.99495412               12.00999700                0.01000001               -0.15852847               -0.02716586                0.09165417                0.14929313                0.08341516               -0.00413455
               4.00617006                9.99680699               12.01027378                0.01000004               -0.24236268                0.04004057                0.09783360                0.11923504                0.13934388               -0.00989426
               5.00420909                9.99760194               12.01101390                0.01000000               -0.18141583                0.02469710                0.10579307                0.03933121                0.15928435                0.00604977
               6.00254174                9.99805556               12.01213020                0.01000002               -0.16600540                0.01844610                0.11639537                0.01265400                0.19022806                0.01612265
               7.00088899                9.99818692               12.01380507                0.01000001               -0.17486327                0.01586048                0.12856005               -0.00835400                0.25572937                0.02929014
               7.99904448                9.99805384               12.01647957                0.01000000               -0.20130429                0.03111344                0.14852464               -0.07484553                0.33892308                0.07415944
               8.99686290                9.99659200               12.02009753                1.00000000               -0.13472769               -0.05279571                0.17351795               -0.06097981                0.18747768                0.00123489
               9.99634992                9.99635019               12.01999058                0.99999999               -0.05129788               -0.05127865                0.16894866                0.00150050                0.00110635               -0.00111304
               0.00131545                0.00179425               13.01071637                1.00000000               -0.02489491               -0.02493033                0.08268875                0.00023195               -0.00365739                0.00341032
               1.00106651                0.00123691               13.01068284                1.00000000               -0.02498720               -0.02512859                0.08333053                0.00010398               -0.00407158               -0.00107729
               2.00081571                0.00068233               13.01064293                0.01000000               -0.01753355               -0.02532725                0.08397236                0.00604692                0.02326469               -0.00170373
               3.00071583                0.00024955               13.01115710                0.01000000               -0.01140290               -0.02889332                0.09198828               -0.00000947                0.06170441               -0.00693454
               4.00058765                0.00032482               13.01183512                0.01000001               -0.01904068               -0.02721529                0.09915078                0.01319420                0.08665816               -0.01151305
               5.00033502                0.00098464               13.01282570                0.01000000               -0.04612242               -0.02678350                0.10623487                0.04110572                0.12059351               -0.01657025
               5.99966520                0.00247477               13.01422705                0.38088134               -0.05063514               -0.03393164                0.11445490                0.03782353                0.07558328               -0.00102164
               6.99932232                0.00320072               13.01458362                1.00000000               -0.03457030               -0.03425001                0.11591945                0.00004625                0.01533607               -0.00368014
               7.99897380                0.00391721               13.01477690                0.99999999               -0.03494507               -0.03441533                0.11645626                0.00011289                0.00842262               -0.00043260
               8.99862342                0.00462330               13.01499375                1.00000000               -0.03514690               -0.03460480                0.11709825                0.00010786                0.00767422                0.00089589
               9.99827086                0.00531862               13.01517158                1.00000000               -0.03525564               -0.03479807                0.11773869                0.00065114                0.00569995                0.00522618
               0.00187511                1.00154495               13.01075865                1.00000000               -0.02516069               -0.02505504                0.08354624                0.00013661                0.00101689                0.00367932
               1.00162351                1.00098563               13.01072642                0.01000001               -0.02526278               -0.02526085                0.08418724                0.00000825                0.00267778               -0.00280219
               2.00136986                1.00042906               13.01072741                0.01000000               -0.03645071               -0.03158632                0.08482870               -0.01083084                0.02775770                0.00452654
               3.00089449                0.99996062               13.01119571                0.01000001               -0.05089026               -0.02665861                0.09260274                0.00006010                0.05266579               -0.00991918
               4.00035205                1.00005267               13.01176081                0.01000000               -0.06116936               -0.02563432                0.09845432                0.03004436                0.06382073               -0.01595428
               4.99967111                1.00071680               13.01254207                0.01000000               -0.07083266               -0.02742501                0.10415711                0.07080862                0.09150408               -0.02029290
               5.99893540                1.00213545               13.01380278                0.01000000               -0.05347724               -0.05651389                0.11100357                0.06894105                0.06026475               -0.03212240
               6.99860156                1.00285822               13.01408602                1.00000000               -0.03358811               -0.03371798                0.11236137               -0.00011437                0.00624825               -0.00380495
               7.99826364                1.00357305               13.01426451                0.99999998               -0.03388852               -0.03389852                0.11297664                0.00002792                0.00123886               -0.00034996
               8.99792379                1.00427725               13.01444698                1.00000000               -0.03407933               -0.03408700                0.11362343                0.00002342                0.00094637                0.00048486
               9.99758205                1.00497064               13.01461998                0.99999999               -0.03417393               -0.03428071                0.11426593                0.00053617                0.00040651                0.00648950
               0.00243683                2.00129315               13.01080776                0.01000002               -0.02542686               -0.04060485                0.08440389               -0.02643677                0.00154869                0.02104290
               1.00218256                2.00073169               13.01073593                0.01000000               -0.04063668               -0.03806721                0.08504433               -0.03076207                0.01523376                0.01185474
               2.00162410                2.00005060               13.01093591                0.01000001               -0.05445700               -0.04006466                0.08999705               -0.02171387                0.02844587                0.00420055
               3.00109342                1.99971638               13.01117057                0.01000000               -0.05958697               -0.03179996                0.09368038                0.01683264                0.03573958               -0.01282474
               4.00043236                1.99981214               13.01157682                0.01000000               -0.07125054               -0.02961965                0.09807433                0.06091879                0.04739725               -0.02047351
               4.99966841                2.00043614               13.01215013                0.01000001               -0.07648736               -0.03589489                0.10233090                0.09895784                0.05083170               -0.02484475
               5.99890261                2.00134449               13.01275388                0.01000001               -0.08929920               -0.06330671                0.10567296                0.12121483                0.05868859               -0.04586982
               6.99788243                2.00252636               13.01358439                0.01000000               -0.06736428               -0.05348569                0.10882984                0.08254103                0.02849793               -0.01900809
               7.99755533                2.00323924               13.01375323                0.04473331               -0.03280626               -0.03279849                0.10948559                0.00099496               -0.00608274                0.01285265
               8.99722630                2.00394156               13.01389243                0.99999999               -0.03302588               -0.03304560                0.11016625                0.00002912               -0.00445228               -0.00195187
               9.99689481                2.00463300               13.01409510                0.99999999               -0.03314948               -0.03325232                0.11080750                0.00053741               -0.00138476                0.00645435
               0.00246929                3.00073285               13.01119698                0.01000001               -0.02184762               -0.04458241                0.09068286               -0.02185813                0.00117726                0.04088291
               1.00225081                3.00022428               13.01107121                0.01000001               -0.02591987               -0.05697196                0.09093683               -0.02462127                0.00599656                0.02215278
               2.00195089                2.99962776               13.01103265                0.01000000               -0.03906015               -0.05263503                0.09243266                0.00156143                0.01784997               -0.00260487
               3.00146961                2.99932462               13.01114184                0.01000000               -0.05501096               -0.04727906                0.09507016                0.04478215                0.03020260               -0.01451469
               4.00085067                2.99946028               13.01139909                0.01000001               -0.06758511               -0.04343758                0.09813273                0.09123107                0.03986167               -0.01886578
               5.00011791                2.99999891               13.01179009                0.01000000               -0.07905984               -0.04799457                0.10128347                0.13167842                0.04664438               -0.01825170
               5.99926948                3.00086932               13.01229313                0.01000001               -0.08801373               -0.05433257                0.10415203                0.15177535                0.04506510               -0.01096057
               6.99835763                3.00178850               13.01278204                0.01000000               -0.12005690               -0.06593923                0.10519958                0.17685723                0.04933587               -0.01414778
               7.99686834                3.00291708               13.01350520                0.01000001               -0.09135136               -0.06171566                0.10187673                0.15534539               -0.00117410                0.00999871
               8.99653061                3.00361634               13.01329818                0.01000000               -0.03292159               -0.07365805                0.10672582                0.12599158               -0.02421497                0.02029556
               9.99620991                3.00430559               13.01354507                0.17053429               -0.03207002               -0.13389771                0.10733870                0.14669423               -0.00166886                0.01482572
               0.00301681                4.00040150               13.01163591                0.01000000               -0.02215823               -0.03267369                0.09543132                0.00306307               -0.00185166                0.04881174
               1.00279523                3.99959226               13.01135236                0.01000000               -0.02309113               -0.06815893                0.09427706                0.01310000                0.00358280                0.01638256
               2.00255498                3.99899790               13.01115342                0.01000000               -0.03193370               -0.06920175                0.09454893                0.04361258                0.01666059               -0.00663910
               3.00215655                3.99877080               13.01112156                0.01000001               -0.04861442               -0.06178729                0.09608846                0.08209611                0.03237365               -0.01739451
               4.00158270                3.99894338               13.01127950                0.01000000               -0.06318058               -0.05767192                0.09856420                0.12164411                0.04592240               -0.01622706
               5.00089294                3.99947625               13.01160665                0.01000000               -0.07170884               -0.05809210                0.10149795                0.15413114                0.05464057               -0.00674506
               6.00014852                4.00025784               13.01204594                0.01000000               -0.07605673               -0.06564638                0.10426670                0.18206636                0.05820244                0.00664294
               6.99937181                4.00120757               13.01255139                0.01000000               -0.06570597               -0.07376256                0.10612142                0.19867351                0.05002052                0.02339182
               7.99883440                4.00200492               13.01293725                0.01000001               -0.05070884               -0.09761609                0.10741166                0.22665805                0.03540459                0.02061618
               8.99835763                4.00246839               13.01319058                0.01000000               -0.01921075               -0.11800270                0.10855936                0.16817077                0.01387762                0.04876374
               9.99845019                4.00195505               13.01319071                0.01000001                0.00925571               -0.17669348                0.10869854                0.12866939                0.00616227                0.02429669
               0.00414905                5.00007938               13.01217812                0.01000001               -0.02326305               -0.04826354                0.09884864                0.03415832               -0.00096967                0.06511513
               1.00391641                4.99886110               13.01167502                0.01000000               -0.02522236               -0.07342658                0.09646570                0.06029742                0.00588920                0.01493081
               2.00364460                4.99824373               13.01127606                0.01000001               -0.03751825               -0.07424130                0.09566001                0.08561270                0.02190571               -0.01549265
               3.00316605                4.99808888               13.01111781                0.01000000               -0.05332439               -0.07214377                0.09674747                0.11900646                0.04252090               -0.02222603
               4.00257811                4.99830684               13.01123047                0.01000000               -0.06399859               -0.06541989                0.09919963                0.14478843                0.06151674               -0.01495978
               5.00188608                4.99883706               13.01156332                0.01000000               -0.06993166               -0.06545405                0.10249064                0.16415186                0.07456260                0.00112741
               6.00117948                4.99955639               13.01205618                0.01006832               -0.06510293               -0.07263843                0.10606883                0.17279092                0.07991416                0.02308049
               7.00058402                5.00031325               13.01260174                0.01001059               -0.05193998               -0.09011346                0.10939900                0.17374822                0.07665185                0.04559142
               8.00014068                5.00096476               13.01309247                0.01000000               -0.03200608               -0.10627722                0.11222397                0.15432052                0.06228466                0.06891142
               8.99994390                5.00125628               13.01338151                0.01000000               -0.01653446               -0.11462023                0.11350269                0.10926337                0.03713411                0.07958891
               9.99980999                5.00077172               13.01333961                0.01000000               -0.01339093               -0.09026087                0.11272542                0.05452469                0.02271944                0.06727984
               0.00613652                5.99943623               13.01299806                0.90041403               -0.02996996               -0.04773197                0.10271354                0.03345175               -0.00373893                0.04030948
               1.00583682                5.99812372               13.01208579                0.01000000               -0.05485289               -0.05160453                0.09726936                0.06488978                0.00536452                0.00365516
               2.00503947                5.99751308               13.01135543                0.01000001               -0.06816268               -0.08536248                0.09590822                0.12038412                0.02451486               -0.03221643
               3.00447357                5.99732793               13.01110653                0.01000001               -0.06545932               -0.06995977                0.09681583                0.14058758                0.05987816               -0.02784061
               4.00373028                5.99763499               13.01123237                0.01000000               -0.07735720               -0.06643295                0.09985219                0.15833633                0.08419099               -0.01620075
               5.00292643                5.99816717               13.01163880                0.01007003               -0.08010647               -0.06292309                0.10402586                0.15932572                0.10092790                0.00528156
               6.00212815                5.99880507               13.01225612                0.01000001               -0.07440145               -0.06820250                0.10869688                0.14396261                0.11053002                0.03372273
               7.00143840                5.99940530               13.01298220                0.01000000               -0.05751842               -0.08478941                0.11381713                0.11547823                0.10964001                0.06862462
               8.00097778                5.99987938               13.01366942                0.01000000               -0.03512294               -0.10477899                0.11837136                0.08570233                0.09366393                0.10365680
               9.00073594                6.00017599               13.01410411                0.01001295               -0.02339887               -0.10487749                0.12075244                0.04984644                0.05737312                0.13004505
              10.00050980                6.00014983               13.01404717                0.01000002               -0.02261344               -0.05297791                0.11983959                0.02513730                0.03374224                0.13071067
               0.00744310                6.99912474               13.01333796                1.00000000               -0.03057294               -0.03140533                0.10469475                0.00025786               -0.00287750                0.01938022
               1.00713737                6.99782901               13.01232277                1.00000000               -0.02975087               -0.02975759                0.09911639               -0.00011123               -0.00601266               -0.00161049
               2.00684808                6.99653648               13.01124561                0.01000000               -0.06407383               -0.06298109                0.09374050                0.09750464                0.03754010               -0.03123365
               3.00585589                6.99668968               13.01110550                0.01000000               -0.09712406               -0.06987657                0.09642236                0.15088740                0.08523213               -0.03366498
               4.00490560                6.99697818               13.01125024                0.01000000               -0.09766900               -0.06388688                0.10042701                0.16449771                0.10718484               -0.02260142
               5.00390251                6.99757860               13.01177289                0.01000001               -0.10425031               -0.04661085                0.10560245                0.15153599                0.13095804                0.00537035
               6.00282059                6.99819234               13.01259153                0.01000000               -0.10416177               -0.04593152                0.11195453                0.10614323                0.14768570                0.03898178
               7.00181927                6.99861746               13.01362923                0.01000000               -0.08682767               -0.06196335                0.11970859                0.04748445                0.15227138                0.08220576
               8.00108404                6.99886918               13.01468645                0.01000000               -0.05744498               -0.09026166                0.12675944               -0.00375933                0.13503567                0.14429803
               9.00067037                6.99915873               13.01545996                0.01000000               -0.03594918               -0.10452582                0.13142202               -0.01992274                0.08381796                0.19652489
              10.00036505                6.99971216               13.01551062                0.01000000               -0.03053208               -0.05343932                0.13098571               -0.01710508                0.04752703                0.22938129
               0.00873313                7.99880813               13.01373852                0.99999999               -0.03102733               -0.03191339                0.10627304                0.00022701               -0.00081294                0.02276174
               1.00842286                7.99752857               13.01263110                1.00000000               -0.03021216               -0.03027290                0.10078654               -0.00002810               -0.00037555                0.00263439
               2.00812889                7.99625345               13.01153334                0.01000000               -0.06866209               -0.02854599                0.09529458                0.04731861                0.03051734               -0.01544870
               3.00704962                7.99593039               13.01104748                0.01000001               -0.09987880               -0.09889925                0.09784279                0.16792571                0.08000218               -0.06980348
               4.00613131                7.99635725               13.01120747                0.01000001               -0.11533156               -0.04129951                0.09994098                0.18414298                0.13177863               -0.02833286
               5.00474299                7.99723495               13.01191741                0.01000000               -0.14595807               -0.01411149                0.10678560                0.14143298                0.16293092                0.00324604
               6.00321215                7.99788644               13.01296808                0.01000000               -0.15158713               -0.01268793                0.11510207                0.07027749                0.18413008                0.03656293
               7.00171124                7.99816604               13.01437858                0.01000000               -0.14254126               -0.02253644                0.12533805               -0.01052105                0.21063447                0.07916260
               8.00036133                7.99807415               13.01619843                0.01000000               -0.11083695               -0.04822666                0.13783064               -0.09380874                0.20197178                0.15143186
               8.99949450                7.99808547               13.01761492                0.01000007               -0.06502415               -0.09344093                0.14686425               -0.14620156                0.13400608                0.34510289
               9.99906084                7.99908104               13.01816594                0.01000000               -0.04336608               -0.13502450                0.14949490               -0.10805317                0.08902426                0.34260276
               0.01000674                8.99848647               13.01414635                1.00000000               -0.03152661               -0.03241050                0.10787590                0.00023329                0.00230650                0.01832574
               1.00969148                8.99722355               13.01295603                0.99999999               -0.03070569               -0.03071908                0.10235124               -0.00001079                0.00123110                0.00207782
               2.00939263                8.99596556               13.01174495                0.99998837               -0.02904337               -0.02904376                0.09679348               -0.00003288               -0.00493454               -0.01142883
               3.00911061                8.99471170               13.01043483                0.01000000               -0.10543625               -0.07470163                0.09118026                0.17449748                0.09361303               -0.05865306
               4.00728390                8.99615219               13.01120098                0.01000000               -0.19543144                0.01429903                0.09973198                0.17657588                0.18043402               -0.02303330
               5.00520198                8.99729637               13.01202700                0.01000000               -0.19944254                0.01896052                0.10718810                0.09678465                0.18121710                0.00244680
               6.00329505                8.99793858               13.01325467                0.01010987               -0.18904164                0.01475159                0.11670543                0.03620836                0.20817039                0.02396712
               7.00142115                8.99816674               13.01498186                0.01000000               -0.20033133                0.01073316                0.12889770               -0.02207446                0.25401719                0.05064280
               7.99928843                8.99790465               13.01741547                0.01000001               -0.23408507                0.01068289                0.14613177               -0.09642002                0.38242961                0.10628026
               8.99673945                8.99728991               13.02201019                0.99999998               -0.15377875               -0.06612284                0.17727623               -0.16912633                0.23608017                0.22975351
               9.99621285                8.99701167               13.02186090                0.99999996               -0.05265946               -0.12916185                0.17336790               -0.15632704               -0.00100065                0.19261397
               0.01126363                9.99815991               13.01445840                1.00000000               -0.03200753               -0.03265553                0.10945532                0.00111636                0.01265354                0.01356917
               1.01094355                9.99691419               13.01325600                1.00000000               -0.03117704               -0.03093637                0.10392522                0.00084107                0.01588832                0.00072327
               2.01064009                9.99567258               13.01211865                0.99999998               -0.02953093               -0.02929799                0.09838978                0.00085469                0.01590692               -0.00356057
               3.01035294                9.99443636               13.01091960                0.01000000               -0.17809669               -0.02753342                0.09285512                0.17276533                0.08938508               -0.00414409
               4.00707816                9.99664323               13.01125744                0.01000002               -0.27303245                0.04910411                0.09891787                0.13831506                0.15081131               -0.01068920
               5.00489229                9.99761416               13.01207485                0.01000000               -0.20061001                0.03177874                0.10675265                0.04594278                0.17240704                0.00659540
               6.00306596                9.99818147               13.01329956                0.01000002               -0.17943008                0.02428904                0.11613119                0.01541735                0.20417689                0.01798757
               7.00130369                9.99838070               13.01508980                0.01000001               -0.18781039                0.02139652                0.12828936               -0.00642951                0.27452920                0.03109183
               7.99930975                9.99828780               13.01796776                0.01000000               -0.21493653                0.03831547                0.14901602               -0.07875197                0.36495670                0.08003985
               8.99700495                9.99676302               13.02183285                0.99999996               -0.14094806               -0.05268963                0.17355064               -0.06294890                0.20195035                0.00123130
               9.99649079                9.99649781               13.02168357                0.99998709               -0.05141685               -0.05138646                0.16964419                0.00127253                0.00111119               -0.00110958
               0.00130921                0.00178179               14.01154523                1.00000000               -0.02499138               -0.02500360                0.08308253                0.00015878               -0.00365690                0.00341105
               1.00105930                0.00117828               14.01151728                1.00000000               -0.02505995               -0.02515076                0.08355852                0.00007679               -0.00407155               -0.00107707
               2.00080801                0.00057653               14.01148297                0.01000000               -0.01614385               -0.02529818                0.08403467                0.00829697                0.02690396               -0.00170390
               3.00073642                0.00014108               14.01207551                0.01000000               -0.00935056               -0.02875479                0.09168261                0.00212462                0.06908567               -0.00641288
               4.00062100                0.00028739               14.01282419                0.01000001               -0.01953363               -0.02618965                0.09866150                0.01796707                0.09387734               -0.01152327
               5.00034575                0.00111163               14.01388527                0.01000002               -0.05411467               -0.02508546                0.10568010                0.05261958                0.12829415               -0.01684852
               5.99953871                0.00290611               14.01536850                0.36576444               -0.05740879               -0.03378506                0.11389782                0.05076231                0.07973937               -0.00099612
               6.99919757                0.00367884               14.01574118                1.00000000               -0.03444377               -0.03416692                0.11557638                0.00006773                0.01573160               -0.00376975
               7.99884983                0.00444263               14.01594066                0.99999999               -0.03489225               -0.03438547                0.11628344                0.00013787                0.00838529               -0.00044019
               8.99849973                0.00519643               14.01616474                0.99999316               -0.03514470               -0.03462609                0.11709771                0.00013312                0.00769416                0.00090048
               9.99814694                0.00593992               14.01634979                1.00000000               -0.03527889               -0.03487326                0.11791088                0.00065571                0.00571877                0.00524095
               0.00191432                1.00153176               14.01159455                1.00000000               -0.02516179               -0.02508334                0.08363274                0.00008798                0.00101718                0.00367960
               1.00166270                1.00092677               14.01156789                0.01000000               -0.02523679               -0.02523612                0.08410855                0.00000574                0.00267785               -0.00280228
               2.00140958                1.00032355               14.01157448                0.01000000               -0.03802312               -0.03202027                0.08458468               -0.00957330                0.03132626                0.00671962
               3.00090224                0.99985354               14.01211973                0.01000001               -0.05470893               -0.02637118                0.09219179                0.00475067                0.05900251               -0.00925200
               4.00031540                1.00002550               14.01274286                0.01000000               -0.06698241               -0.02481033                0.09795049                0.04009668                0.06920846               -0.01581480
               4.99956259                1.00086077               14.01358114                0.01000000               -0.07763379               -0.02697102                0.10365609                0.08920436                0.09722179               -0.02042030
               5.99876273                1.00256826               14.01491041                0.01000000               -0.05662988               -0.06259568                0.11058861                0.08542608                0.06370256               -0.03304536
               6.99842999                1.00333717               14.01520874                1.00000000               -0.03351544               -0.03365594                0.11216152               -0.00012443                0.00662808               -0.00387039
               7.99809242                1.00409878               14.01539418                0.99999998               -0.03387879               -0.03388951                0.11294532                0.00002681                0.00123910               -0.00035703
               8.99775241                1.00485017               14.01558392                1.00000000               -0.03412071               -0.03412895                0.11376269                0.00002230                0.00096523                0.00049871
               9.99741000                1.00559119               14.01576415                1.00000000               -0.03424111               -0.03437666                0.11457722                0.00051450                0.00042184                0.00650626
               0.00252095                2.00128013               14.01165070                0.01000000               -0.02533243               -0.04025656                0.08418315               -0.02590554                0.00154864                0.02378346
               1.00226762                2.00067356               14.01158445                0.01000000               -0.04155824               -0.03967646                0.08465870               -0.03057708                0.01742713                0.01444990
               2.00168978                1.99993613               14.01183388                0.01000001               -0.05690684               -0.04174501                0.08959596               -0.01863995                0.03249962                0.00733442
               3.00112949                1.99961366               14.01210520                0.01000000               -0.06370409               -0.03257105                0.09323862                0.02720592                0.03958826               -0.01176774
               4.00041570                1.99979119               14.01255525                0.01000000               -0.07712049               -0.03013943                0.09759836                0.07855003                0.05152118               -0.01998530
               4.99958708                2.00057221               14.01317109                0.01000001               -0.08224336               -0.03827013                0.10185717                0.12200129                0.05438529               -0.02455812
               5.99877083                2.00165420               14.01380902                0.01000001               -0.09612540               -0.07212895                0.10535640                0.14490868                0.06166029               -0.04664037
               6.99766457                2.00300572               14.01467250                0.01000001               -0.07167307               -0.05789146                0.10877075                0.09609416                0.02979666               -0.01887376
               7.99733737                2.00376484               14.01484869                0.04958872               -0.03284032               -0.03288783                0.10959548                0.00088469               -0.00604373                0.00964807
               8.99700776                2.00451385               14.01499547                0.99999999               -0.03310929               -0.03312724                0.11044329                0.00003115               -0.00441553               -0.00192202
               9.99667519                2.00525239               14.01520537                1.00000000               -0.03325756               -0.03339011                0.11125731                0.00051711               -0.00136903                0.00646707
               0.00260935                3.00072663               14.01210176                0.01000001               -0.02141897               -0.04406910                0.09031028               -0.02086464                0.00194067                0.04624080
               1.00239516                3.00013324               14.01197867                0.01000001               -0.02563356               -0.06120629                0.09057770               -0.02123268                0.00730486                0.02605847
               2.00209668                2.99948865               14.01195512                0.01000000               -0.04019335               -0.05657095                0.09205831                0.01123502                0.02042011               -0.00102465
               3.00159129                2.99920212               14.01209080                0.01000000               -0.05844100               -0.05037583                0.09469995                0.06151695                0.03359175               -0.01352915
               4.00092786                2.99942271               14.01237841                0.01000001               -0.07258427               -0.04621193                0.09776671                0.11424329                0.04348346               -0.01805356
               5.00013961                3.00009537               14.01280147                0.01000000               -0.08502354               -0.05220968                0.10093168                0.15896486                0.04998118               -0.01717671
               5.99922739                3.00112568               14.01333163                0.01000001               -0.09491885               -0.06003159                0.10372281                0.17889406                0.04772028               -0.00926420
               6.99824123                3.00217934               14.01383904                0.01000000               -0.13127023               -0.07304824                0.10563468                0.20421575                0.04734882               -0.01253312
               7.99660198                3.00344102               14.01450249                0.01000000               -0.09878697               -0.06617198                0.10017812                0.17707898               -0.00036436                0.01238906
               8.99626549                3.00418762               14.01436747                0.01000000               -0.03293573               -0.07914098                0.10713851                0.14240860               -0.02096047                0.02286882
               9.99594327                3.00492339               14.01462134                0.18322124               -0.03222226               -0.14695547                0.10792824                0.16565259               -0.00167142                0.01719368
               0.00329043                4.00039875               14.01258804                0.01000000               -0.02094781               -0.03394443                0.09504316                0.00754070               -0.00131416                0.05291407
               1.00308095                3.99944943               14.01229360                0.01000000               -0.02224080               -0.07480855                0.09401155                0.02269239                0.00482842                0.01836703
               2.00284561                3.99880471               14.01209774                0.01000000               -0.03275915               -0.07534099                0.09432530                0.06091073                0.01922702               -0.00583448
               3.00242576                3.99860614               14.01208135                0.01000001               -0.05191484               -0.06656105                0.09590127                0.10497686                0.03597041               -0.01688311
               4.00180731                3.99886695               14.01226406                0.01000000               -0.06811803               -0.06207525                0.09834803                0.14890027                0.05006637               -0.01528296
               5.00106340                3.99952801               14.01261992                0.01000001               -0.07712842               -0.06291741                0.10121497                0.18390990                0.05886105               -0.00487863
               6.00026474                4.00045356               14.01308789                0.01000000               -0.08149298               -0.07173372                0.10404349                0.21290905                0.06173914                0.00968684
               6.99943354                4.00154475               14.01361114                0.01001013               -0.06970373               -0.08051212                0.10586711                0.22922387                0.05298991                0.02786079
               7.99887067                4.00244140               14.01401662                0.01000002               -0.05299885               -0.10694646                0.10792008                0.25836819                0.03725560                0.03027185
               8.99837357                4.00293103               14.01427687                0.01000000               -0.01769801               -0.12887643                0.10877945                0.19042550                0.01502006                0.05520981
               9.99851671                4.00231328               14.01428034                0.01005758                0.01431424               -0.19478539                0.10919922                0.14554133                0.00732573                0.02938535
               0.00465879                5.00004774               14.01316485                0.01000000               -0.02157479               -0.05735045                0.09855480                0.04633909               -0.00013547                0.06852778
               1.00444305                4.99863707               14.01263902                0.01000000               -0.02503074               -0.08103861                0.09639782                0.07961592                0.00755727                0.01533764
               2.00415818                4.99798183               14.01223265                0.01000001               -0.04072297               -0.08027010                0.09568212                0.10924564                0.02510749               -0.01578418
               3.00362859                4.99787089               14.01208545                0.01000000               -0.05870919               -0.07773294                0.09679074                0.14640587                0.04704368               -0.02238264
               4.00298399                4.99818120               14.01222197                0.01000001               -0.06986979               -0.07022059                0.09915402                0.17415656                0.06690967               -0.01405224
               5.00223119                4.99883702               14.01258816                0.01000000               -0.07575844               -0.07048255                0.10237063                0.19429018                0.08018450                0.00335473
               6.00146883                4.99969101               14.01311309                0.01000000               -0.06966598               -0.07856309                0.10571268                0.20206439                0.08535979                0.02705630
               7.00083787                5.00056910               14.01369299                0.01000000               -0.05428772               -0.09781211                0.10934293                0.20092658                0.08131285                0.05246456
               8.00038307                5.00130209               14.01421299                0.01000000               -0.03178740               -0.11543002                0.11203328                0.17689107                0.06623424                0.07700888
               9.00020212                5.00161009               14.01451712                0.01000000               -0.01467380               -0.12401504                0.11357489                0.12435708                0.03949309                0.08839665
              10.00008960                5.00102768               14.01446848                0.01000000               -0.01125272               -0.09655043                0.11305793                0.06183848                0.02399280                0.07492101
               0.00703854                5.99925174               14.01402423                0.88655856               -0.02993679               -0.05535221                0.10246550                0.04759459               -0.00374039                0.04178622
               1.00673917                5.99782866               14.01305974                0.01000000               -0.06209220               -0.05523104                0.09746976                0.08276491                0.00733230                0.00359853
               2.00579670                5.99719930               14.01231608                0.01000001               -0.07923343               -0.09273523                0.09629469                0.14620183                0.02855675               -0.03422185
               3.00515451                5.99705148               14.01207543                0.01000001               -0.07361908               -0.07492459                0.09709501                0.16816642                0.06571852               -0.02858122
               4.00432432                5.99746254               14.01223208                0.01000000               -0.08575496               -0.07095868                0.10005229                0.18753170                0.09122522               -0.01550146
               5.00343941                5.99811836               14.01267657                0.01000000               -0.08751807               -0.06713719                0.10387327                0.18758827                0.10857046                0.00753779
               6.00257396                5.99888230               14.01333947                0.01000007               -0.07992080               -0.07291002                0.10860680                0.16942107                0.11859001                0.03846496
               7.00184099                5.99958851               14.01411831                0.01000000               -0.06032302               -0.09084945                0.11383796                0.13628351                0.11762577                0.07605337
               8.00136750                6.00013280               14.01485242                0.01000000               -0.03529353               -0.11204623                0.11825833                0.10082650                0.10001990                0.11357993
               9.00113512                6.00045073               14.01531073                0.01000002               -0.02245932               -0.11137966                0.12066079                0.05807304                0.06093271                0.14162157
              10.00091831                6.00038227               14.01524524                0.01000002               -0.02168115               -0.05344597                0.12003146                0.02897969                0.03559567                0.14205592
               0.00845684                6.99894069               14.01438443                1.00000000               -0.03060669               -0.03139777                0.10461401                0.00024444               -0.00296077                0.01968462
               1.00815078                6.99753245               14.01331593                1.00000000               -0.02987272               -0.02991558                0.09954107               -0.00017909               -0.00599751               -0.00135169
               2.00785939                6.99612712               14.01218777                0.01000001               -0.07110472               -0.06790853                0.09474686                0.11482780                0.04154688               -0.03299107
               3.00672868                6.99637240               14.01207479                0.01000000               -0.10958177               -0.07537325                0.09733760                0.17692239                0.09305263               -0.03482518
               4.00566775                6.99676203               14.01225685                0.01000002               -0.10827448               -0.06833656                0.10082311                0.19226115                0.11612822               -0.02277761
               5.00456319                6.99749428               14.01282762                0.01000000               -0.11403281               -0.04873455                0.10579045                0.17736433                0.14129336                0.00720725
               6.00338710                6.99823280               14.01371055                0.01000000               -0.11250741               -0.04775965                0.11217346                0.12645059                0.15849158                0.04393273
               7.00231304                6.99875211               14.01482629                0.01000000               -0.09248555               -0.06475875                0.11942794                0.06055361                0.16321330                0.09019593
               8.00153739                6.99906117               14.01595269                0.01000000               -0.05994646               -0.09468312                0.12650120                0.00227337                0.14432218                0.15661132
               9.00111411                6.99938250               14.01677322                0.01000000               -0.03656396               -0.10865666                0.13132219               -0.01838348                0.08935348                0.21227214
              10.00080611                6.99995876               14.01682047                0.01000001               -0.03080080               -0.05173804                0.13123411               -0.01738521                0.05038720                0.24675595
               0.00985992                7.99862378               14.01480108                0.99999999               -0.03107578               -0.03194064                0.10627462                0.00020037               -0.00079838                0.02280958
               1.00954916                7.99723035               14.01364108                1.00000000               -0.03033090               -0.03043020                0.10123940               -0.00006693               -0.00037649                0.00267069
               2.00925330                7.99584113               14.01249074                0.01000007               -0.07455576               -0.02883731                0.09620979                0.05428788                0.03398640               -0.01557510
               3.00805805                7.99554402               14.01202196                0.01000000               -0.11028183               -0.10959065                0.09750212                0.19361484                0.08905385               -0.07512337
               4.00704767                7.99609581               14.01221112                0.01000002               -0.12710637               -0.04330368                0.10071640                0.21250140                0.14225137               -0.02904048
               5.00551592                7.99714367               14.01298736                0.01000000               -0.16012647               -0.01239046                0.10724165                0.16394111                0.17508691                0.00492037
               6.00384514                7.99792711               14.01412053                0.01000000               -0.16461085               -0.01069235                0.11531802                0.08394064                0.19731390                0.04031018
               7.00222370                7.99829334               14.01563152                0.01000003               -0.15312827               -0.02110747                0.12517264               -0.00549010                0.22585173                0.08587766
               8.00078257                7.99823914               14.01757533                0.01000002               -0.11769228               -0.04810905                0.13757608               -0.09686991                0.21642714                0.16392262
               8.99986986                7.99827759               14.01908239                0.01000007               -0.06822420               -0.09427045                0.14659768               -0.15543489                0.14349659                0.37089001
               9.99941809                7.99934751               14.01966110                0.01000000               -0.04517704               -0.13805687                0.14948574               -0.11473073                0.09518443                0.36670825
               0.01124772                8.99830188               14.01522464                1.00000000               -0.03156358               -0.03240649                0.10779182                0.00021273                0.00230025                0.01832310
               1.01093208                8.99692385               14.01398135                0.99999999               -0.03081239               -0.03084595                0.10271611               -0.00003072                0.00120339                0.00202989
               2.01063147                8.99555038               14.01271689                1.00000000               -0.02928893               -0.02930413                0.09759373               -0.00007013               -0.00501465               -0.01154217
               3.01034631                8.99418059               14.01135275                0.01000002               -0.11566706               -0.08211678                0.09239626                0.19963994                0.10040546               -0.06233171
               4.00831813                8.99589596               14.01220295                0.01000000               -0.21677970                0.01922405                0.10052830                0.20246278                0.19329321               -0.02372428
               5.00601071                8.99724647               14.01310328                0.01000000               -0.22009439                0.02472430                0.10781763                0.11110971                0.19409630                0.00361300
               6.00391624                8.99801896               14.01441836                0.01000001               -0.20597492                0.01992139                0.11664829                0.04243393                0.22343035                0.02564564
               7.00189121                8.99832996               14.01626950                0.01000002               -0.21502568                0.01497669                0.12929576               -0.02161543                0.27207779                0.05430093
               7.99961573                8.99809898               14.01887664                0.01000001               -0.24970837                0.01554627                0.14591629               -0.10074415                0.40994425                0.11490207
               8.99689705                8.99749709               14.02377949                0.99999998               -0.16220326               -0.06531502                0.17658598               -0.17925609                0.25327373                0.24652584
               9.99637166                8.99719762               14.02359442                0.99999999               -0.05253816               -0.13324262                0.17333484               -0.16731552               -0.00100136                0.20621213
               0.01262025                9.99797565               14.01555212                1.00000000               -0.03201949               -0.03262301                0.10927948                0.00103025                0.01266035                0.01355518
               1.01230005                9.99661343               14.01429672                1.00000000               -0.03125450               -0.03104186                0.10420022                0.00076676                0.01590290                0.00068483
               2.01199516                9.99525505               14.01310627                0.99999998               -0.02973921               -0.02953269                0.09910485                0.00078131                0.01593099               -0.00360940
               3.01170527                9.99390168               14.01185410                0.01000000               -0.19820567               -0.02789049                0.09401137                0.19715800                0.09509299               -0.00415478
               4.00803104                9.99648029               14.01225214                0.01000003               -0.30450764                0.05843300                0.09993034                0.15811483                0.16213841               -0.01140348
               5.00561511                9.99763816               14.01314895                0.01000000               -0.22103596                0.03916885                0.10761768                0.05270277                0.18466022                0.00733591
               6.00361032                9.99832554               14.01445282                0.01000001               -0.19518732                0.03065793                0.11592586                0.01714383                0.21947635                0.01867947
               7.00171137                9.99859287               14.01637086                0.01000000               -0.20048841                0.02629120                0.12949066               -0.00675819                0.29358288                0.03273785
               7.99960056                9.99855006               14.01945989                0.01000000               -0.22626347                0.04510787                0.14896229               -0.08259617                0.39057332                0.08585139
               8.99718610                9.99697129               14.02356854                0.99999046               -0.14649200               -0.05257965                0.17358606               -0.06446505                0.21591851                0.00123250
               9.99667072                9.99668266               14.02338346                0.99989635               -0.05153829               -0.05149651                0.17033451                0.00104134                0.00111107               -0.00111121
               0.00129821                0.00176384               15.01237802                1.00000000               -0.02508758               -0.02507658                0.08347612                0.00008573               -0.00365700                0.00341120
               1.00104734                0.00111414               15.01235401                1.00000000               -0.02513266               -0.02517281                0.08378670                0.00004959               -0.00407152               -0.00107712
               2.00079556                0.00046523               15.01232363                0.01000035               -0.01455036               -0.02526916                0.08409725                0.01083444                0.03043659               -0.00170392
               3.00075633                0.00003286               15.01299076                0.01000000               -0.00700563               -0.02869667                0.09135661                0.00457290                0.07618887               -0.00586732
               4.00065545                0.00025702               15.01380835                0.01000001               -0.01998684               -0.02517073                0.09816506                0.02309095                0.10087052               -0.01152497
               5.00035659                0.00125593               15.01493930                0.01000000               -0.06256848               -0.02333569                0.10512622                0.06483905                0.13582866               -0.01714883
               5.99940408                0.00337102               15.01650501                0.35058040               -0.06459025               -0.03369911                0.11341274                0.06449177                0.08382702               -0.00096737
               6.99906479                0.00419021               15.01689514                1.00000000               -0.03430672               -0.03407266                0.11519335                0.00007479                0.01610407               -0.00386099
               7.99871794                0.00500137               15.01710257                0.99999999               -0.03483081               -0.03434882                0.11608576                0.00016685                0.00834888               -0.00044680
               8.99836817                0.00580296               15.01733571                1.00000000               -0.03514007               -0.03464608                0.11709141                0.00016216                0.00771761                0.00090445
               9.99801514                0.00659471               15.01752980                1.00000000               -0.03530302               -0.03495293                0.11809584                0.00066299                0.00574061                0.00525493
               0.00194876                1.00151307               15.01243131                1.00000000               -0.02516278               -0.02511157                0.08371941                0.00003936                0.00101719                0.00367992
               1.00169713                1.00086242               15.01240859                0.01000000               -0.02521080               -0.02521139                0.08402994                0.00000312                0.00267800               -0.00280230
               2.00144454                1.00021254               15.01241910                0.01000000               -0.03954849               -0.03242947                0.08434062               -0.00793750                0.03488898                0.00898773
               3.00090616                0.99974589               15.01303954                0.01000001               -0.05848631               -0.02614472                0.09176448                0.01001290                0.06526614               -0.00846955
               4.00027482                1.00000531               15.01371982                0.01000000               -0.07290900               -0.02400691                0.09744246                0.05090653                0.07450004               -0.01561670
               4.99944798                1.00102257               15.01461519                0.01000000               -0.08464841               -0.02656442                0.10316217                0.10872347                0.10290316               -0.02054617
               5.99858185                1.00303402               15.01601455                0.01000000               -0.05988132               -0.06902756                0.11024704                0.10286225                0.06711074               -0.03403055
               6.99825036                1.00384949               15.01632925                1.00000000               -0.03343065               -0.03358196                0.11192085               -0.00011214                0.00698272               -0.00393724
               7.99791324                1.00465788               15.01652342                0.99999999               -0.03386182               -0.03387402                0.11289139                0.00002773                0.00123853               -0.00036258
               8.99757312                1.00545650               15.01672224                1.00000000               -0.03416108               -0.03417004                0.11389952                0.00002236                0.00098511                0.00051166
               9.99723002                1.00624518               15.01691152                0.99999463               -0.03431043               -0.03447785                0.11490530                0.00049274                0.00043818                0.00652246
               0.00260031                2.00126160               15.01249143                0.01000001               -0.02523805               -0.03963727                0.08396271               -0.02489276                0.00154874                0.02662028
               1.00234793                2.00060992               15.01242910                0.01000000               -0.04234880               -0.04130611                0.08427309               -0.02992735                0.01969560                0.01722335
               2.00175333                1.99981664               15.01272783                0.01000001               -0.05920567               -0.04345666                0.08921952               -0.01486642                0.03656491                0.01064645
               3.00116381                1.99950996               15.01303534                0.01000000               -0.06782190               -0.03339974                0.09277196                0.03861201                0.04340720               -0.01048549
               4.00039689                1.99977688               15.01352879                0.01000000               -0.08307333               -0.03074601                0.09710719                0.09747642                0.05555831               -0.01932447
               4.99950235                2.00072464               15.01418727                0.01000001               -0.08812447               -0.04080154                0.10141875                0.14649533                0.05783451               -0.02428583
               5.99863440                2.00199046               15.01486101                0.01000000               -0.10318310               -0.08144342                0.10504274                0.16991970                0.06465970               -0.04748674
               6.99743869                2.00351858               15.01575981                0.01000003               -0.07614594               -0.06251439                0.10866972                0.11084119                0.03112230               -0.01883631
               7.99711149                2.00432389               15.01594514                0.05347113               -0.03286849               -0.03304704                0.10968502                0.00101822               -0.00600607                0.00677329
               8.99678132                2.00511956               15.01610129                0.99999999               -0.03319307               -0.03320919                0.11072309                0.00003446               -0.00438016               -0.00189395
               9.99644762                2.00590516               15.01632024                0.99999998               -0.03336915               -0.03353456                0.11172856                0.00049624               -0.00135351                0.00647986
               0.00275428                3.00072032               15.01300319                0.01000001               -0.02107355               -0.04324541                0.09000313               -0.01944869                0.00263815                0.05174436
               1.00254355                3.00003629               15.01288277                0.01000001               -0.02535573               -0.06553342                0.09024471               -0.01713747                0.00861482                0.03031583
               2.00224717                2.99934341               15.01287382                0.01000000               -0.04126916               -0.06064767                0.09167953                0.02200264                0.02294195                0.00091214
               3.00171817                2.99907790               15.01303583                0.01000000               -0.06187498               -0.05357366                0.09430135                0.07964026                0.03688820               -0.01221056
               4.00100967                2.99939039               15.01335442                0.01000001               -0.07769294               -0.04913587                0.09741671                0.13886011                0.04698826               -0.01701407
               5.00016431                3.00020654               15.01380872                0.01000000               -0.09116798               -0.05663264                0.10053561                0.18793729                0.05346456               -0.01623943
               5.99918631                3.00140516               15.01436759                0.01000000               -0.10152755               -0.06601738                0.10348133                0.20751671                0.05017326               -0.00762665
               6.99813376                3.00259920               15.01489473                0.01000000               -0.14268453               -0.08038678                0.10528344                0.23279904                0.04598004               -0.01117975
               7.99633262                3.00399694               15.01550876                0.01000007               -0.10706058               -0.07120169                0.10324844                0.19977090               -0.00043228                0.01484066
               8.99599254                3.00479231               15.01544095                0.01000000               -0.03319366               -0.08483072                0.10756106                0.15952710               -0.01803800                0.02531209
               9.99566875                3.00557449               15.01570363                0.19731209               -0.03237977               -0.16047718                0.10854262                0.18532416               -0.00167348                0.01942724
               0.00357940                4.00039670               15.01353678                0.01000000               -0.01973018               -0.03532920                0.09473520                0.01244057               -0.00087557                0.05730769
               1.00338210                3.99929925               15.01323259                0.01000000               -0.02138079               -0.08172885                0.09381645                0.03316032                0.00596579                0.02080767
               2.00315178                3.99860369               15.01303993                0.01000000               -0.03362305               -0.08168515                0.09413867                0.07961977                0.02163506               -0.00458216
               3.00270963                3.99843849               15.01303959                0.01000001               -0.05531657               -0.07153769                0.09572782                0.12949564                0.03935749               -0.01595532
               4.00204545                3.99879416               15.01324646                0.01000000               -0.07316531               -0.06663063                0.09813991                0.17787113                0.05396729               -0.01411167
               5.00124633                3.99959199               15.01363095                0.01000001               -0.08266854               -0.06795163                0.10095351                0.21551467                0.06278310               -0.00293231
               6.00039208                4.00067012               15.01412681                0.01000000               -0.08717236               -0.07796106                0.10376633                0.24571901                0.06497035                0.01277494
               6.99950288                4.00191084               15.01466874                0.01000007               -0.07391451               -0.08719116                0.10578864                0.26031795                0.05557184                0.03248857
               7.99891379                4.00289986               15.01509565                0.01000000               -0.05542874               -0.11639017                0.10771449                0.29103585                0.03936246                0.03851250
               8.99839431                4.00342294               15.01536617                0.01000000               -0.01620188               -0.14009819                0.10916257                0.21407398                0.01623382                0.06114107
               9.99858975                4.00269561               15.01537470                0.01000002                0.01954454               -0.21346255                0.10968221                0.16318559                0.00840900                0.03423013
               0.00519799                5.00001374               15.01414922                0.01000005               -0.01982314               -0.06721607                0.09843283                0.05936232                0.00058986                0.07214502
               1.00499976                4.99840172               15.01360297                0.01000000               -0.02488358               -0.08902314                0.09649656                0.10027454                0.00903443                0.01617978
               2.00470032                4.99770970               15.01318970                0.01000001               -0.04410793               -0.08650842                0.09580163                0.13442793                0.02796568               -0.01558322
               3.00411760                4.99764714               15.01305362                0.01000000               -0.06433639               -0.08357650                0.09690605                0.17551907                0.05098999               -0.02185998
               4.00341359                4.99805778               15.01321355                0.01000001               -0.07594787               -0.07520446                0.09911015                0.20542796                0.07183850               -0.01287068
               5.00259865                4.99884751               15.01361074                0.01000000               -0.08158780               -0.07567666                0.10220877                0.22661325                0.08547569                0.00579354
               6.00178184                4.99984594               15.01417044                0.01000001               -0.07441355               -0.08466056                0.10566964                0.23369989                0.09095013                0.03133997
               7.00111037                5.00085538               15.01478860                0.01000001               -0.05703030               -0.10588814                0.10957199                0.22991450                0.08661091                0.05898321
               8.00064123                5.00166914               15.01533314                0.01000000               -0.03160540               -0.12442884                0.11206531                0.20034711                0.07044025                0.08440200
               9.00047827                5.00199035               15.01565300                0.01000000               -0.01270555               -0.13353113                0.11365333                0.14017847                0.04181059                0.09685667
              10.00038712                5.00130524               15.01560077                0.01000000               -0.00911460               -0.10283229                0.11345231                0.06963646                0.02527776                0.08234051
               0.00799069                5.99905237               15.01504737                0.87030786               -0.02990701               -0.06360781                0.10233501                0.06278528               -0.00366368                0.04344764
               1.00769162                5.99751878               15.01403518                0.01000000               -0.06978896               -0.05905353                0.09779771                0.10177326                0.00915096                0.00386913
               2.00659491                5.99687352               15.01328133                0.01000003               -0.09098412               -0.10038537                0.09682934                0.17340060                0.03224447               -0.03552851
               3.00587194                5.99676696               15.01304843                0.01000000               -0.08206359               -0.08002475                0.09752118                0.19734037                0.07098588               -0.02876850
               4.00495364                5.99729007               15.01323342                0.01000000               -0.09407520               -0.07570971                0.10022487                0.21866142                0.09776294               -0.01454252
               5.00399044                5.99807845               15.01371626                0.01000001               -0.09477166               -0.07177774                0.10400067                0.21814305                0.11599638                0.01030790
               6.00305821                5.99897691               15.01442826                0.01000001               -0.08562343               -0.07779979                0.10884242                0.19622722                0.12642618                0.04324104
               7.00227797                5.99979308               15.01525896                0.01000000               -0.06362256               -0.09736029                0.11400529                0.15827015                0.12480325                0.08354352
               8.00178576                6.00041128               15.01603458                0.01000000               -0.03580980               -0.11953211                0.11798875                0.11707786                0.10588364                0.12331686
               9.00156177                6.00075232               15.01651733                0.01000001               -0.02165290               -0.11789181                0.12071672                0.06695439                0.06442308                0.15289165
              10.00135270                6.00063897               15.01644780                0.01000001               -0.02090724               -0.05369109                0.12041319                0.03322400                0.03760257                0.15327478
               0.00952088                6.99874158               15.01543024                0.99999999               -0.03067987               -0.03141350                0.10468274                0.00022981               -0.00294878                0.02018681
               1.00921408                6.99722065               15.01431359                1.00000000               -0.03003610               -0.03011071                0.10009790               -0.00027717               -0.00590745               -0.00087077
               2.00892016                6.99570200               15.01314054                0.01000000               -0.07831123               -0.07303489                0.09587252                0.13294104                0.04522595               -0.03443831
               3.00764786                6.99604665               15.01305226                0.01000000               -0.12224154               -0.08084964                0.09805863                0.20399799                0.10015753               -0.03544006
               4.00647533                6.99654358               15.01326670                0.01000007               -0.11865907               -0.07298644                0.10109271                0.22113014                0.12422914               -0.02249276
               5.00527468                6.99741195               15.01388870                0.01000001               -0.12417837               -0.05103765                0.10633486                0.20456156                0.15089930                0.00981688
               6.00399176                6.99828994               15.01483500                0.01000000               -0.12166357               -0.04960332                0.11232510                0.14761392                0.16920179                0.04839643
               7.00284140                6.99890817               15.01601779                0.01000000               -0.09841076               -0.06763509                0.11926775                0.07420317                0.17349147                0.09781635
               8.00202354                6.99927850               15.01721647                0.01000000               -0.06258682               -0.09913181                0.12636137                0.00887920                0.15340331                0.16857704
               9.00158967                6.99963251               15.01808640                0.01000000               -0.03726171               -0.11276579                0.13125943               -0.01650906                0.09482131                0.22755213
              10.00127831                7.00023142               15.01813530                0.01000001               -0.03113571               -0.04988566                0.13153749               -0.01738888                0.05341531                0.26361884
               0.01103717                7.99842410               15.01586401                0.99999999               -0.03115000               -0.03198480                0.10635589                0.00016944               -0.00078640                0.02289633
               1.01072567                7.99691657               15.01465588                1.00000000               -0.03047174               -0.03060685                0.10175936               -0.00010361               -0.00039383                0.00272809
               2.01042773                7.99541282               15.01345753                0.01000000               -0.08076778               -0.02914074                0.09717282                0.06170856                0.03678905               -0.01576529
               3.00911031                7.99514997               15.01299752                0.01000007               -0.12083976               -0.12068624                0.09792264                0.22011661                0.09553491               -0.07835988
               4.00801094                7.99583035               15.01322180                0.01000947               -0.13874996               -0.04534506                0.10126686                0.24158232                0.15129741               -0.02941457
               5.00633531                7.99705770               15.01406224                0.01000000               -0.17483340               -0.01024570                0.10773355                0.18741568                0.18580101                0.00700901
               6.00451427                7.99798484               15.01527444                0.01000000               -0.17809190               -0.00853702                0.11523664                0.09941749                0.21009606                0.04404399
               7.00277348                7.99844038               15.01688204                0.01000003               -0.16376356               -0.01973768                0.12517891                0.00034074                0.24032773                0.09309454
               8.00123900                7.99842864               15.01894995                0.01000002               -0.12474039               -0.04801801                0.13736998               -0.09947970                0.23036527                0.17580125
               9.00027867                7.99849701               15.02054687                0.01000001               -0.07159430               -0.09491173                0.14634068               -0.16449577                0.15259860                0.39579043
               9.99980711                7.99964125               15.02115565                0.01000000               -0.04715546               -0.14089355                0.14948668               -0.12134265                0.10114656                0.39010021
               0.01253934                8.99810189               15.01630219                1.00000000               -0.03160471               -0.03240230                0.10772088                0.00018561                0.00228912                0.01828583
               1.01222329                8.99660851               15.01501035                0.99999999               -0.03092029               -0.03097153                0.10308246               -0.00004565                0.00116041                0.00194921
               2.01192093                8.99511918               15.01369682                1.00000000               -0.02953124               -0.02955939                0.09838839               -0.00009952               -0.00512395               -0.01170066
               3.01163267                8.99363292               15.01228275                0.01000000               -0.12608468               -0.08997010                0.09360543                0.22580586                0.10668615               -0.06541829
               4.00939924                8.99563668               15.01321154                0.01000000               -0.23820857                0.02432134                0.10117481                0.22946250                0.20519393               -0.02427717
               5.00686850                8.99720704               15.01418335                0.01000000               -0.24009015                0.03059122                0.10815091                0.12660042                0.20629884                0.00468366
               6.00459744                8.99811920               15.01558764                0.01000001               -0.22320401                0.02506423                0.11727786                0.05128429                0.23835953                0.02784225
               7.00240441                8.99851342               15.01756777                0.01000002               -0.23100577                0.01961853                0.12981017               -0.02031292                0.29032647                0.05907933
               7.99997732                8.99831814               15.02033380                0.01000001               -0.26586363                0.02048514                0.14570222               -0.10473039                0.43644189                0.12276017
               8.99708714                8.99773428               15.02554191                0.99999998               -0.17071793               -0.06437189                0.17589911               -0.18917543                0.26999799                0.26274318
               9.99656296                8.99741355               15.02532760                0.99999999               -0.05241802               -0.13718789                0.17330003               -0.17827090               -0.00100299                0.21946066
               0.01402764                9.99777606               15.01664399                1.00000000               -0.03201786               -0.03258296                0.10906027                0.00093833                0.01265592                0.01351759
               1.01370746                9.99629714               15.01534000                1.00000000               -0.03131558               -0.03113687                0.10441684                0.00069590                0.01590617                0.00062407
               2.01340133                9.99482163               15.01410075                1.00000000               -0.02992670               -0.02975467                0.09975086                0.00071094                0.01594680               -0.00368051
               3.01310893                9.99335056               15.01279983                0.01000001               -0.21876295               -0.02823573                0.09509132                0.22238305                0.10048075               -0.00416611
               4.00902607                9.99631677               15.01325604                0.01003893               -0.33620609                0.06800888                0.10075218                0.17863119                0.17272997               -0.01190894
               5.00638481                9.99766953               15.01422720                0.01000000               -0.23962458                0.04624859                0.10797376                0.06009874                0.19652589                0.00805265
               6.00423358                9.99848612               15.01561807                0.01000001               -0.21082629                0.03669250                0.11705202                0.02177526                0.23518910                0.01983065
               7.00216828                9.99883275               15.01767961                0.01000000               -0.21550247                0.03193280                0.13075374               -0.00600229                0.31381845                0.03603411
               7.99992353                9.99883835               15.02094701                0.01000001               -0.23842672                0.05202107                0.14891922               -0.08653802                0.41515758                0.09125598
               8.99739975                9.99720957               15.02530458                0.99999691               -0.15201855               -0.05247122                0.17362170               -0.06578211                0.22982675                0.00123286
               9.99688316                9.99689750               15.02509026                0.99999236               -0.05165880               -0.05160529                0.17102263                0.00081242                0.00111208               -0.00111186
               0.00128410                0.00174345               16.01321475                1.00000000               -0.02518377               -0.02514955                0.08386946                0.00001264               -0.00365708                0.00341141
               1.00103227                0.00104758               16.01319301                1.00000000               -0.02520534               -0.02519484                0.08401477                0.00002239               -0.00407160               -0.00107712
               2.00078000                0.00035150               16.01316491                0.01000000               -0.01283952               -0.02524021                0.08415999                0.01357046                0.03385261               -0.00170395
               3.00077547               -0.00007383               16.01390264                0.01000000               -0.00450637               -0.02866040                0.09102542                0.00725901                0.08300300               -0.00529050
               4.00068987                0.00023395               16.01478749                0.01000001               -0.02049053               -0.02412222                0.09765544                0.02852352                0.10763365               -0.01150652
               5.00036566                0.00141687               16.01598779                0.01000000               -0.07152303               -0.02149911                0.10456599                0.07771297                0.14318330               -0.01745414
               5.99925941                0.00386769               16.01763675                0.33550893               -0.07217847               -0.03360377                0.11291684                0.07897363                0.08779027               -0.00095866
               6.99892209                0.00473340               16.01804505                1.00000000               -0.03415807               -0.03396374                0.11476217                0.00008367                0.01641179               -0.00395467
               7.99857625                0.00559200               16.01826238                0.99999999               -0.03476222               -0.03430482                0.11586248                0.00019928                0.00831180               -0.00045322
               8.99822685                0.00644146               16.01850657                1.00000000               -0.03513400               -0.03466467                0.11707930                0.00019457                0.00774163                0.00090916
               9.99787357                0.00728157               16.01871171                0.99999999               -0.03532836               -0.03503754                0.11829502                0.00067292                0.00576223                0.00527115
               0.00198010                1.00149195               16.01326893                1.00000000               -0.02516374               -0.02513979                0.08380597               -0.00000927                0.00101727                0.00368014
               1.00172846                1.00079563               16.01324849                0.01000000               -0.02518478               -0.02518663                0.08395128                0.00000042                0.00267816               -0.00280234
               2.00147641                1.00009910               16.01326129                0.01000000               -0.04108123               -0.03285801                0.08409672               -0.00606073                0.03843988                0.01135500
               3.00090684                0.99963956               16.01395502                0.01000001               -0.06233259               -0.02592542                0.09132671                0.01574169                0.07145271               -0.00758763
               4.00022975                0.99999273               16.01469170                0.01000000               -0.07904561               -0.02319264                0.09692996                0.06236894                0.07970993               -0.01534376
               4.99932593                1.00120188               16.01564438                0.01000000               -0.09194367               -0.02619535                0.10265724                0.12923991                0.10852623               -0.02062767
               5.99839088                1.00353165               16.01711535                0.01000001               -0.06325758               -0.07581335                0.10989621                0.12119837                0.07043236               -0.03506221
               6.99806077                1.00439376               16.01744715                1.00000000               -0.03333365               -0.03349419                0.11163580               -0.00009559                0.00727171               -0.00400583
               7.99772421                1.00524895               16.01765201                0.99999995               -0.03383825               -0.03385165                0.11281477                0.00002876                0.00123700               -0.00036741
               8.99738401                1.00609482               16.01786191                1.00000000               -0.03420097               -0.03421039                0.11403433                0.00002275                0.00100555                0.00052536
               9.99704019                1.00693119               16.01806226                0.99999998               -0.03438225               -0.03458463                0.11525174                0.00047042                0.00045467                0.00654005
               0.00267657                2.00124065               16.01332995                0.01001490               -0.02514374               -0.03878933                0.08374244               -0.02353808                0.00154883                0.02958106
               1.00242513                2.00054384               16.01326991                0.01000000               -0.04308602               -0.04297791                0.08388765               -0.02889757                0.02206328                0.02017820
               2.00181485                1.99969434               16.01361827                0.01000001               -0.06142262               -0.04521487                0.08889495               -0.01050707                0.04094288                0.01438254
               3.00119668                1.99940766               16.01396064                0.01000000               -0.07199563               -0.03429550                0.09229679                0.05086857                0.04722154               -0.00900442
               4.00037493                1.99977010               16.01449739                0.01000000               -0.08925666               -0.03139881                0.09666079                0.11751432                0.05954181               -0.01849159
               4.99941154                2.00089296               16.01519947                0.01000001               -0.09417203               -0.04374871                0.10104163                0.17255623                0.06121264               -0.02387669
               5.99849149                2.00235142               16.01590987                0.01000003               -0.11043315               -0.09121503                0.10471746                0.19622555                0.06755099               -0.04836656
               6.99720288                2.00406351               16.01684590                0.01000000               -0.08078635               -0.06734717                0.10852788                0.12612174                0.03244407               -0.01909689
               7.99687577                2.00491496               16.01704239                0.05791339               -0.03289101               -0.03308116                0.10975499                0.00083269               -0.00596734                0.00640824
               8.99654506                2.00575725               16.01720993                0.99999999               -0.03327753               -0.03329161                0.11100515                0.00003798               -0.00434404               -0.00186524
               9.99621022                2.00658988               16.01743994                1.00000000               -0.03348448               -0.03368596                0.11222233                0.00047476               -0.00133758                0.00649291
               0.00290296                3.00071617               16.01390182                0.01003618               -0.02061305               -0.04208916                0.08935782               -0.01777401                0.00321129                0.05726824
               1.00269683                2.99993607               16.01378357                0.01000001               -0.02502534               -0.06992330                0.08980515               -0.01246910                0.00979364                0.03491146
               2.00240245                2.99919480               16.01378872                0.01000000               -0.04241872               -0.06485794                0.09133933                0.03370255                0.02531010                0.00328298
               3.00184845                2.99895365               16.01397682                0.01000000               -0.06538559               -0.05692038                0.09399691                0.09898269                0.04008621               -0.01052929
               4.00109474                2.99936475               16.01432674                0.01005617               -0.08263598               -0.05222535                0.09693632                0.16468074                0.05020035               -0.01568438
               5.00019573                3.00032690               16.01481218                0.01000000               -0.09749490               -0.06128051                0.10011774                0.21848846                0.05644817               -0.01500942
               5.99914484                3.00170735               16.01540126                0.01000000               -0.10880342               -0.07225997                0.10326976                0.23773931                0.05217707               -0.00604251
               6.99801966                3.00304682               16.01594471                0.01000000               -0.15488598               -0.08814250                0.10518127                0.26266205                0.04634576               -0.00982927
               7.99604712                3.00458733               16.01656746                0.01000000               -0.11549029               -0.07638474                0.10544612                0.22334416               -0.00038653                0.01704053
               8.99570986                3.00542898               16.01651870                0.01000002               -0.03313422               -0.09077285                0.10799056                0.17721422               -0.01762376                0.02770170
               9.99538443                3.00625748               16.01679219                0.21163630               -0.03254218               -0.17445667                0.10918306                0.20573051               -0.00167581                0.02152065
               0.00388128                4.00039887               16.01448274                0.01000000               -0.01841652               -0.03680585                0.09428778                0.01765728               -0.00051870                0.06182669
               1.00369711                3.99914538               16.01416993                0.01000000               -0.02049824               -0.08889951                0.09362614                0.04423685                0.00692031                0.02367239
               2.00347131                3.99839718               16.01398051                0.01000000               -0.03453681               -0.08830174                0.09407663                0.09941343                0.02380067               -0.00282070
               3.00300638                3.99826925               16.01399590                0.01005695               -0.05880075               -0.07644003                0.09547606                0.15522496                0.04240679               -0.01458934
               4.00229530                3.99872559               16.01422686                0.01000000               -0.07838293               -0.07139581                0.09778785                0.20835066                0.05736727               -0.01262770
               5.00143872                3.99966735               16.01463899                0.01000000               -0.08844664               -0.07296613                0.10061687                0.24843576                0.06621297               -0.00078620
               6.00052637                4.00090622               16.01516322                0.01000000               -0.09312885               -0.08454939                0.10357502                0.27992207                0.06793296                0.01575844
               6.99957614                4.00230066               16.01572692                0.01000001               -0.07829418               -0.09441379                0.10590306                0.29343871                0.05782487                0.03713790
               7.99896048                4.00338727               16.01617091                0.01000000               -0.05784731               -0.12680654                0.10791026                0.32607416                0.04146104                0.04473720
               8.99841920                4.00394180               16.01646012                0.01000000               -0.01463212               -0.15164546                0.10956854                0.23871613                0.01766152                0.06692670
               9.99866784                4.00310074               16.01647398                0.01000000                0.02486445               -0.23280462                0.11022502                0.18165407                0.00930471                0.03880985
               0.00576308                4.99998005               16.01513351                0.01000000               -0.01798325               -0.07795984                0.09854897                0.07322116                0.00119611                0.07605140
               1.00558325                4.99815808               16.01456895                0.01000000               -0.02481198               -0.09749762                0.09675869                0.12199183                0.01027645                0.01757114
               2.00526684                4.99742876               16.01414868                0.01000001               -0.04793562               -0.09296424                0.09611049                0.16118978                0.03052080               -0.01478640
               3.00462454                4.99742485               16.01402357                0.01000000               -0.07015968               -0.08958852                0.09695968                0.20619137                0.05455426               -0.02103151
               4.00386365                4.99793684               16.01420417                0.01000000               -0.08203601               -0.08035261                0.09901705                0.23795879                0.07622356               -0.01142387
               5.00298382                4.99886758               16.01463233                0.01000000               -0.08768411               -0.08103972                0.10217971                0.26026504                0.09033338                0.00838207
               6.00210997                5.00001636               16.01522648                0.01000007               -0.07882167               -0.09118309                0.10560474                0.26621892                0.09593263                0.03548964
               7.00140739                5.00115854               16.01588443                0.01011753               -0.05912497               -0.11352387                0.10900048                0.25947118                0.09106509                0.06467680
               8.00092747                5.00205120               16.01645430                0.01000000               -0.03183401               -0.13357331                0.11186373                0.22519256                0.07370232                0.09168078
               9.00077071                5.00239607               16.01679019                0.01000000               -0.01139236               -0.14333181                0.11390740                0.15706777                0.04386251                0.10499629
              10.00069962                5.00160138               16.01673753                0.01000000               -0.00710837               -0.10937554                0.11387704                0.07760928                0.02657914                0.08944617
               0.00898964                5.99883967               16.01607093                0.84974655               -0.03014062               -0.07261334                0.10287548                0.07897932               -0.00353651                0.04544229
               1.00868823                5.99719542               16.01501570                0.01000000               -0.07806519               -0.06318746                0.09879267                0.12186466                0.01072205                0.00455572
               2.00742834                5.99653789               16.01425267                0.01000003               -0.10330507               -0.10833059                0.09744376                0.20202255                0.03546454               -0.03616238
               3.00662213                5.99647748               16.01402585                0.01000000               -0.09082947               -0.08551702                0.09804226                0.22808903                0.07563304               -0.02856807
               4.00561175                5.99711854               16.01423657                0.01000000               -0.10288179               -0.08065224                0.10045594                0.25106593                0.10354864               -0.01337943
               5.00456450                5.99804656               16.01475658                0.01000007               -0.10259812               -0.07614713                0.10412574                0.24965369                0.12250809                0.01322786
               6.00355978                5.99908256               16.01551632                0.01000295               -0.09168841               -0.08309037                0.10891249                0.22578497                0.13336985                0.04797906
               7.00273073                6.00003019               16.01639841                0.01000000               -0.06664922               -0.10365924                0.11355311                0.18136319                0.13091716                0.09025995
               8.00222680                6.00071580               16.01721219                0.01000000               -0.03601826               -0.12669296                0.11755646                0.13271733                0.11098372                0.13232704
               9.00201036                6.00107516               16.01772506                0.01000001               -0.02086970               -0.12460383                0.12079801                0.07592187                0.06775131                0.16370474
              10.00180941                6.00091323               16.01765350                0.01000001               -0.02009572               -0.05390496                0.12070153                0.03765727                0.03945224                0.16390391
               0.01063116                6.99852778               16.01647809                0.99999999               -0.03088425               -0.03149590                0.10513233                0.00019547               -0.00290427                0.02089485
               1.01032232                6.99689433               16.01531789                1.00000000               -0.03029621               -0.03036400                0.10093710               -0.00030469               -0.00578317               -0.00020270
               2.01002524                6.99526215               16.01410522                0.01000000               -0.08583229               -0.07841729                0.09711262                0.15196462                0.04842077               -0.03552537
               3.00860568                6.99571451               16.01403596                0.01000000               -0.13546732               -0.08655781                0.09872121                0.23219911                0.10621055               -0.03573225
               4.00731589                6.99632379               16.01427871                0.01000001               -0.12964005               -0.07779337                0.10154810                0.25136378                0.13141691               -0.02194589
               5.00601287                6.99734464               16.01495432                0.01012355               -0.13369275               -0.05286793                0.10615086                0.23227841                0.15854531                0.01258690
               6.00464204                6.99835455               16.01595705                0.01000000               -0.13057363               -0.05136020                0.11205594                0.17040966                0.17793697                0.05274699
               7.00340140                6.99908536               16.01721164                0.01000000               -0.10525988               -0.07124682                0.11954971                0.08933993                0.18304405                0.10521483
               8.00253684                6.99951734               16.01847992                0.01000000               -0.06548445               -0.10389836                0.12629893                0.01584422                0.16176431                0.18013260
               9.00209171                6.99990400               16.01939841                0.01000000               -0.03801097               -0.11686306                0.13115489               -0.01441434                0.09986328                0.24218439
              10.00177662                7.00052328               16.01945122                0.01000001               -0.03150920               -0.04780094                0.13166536               -0.01736899                0.05622989                0.27984834
               0.01226045                7.99820975               16.01692820                0.99999998               -0.03126834               -0.03200785                0.10651229                0.00013996               -0.00077677                0.02301211
               1.01194777                7.99658814               16.01567626                1.00000000               -0.03065028               -0.03078073                0.10234779               -0.00009321               -0.00042051                0.00280378
               2.01164745                7.99496955               16.01443420                0.01000000               -0.08716466               -0.02945033                0.09818708                0.06947649                0.03923364               -0.01598540
               3.01020448                7.99474632               16.01398041                0.01000000               -0.13192750               -0.13222993                0.09872583                0.24763770                0.10143941               -0.08129042
               4.00900890                7.99556267               16.01423646                0.01000000               -0.15125854               -0.04738094                0.10193418                0.27241964                0.15974203               -0.02939143
               5.00717930                7.99698920               16.01514203                0.01000000               -0.18908185               -0.00847282                0.10788058                0.21201997                0.19532372                0.00866693
               6.00522726                7.99805535               16.01642526                0.01000000               -0.19122814               -0.00611931                0.11508996                0.11365136                0.22141458                0.04782812
               7.00335474                7.99860525               16.01813510                0.01000003               -0.17511086               -0.01856935                0.12531438                0.00663322                0.25405021                0.09987976
               8.00172504                7.99863784               16.02032273                0.01000002               -0.13193068               -0.04801009                0.13716582               -0.10168801                0.24345934                0.18722088
               9.00071613                7.99873790               16.02200920                0.01000000               -0.07507952               -0.09548738                0.14612632               -0.17345645                0.16129696                0.41982310
              10.00022345                7.99995721               16.02265083                0.01000000               -0.04926766               -0.14355277                0.14953119               -0.12788827                0.10692832                0.41286905
               0.01387718                8.99788762               16.01737906                1.00000000               -0.03165191               -0.03236726                0.10765634                0.00015360                0.00227700                0.01823707
               1.01356066                8.99627872               16.01604300                0.99999999               -0.03102953               -0.03107661                0.10344333               -0.00004176                0.00111388                0.00185557
               2.01325659                8.99467315               16.01468466                1.00000000               -0.02976772               -0.02979835                0.09917491               -0.00009943               -0.00524291               -0.01187560
               3.01296531                8.99306991               16.01322486                0.01000000               -0.13675889               -0.09810585                0.09481629                0.25290703                0.11245460               -0.06818069
               4.01052141                8.99537617               16.01422644                0.01000000               -0.26023572                0.02952176                0.10182721                0.25773233                0.21629921               -0.02467574
               5.00776059                8.99717518               16.01526630                0.01000000               -0.26111994                0.03611580                0.10870426                0.14301445                0.21766991                0.00549274
               6.00529901                8.99823217               16.01676391                0.01000000               -0.24045052                0.03029617                0.11774132                0.05866095                0.25163744                0.03026258
               7.00295158                8.99871397               16.01886570                0.01000002               -0.24642918                0.02423089                0.12973771               -0.01854834                0.30722158                0.06333119
               8.00037043                8.99855713               16.02179069                0.01000001               -0.28241881                0.02554647                0.14563290               -0.10830081                0.46199812                0.13045298
               8.99730321                8.99799425               16.02729747                0.99999998               -0.17951026               -0.06336419                0.17521562               -0.19908272                0.28606749                0.27836440
               9.99678022                8.99765223               16.02706042                0.99999999               -0.05229812               -0.14110603                0.17326428               -0.18929520               -0.00100460                0.23229963
               0.01548134                9.99756241               16.01773333                0.99999999               -0.03199302               -0.03252159                0.10876931                0.00083659                0.01264822                0.01347624
               1.01516141                9.99596661               16.01638506                0.99999998               -0.03135411               -0.03121025                0.10455054                0.00063373                0.01590923                0.00055731
               2.01485426                9.99437358               16.01510129                1.00000000               -0.03009112               -0.02995639                0.10031138                0.00064671                0.01596385               -0.00376006
               3.01455959                9.99278421               16.01375593                0.01000001               -0.23979923               -0.02857062                0.09607731                0.24840447                0.10550069               -0.00417849
               4.01005828                9.99615311               16.01426718                0.01000656               -0.36879943                0.07769340                0.10149317                0.20005162                0.18241251               -0.01230322
               5.00718360                9.99771151               16.01530843                0.01000000               -0.25982921                0.05363325                0.10848416                0.06770929                0.20748491                0.00881608
               6.00486169                9.99866128               16.01679386                0.01000001               -0.22623976                0.04291106                0.11776380                0.02518543                0.24802807                0.02119858
               7.00265881                9.99908987               16.01898593                0.01000000               -0.22914731                0.03758986                0.13056260               -0.00490313                0.33236648                0.03850636
               8.00027874                9.99914877               16.02243827                0.01003926               -0.25097129                0.05916315                0.14921220               -0.09013106                0.43932264                0.09664740
               8.99763938                9.99747062               16.02704097                0.99999999               -0.15785778               -0.05236339                0.17365861               -0.06706620                0.24322105                0.00123345
               9.99712159                9.99713509               16.02680392                1.00000000               -0.05177906               -0.05171344                0.17170724                0.00058433                0.00111295               -0.00111280
               0.00126854                0.00172370               17.01405541                1.00000000               -0.02527993               -0.02522250                0.08426266               -0.00006035               -0.00365716                0.00341165
               1.00101574                0.00098164               17.01403430                1.00000000               -0.02527802               -0.02521686                0.08424274               -0.00000479               -0.00407181               -0.00107708
               2.00076298                0.00023840               17.01400683                0.01000000               -0.01109646               -0.02521128                0.08422261                0.01641580                0.03715640               -0.00170405
               3.00079381               -0.00017771               17.01481127                0.01000000               -0.00200040               -0.02861530                0.09069284                0.01010171                0.08951922               -0.00469636
               4.00072297                0.00021845               17.01576146                0.01000001               -0.02114104               -0.02299225                0.09713270                0.03423770                0.11414048               -0.01146102
               5.00037099                0.00159367               17.01703062                0.01000001               -0.08101746               -0.01953264                0.10398172                0.09119605                0.15033080               -0.01779425
               5.99910262                0.00439464               17.01876335                0.32070497               -0.08017964               -0.03349799                0.11237762                0.09417231                0.09158929               -0.00095769
               6.99876740                0.00530691               17.01919039                1.00000000               -0.03399846               -0.03383909                0.11427877                0.00009442                0.01663729               -0.00404822
               7.99842265                0.00621305               17.01941982                0.99999999               -0.03468632               -0.03425301                0.11561235                0.00023477                0.00827458               -0.00045955
               8.99807367                0.00711047               17.01967729                1.00000000               -0.03512708               -0.03468234                0.11706252                0.00023008                0.00776657                0.00091395
               9.99772011                0.00799903               17.01989570                0.99999999               -0.03535597               -0.03512822                0.11851186                0.00068578                0.00578470                0.00528742
               0.00200999                1.00147147               17.01410743                1.00000000               -0.02516471               -0.02516801                0.08389243               -0.00005788                0.00101737                0.00368029
               1.00175834                1.00072948               17.01408761                0.01018102               -0.02515876               -0.02516187                0.08387270               -0.00000232                0.00267846               -0.00280230
               2.00150681                0.99998629               17.01410104                0.01000000               -0.04267702               -0.03307661                0.08385307               -0.00374306                0.04197412                0.01384901
               3.00090480                0.99953614               17.01486608                0.01000001               -0.06635766               -0.02571104                0.09088034                0.02187760                0.07752711               -0.00657777
               4.00017966                0.99998853               17.01565842                0.01000000               -0.08549716               -0.02232201                0.09640942                0.07440695                0.08479910               -0.01494105
               4.99919486                1.00139834               17.01666834                0.01000000               -0.09959682               -0.02571834                0.10212744                0.15071291                0.11405818               -0.02065813
               5.99818772                1.00405966               17.01821247                0.01000001               -0.06678596               -0.08287057                0.10950433                0.14032748                0.07364179               -0.03614838
               6.99785914                1.00496852               17.01856197                1.00000000               -0.03322508               -0.03339175                0.11130392               -0.00007476                0.00747929               -0.00407484
               7.99752322                1.00587052               17.01877971                1.00000000               -0.03380800               -0.03382211                0.11271488                0.00002893                0.00123495               -0.00037189
               8.99718298                1.00676365               17.01900292                1.00000000               -0.03424078               -0.03425032                0.11416786                0.00002259                0.00102663                0.00053918
               9.99683841                1.00764775               17.01921656                1.00000000               -0.03445722               -0.03469775                0.11561878                0.00044740                0.00047165                0.00655745
               0.00275137                2.00122034               17.01416628                0.01000000               -0.02504943               -0.03792868                0.08352210               -0.02194103                0.00154889                0.03229946
               1.00250088                2.00047841               17.01410686                0.01000000               -0.04349597               -0.04474893                0.08350239               -0.02746402                0.02455773                0.02320441
               2.00188145                1.99957687               17.01450573                0.01000001               -0.06358806               -0.04697328                0.08800368               -0.00585179                0.04494595                0.01814451
               3.00122912                1.99930807               17.01488127                0.01000000               -0.07662737               -0.03520453                0.09197185                0.06361053                0.05084097               -0.00719085
               4.00034891                1.99977201               17.01546200                0.01000000               -0.09574992               -0.03206483                0.09620473                0.13849444                0.06349507               -0.01759887
               4.99931412                2.00107930               17.01620811                0.01000001               -0.10049570               -0.04657576                0.10055448                0.19945543                0.06457395               -0.02341613
               5.99833899                2.00273723               17.01695536                0.01000000               -0.11795368               -0.10143520                0.10437328                0.22346871                0.07032897               -0.04921255
               6.99695505                2.00463908               17.01793036                0.01000000               -0.08554431               -0.07234633                0.10834503                0.14173549                0.03374301               -0.01916725
               7.99662811                2.00553661               17.01814024                0.06235445               -0.03290789               -0.03306395                0.10980535                0.00070341               -0.00592778                0.00551586
               8.99629689                2.00642547               17.01832140                0.99999999               -0.03336277               -0.03337437                0.11128900                0.00004129               -0.00430716               -0.00183614
               9.99596085                2.00730508               17.01856469                1.00000000               -0.03360372               -0.03384456                0.11273964                0.00045284               -0.00132126                0.00650571
               0.00305503                3.00071290               17.01479035                0.01000000               -0.02024962               -0.04093937                0.08904307               -0.01567638                0.00423566                0.06291130
               1.00285253                2.99983450               17.01467887                0.01000001               -0.02474570               -0.07455489                0.08952506               -0.00721107                0.01116796                0.03994431
               2.00256011                2.99904682               17.01470061                0.01000000               -0.04353328               -0.06947785                0.09114820                0.04589612                0.02776333                0.00599218
               3.00198186                2.99883205               17.01491577                0.01000000               -0.06908972               -0.06040563                0.09369414                0.11913588                0.04305954               -0.00855668
               4.00117832                2.99934724               17.01529315                0.01000002               -0.08815567               -0.05539180                0.09663320                0.19177906                0.05320865               -0.01437903
               5.00021875                3.00046683               17.01581107                0.01000000               -0.10404979               -0.06615943                0.09984957                0.25019147                0.05893266               -0.01325528
               5.99909732                3.00203096               17.01643299                0.01000000               -0.11621392               -0.07885842                0.10297906                0.26892942                0.05434608               -0.00450619
               6.99789447                3.00352160               17.01699836                0.01000000               -0.16732091               -0.09626005                0.10537335                0.29374645                0.04641714               -0.00841510
               7.99575090                3.00520924               17.01761768                0.01000001               -0.12395711               -0.08144235                0.10451624                0.24781338               -0.00010640                0.01930386
               8.99541533                3.00609616               17.01760076                0.01000000               -0.03313348               -0.09677401                0.10842503                0.19545971               -0.01668050                0.02997548
               9.99508823                3.00697086               17.01788729                0.22626149               -0.03270960               -0.18893035                0.10985088                0.22683312               -0.00167782                0.02350881
               0.00419465                4.00040155               17.01542253                0.01000000               -0.01719121               -0.03831585                0.09420180                0.02337592                0.00005085                0.06709186
               1.00402274                3.99898731               17.01510512                0.01000000               -0.01964111               -0.09635616                0.09362171                0.05616741                0.00798004                0.02713518
               2.00380182                3.99818731               17.01492146                0.01000000               -0.03556568               -0.09524992                0.09405170                0.12043300                0.02573078               -0.00043818
               3.00331142                3.99809996               17.01494911                0.01000002               -0.06260578               -0.08177431                0.09545324                0.18241008                0.04505681               -0.01296933
               4.00254971                3.99866418               17.01520222                0.01000000               -0.08385969               -0.07638239                0.09766940                0.24035691                0.06069056               -0.01081929
               5.00163423                3.99975611               17.01564329                0.01000000               -0.09434477               -0.07846351                0.10051770                0.28300668                0.06972149                0.00165834
               6.00066281                4.00116006               17.01619831                0.01000000               -0.09912669               -0.09141657                0.10343044                0.31544162                0.07098353                0.01877408
               6.99965169                4.00271388               17.01678680                0.01000001               -0.08265019               -0.10220910                0.10594438                0.32785432                0.06032432                0.04112523
               7.99900981                4.00390776               17.01725385                0.01000001               -0.06036169               -0.13738863                0.10829012                0.36173621                0.04335749                0.05110777
               8.99844446                4.00448999               17.01755754                0.01000000               -0.01308485               -0.16354159                0.10987670                0.26378341                0.01861034                0.07261319
               9.99874811                4.00352647               17.01757920                0.01000000                0.03036527               -0.25281076                0.11080291                0.20043809                0.01014386                0.04305725
               0.00635102                4.99994658               17.01612020                0.01000001               -0.01609070               -0.08924536                0.09879895                0.08786871                0.00157818                0.08086627
               1.00619012                4.99790737               17.01553815                0.01000000               -0.02474510               -0.10631736                0.09712931                0.14484196                0.01128146                0.01997408
               2.00585612                4.99714182               17.01511191                0.01000001               -0.05184595               -0.09967864                0.09645650                0.18907075                0.03267151               -0.01337925
               3.00515320                4.99719656               17.01499281                0.01000000               -0.07634103               -0.09583772                0.09710857                0.23835185                0.05823054               -0.02017849
               4.00432930                4.99781959               17.01519389                0.01000000               -0.08850981               -0.08581136                0.09919370                0.27225859                0.08042824               -0.00946365
               5.00338300                4.99889756               17.01565433                0.01000000               -0.09404550               -0.08675455                0.10214745                0.29548305                0.09496474                0.01129378
               6.00244839                5.00020263               17.01628253                0.01000001               -0.08395698               -0.09770733                0.10559285                0.30004083                0.10013074                0.03981502
               7.00170386                5.00147741               17.01696861                0.01000000               -0.06194350               -0.12214057                0.10858648                0.29037943                0.09471259                0.07036902
               8.00120952                5.00246147               17.01757041                0.01000000               -0.03157887               -0.14377789                0.11188974                0.25084443                0.07658747                0.09965737
               9.00107228                5.00282533               17.01793115                0.01000000               -0.00927500               -0.15358957                0.11410779                0.17421053                0.04590838                0.11267513
              10.00102402                5.00191465               17.01787831                0.01000000               -0.00482635               -0.11615571                0.11425883                0.08576957                0.02762035                0.09627044
               0.01003043                5.99861664               17.01710488                0.82741814               -0.03061017               -0.08221809                0.10400017                0.09604025               -0.00349868                0.04795857
               1.00972433                5.99686096               17.01601103                0.01000000               -0.08681917               -0.06756742                0.10034087                0.14291333                0.01173205                0.00586602
               2.00829405                5.99619374               17.01523020                0.01000000               -0.11618198               -0.11659317                0.09812784                0.23183114                0.03798206               -0.03616031
               3.00740069                5.99618321               17.01500928                0.01000000               -0.10000825               -0.09095605                0.09852369                0.25997973                0.07968516               -0.02784928
               4.00629389                5.99694795               17.01524254                0.01000000               -0.11199213               -0.08574016                0.10072351                0.28469120                0.10878261               -0.01163829
               5.00516085                5.99802102               17.01579878                0.01000001               -0.11050557               -0.08096580                0.10430398                0.28210972                0.12872868                0.01579440
               6.00408377                5.99920591               17.01660651                0.01000001               -0.09802042               -0.08833429                0.10882755                0.25474153                0.13992435                0.05268264
               7.00320044                6.00027107               17.01753002                0.01000000               -0.07024953               -0.11008149                0.11338032                0.20509237                0.13746880                0.09665851
               8.00267878                6.00103220               17.01838571                0.01000000               -0.03624756               -0.13454281                0.11789165                0.15048335                0.11667631                0.14149707
               9.00247549                6.00141819               17.01893329                0.01000000               -0.01969570               -0.13166331                0.12081319                0.08572537                0.07122861                0.17405998
              10.00228487                6.00120336               17.01886183                0.01000001               -0.01906209               -0.05417956                0.12101664                0.04218036                0.04122881                0.17417483
               0.01178319                6.99830222               17.01753288                0.99999999               -0.03119003               -0.03166342                0.10588830                0.00013392               -0.00299916                0.02154487
               1.01147129                6.99655603               17.01633233                1.00000000               -0.03063433               -0.03067114                0.10201569               -0.00026663               -0.00575040                0.00035644
               2.01117050                6.99480996               17.01508279                0.01000000               -0.09363545               -0.08400344                0.09847149                0.17178118                0.05108397               -0.03611002
               3.00959858                6.99537744               17.01502668                0.01000000               -0.14925973               -0.09239714                0.09946040                0.26154862                0.11163105               -0.03567714
               4.00818531                6.99610478               17.01529766                0.01000001               -0.14156731               -0.08265854                0.10211480                0.28255370                0.13779704               -0.02085106
               5.00676723                6.99727824               17.01601172                0.01000000               -0.14460640               -0.05509793                0.10598310                0.26116440                0.16638581                0.01478364
               6.00529318                6.99843594               17.01707612                0.01000000               -0.13939045               -0.05356859                0.11230884                0.19316320                0.18615843                0.05759506
               7.00397942                6.99927578               17.01840879                0.01000000               -0.11105589               -0.07435797                0.11941466                0.10456198                0.19197938                0.11245275
               8.00307206                6.99977061               17.01974245                0.01000000               -0.06818946               -0.10849559                0.12608561                0.02357879                0.16944597                0.19145653
               9.00261563                7.00019206               17.02070950                0.01000002               -0.03873812               -0.12118942                0.13111310               -0.01192699                0.10470216                0.25631465
              10.00229730                7.00083106               17.02076861                0.01000001               -0.03183357               -0.04569653                0.13184688               -0.01722319                0.05897427                0.29560868
               0.01352550                7.99798337               17.01799426                1.00000000               -0.03142390               -0.03203599                0.10675394                0.00010756               -0.00075534                0.02308571
               1.01321126                7.99624754               17.01670284                1.00000000               -0.03086203               -0.03095995                0.10300755               -0.00005127               -0.00042711                0.00286069
               2.01290826                7.99451367               17.01542127                0.01000000               -0.09372099               -0.02976917                0.09925508                0.07757174                0.04140675               -0.01616680
               3.01133684                7.99433526               17.01497204                0.01000001               -0.14320493               -0.14418236                0.09962020                0.27612562                0.10693260               -0.08375510
               4.01004416                7.99529478               17.01526049                0.01000001               -0.16419284               -0.04961711                0.10268081                0.30411406                0.16776581               -0.02926591
               5.00805298                7.99691906               17.01621985                0.01000000               -0.20473316               -0.00638714                0.10794576                0.23784761                0.20609015                0.01011398
               6.00594950                7.99813454               17.01757624                0.01000000               -0.20479857               -0.00400459                0.11568671                0.13012201                0.23243854                0.05210100
               7.00395701                7.99878391               17.01938832                0.01000000               -0.18577074               -0.01732877                0.12516350                0.01351973                0.26718688                0.10616441
               8.00223408                7.99886229               17.02169327                0.01000002               -0.13902529               -0.04794773                0.13692445               -0.10380246                0.25588417                0.19821981
               9.00117651                7.99899441               17.02346940                0.01000000               -0.07858298               -0.09611330                0.14590365               -0.18248686                0.16959458                0.44301041
              10.00066242                8.00028943               17.02414628                0.01000000               -0.05140840               -0.14622995                0.14957050               -0.13451407                0.11251713                0.43500944
               0.01525701                8.99766150               17.01845532                1.00000000               -0.03170402               -0.03231622                0.10760158                0.00011521                0.00226744                0.01822392
               1.01493997                8.99593683               17.01707922                0.99999999               -0.03113971               -0.03116877                0.10380170               -0.00002486                0.00107543                0.00178456
               2.01463421                8.99421458               17.01568032                1.00000000               -0.02999937               -0.03002445                0.09995476               -0.00007759               -0.00534948               -0.01203127
               3.01433998                8.99249379               17.01417908                0.01000001               -0.14752136               -0.10652021                0.09602771                0.28070379                0.11775114               -0.07063803
               4.01168379                8.99511244               17.01524809                0.01000000               -0.28277786                0.03472222                0.10255809                0.28671822                0.22684373               -0.02519693
               5.00868442                8.99715050               17.01635744                0.01000000               -0.28265045                0.04212591                0.10932869                0.15991234                0.22839490                0.00659033
               6.00603078                8.99835585               17.01794246                0.01000000               -0.25811751                0.03578247                0.11792015                0.06729254                0.26463737                0.03292575
               7.00352207                8.99892921               17.02016252                0.01000002               -0.26226313                0.02892559                0.12969380               -0.01649999                0.32332252                0.06735297
               8.00078551                8.99881166               17.02324646                0.01000001               -0.29916568                0.03069197                0.14546918               -0.11192772                0.48653530                0.13793483
               8.99753876                8.99826980               17.02904622                0.99999998               -0.18842711               -0.06235860                0.17453570               -0.20915919                0.30152943                0.29339225
               9.99701697                8.99790646               17.02879288                0.99999999               -0.05217864               -0.14505898                0.17322735               -0.20047858               -0.00100637                0.24474736
               0.01697715                9.99733705               17.01881937                0.99999999               -0.03194615               -0.03244504                0.10840956                0.00072552                0.01264958                0.01345213
               1.01665769                9.99562416               17.01743101                1.00000000               -0.03137046               -0.03126630                0.10460420                0.00057842                0.01592140                0.00050267
               2.01634974                9.99391318               17.01610698                0.99999999               -0.03023184               -0.03013961                0.10078748                0.00058723                0.01598960               -0.00382917
               3.01605305                9.99220486               17.01472138                0.01038194               -0.26139594               -0.02889366                0.09697003                0.27510920                0.11022648               -0.00419253
               4.01112182                9.99598922               17.01528591                0.01000001               -0.40226125                0.08767824                0.10221182                0.22163956                0.19163332               -0.01255716
               5.00800782                9.99776158               17.01639688                0.01000000               -0.28025909                0.06110834                0.10913319                0.07538854                0.21809703                0.00937349
               6.00551664                9.99885019               17.01797335                0.01000001               -0.24183096                0.04943441                0.11813038                0.02862785                0.26129373                0.02260290
               7.00317120                9.99936242               17.02029087                0.01000000               -0.24308491                0.04332097                0.13057306               -0.00378993                0.35015935                0.04081327
               8.00065494                9.99947613               17.02393125                0.01000000               -0.26363418                0.06644730                0.14932259               -0.09381680                0.46282556                0.10187887
               8.99789852                9.99774723               17.02877775                0.99999999               -0.16377036               -0.05225638                0.17369675               -0.06841775                0.25622568                0.00123406
               9.99737953                9.99738825               17.02852440                1.00000000               -0.05189893               -0.05182080                0.17238836                0.00035746                0.00111396               -0.00111376
               0.00125318                0.00170765               18.01490000                1.00000000               -0.02537625               -0.02529557                0.08465554               -0.00013365               -0.00365756                0.00341188
               1.00099941                0.00091941               18.01487787                1.00000000               -0.02535078               -0.02523872                0.08447059               -0.00003195               -0.00407206               -0.00107698
               2.00074616                0.00012899               18.01484936                0.01000000               -0.00940947               -0.02518242                0.08428537                0.01928642                0.04034188               -0.00170417
               3.00081123               -0.00027738               18.01571650                0.01000000                0.00035804               -0.02846196                0.09035007                0.01296756                0.09572509               -0.00409242
               4.00075332                0.00021080               18.01673014                0.01000001               -0.02204159               -0.02174399                0.09660591                0.04016195                0.12038209               -0.01139154
               5.00037039                0.00178555               18.01806742                0.01000000               -0.09109468               -0.01743213                0.10336981                0.10523844                0.15723591               -0.01814786
               5.99893143                0.00495028               18.01988431                0.30635395               -0.08860131               -0.03336125                0.11175726                0.11005118                0.09518960               -0.00096597
               6.99859837                0.00590927               18.02033062                1.00000000               -0.03382990               -0.03369821                0.11374191                0.00011223                0.01676757               -0.00413886
               7.99825483                0.00686302               18.02057462                0.99999999               -0.03460336               -0.03419319                0.11533508                0.00027327                0.00823764               -0.00046571
               8.99790630                0.00780849               18.02084782                1.00000000               -0.03511922               -0.03469881                0.11704042                0.00026866                0.00779095                0.00091862
               9.99755245                0.00874560               18.02108195                1.00000000               -0.03538537               -0.03522456                0.11874513                0.00070136                0.00580697                0.00530329
               0.00204008                1.00145469               18.01494678                1.00000000               -0.02516538               -0.02519636                0.08397884               -0.00010656                0.00101788                0.00368054
               1.00178842                1.00066703               18.01492595                0.01000000               -0.02513261               -0.02513696                0.08379404               -0.00000553                0.00267889               -0.00280225
               2.00153742                0.99987717               18.01493835                0.01000000               -0.04442134               -0.03356674                0.08360954               -0.00179216                0.04548849                0.01587458
               3.00090000                0.99943800               18.01577263                0.01000001               -0.07069747               -0.02542361                0.09044978                0.02810972                0.08348670               -0.00530411
               4.00012347                0.99999336               18.01661989                0.01000000               -0.09234776               -0.02137062                0.09587971                0.08689575                0.08974687               -0.01448756
               4.99905304                1.00161123               18.01768693                0.01000000               -0.10766958               -0.02518254                0.10159349                0.17312872                0.11949075               -0.02075409
               5.99797008                1.00461667               18.01930544                0.01000001               -0.07049605               -0.09018132                0.10903440                0.16027189                0.07669738               -0.03727302
               6.99764312                1.00557228               18.01967323                1.00000000               -0.03310647               -0.03327437                0.11092463               -0.00005455                0.00759397               -0.00414233
               7.99730795                1.00652109               18.01990630                1.00000000               -0.03377118               -0.03378525                0.11259165                0.00002813                0.00123244               -0.00037621
               8.99696770                1.00746150               18.02014526                1.00000000               -0.03428048               -0.03428972                0.11429994                0.00002197                0.00104745                0.00055285
               9.99662234                1.00839336               18.02037463                1.00000000               -0.03453518               -0.03481713                0.11600621                0.00042362                0.00048854                0.00657464
               0.00282638                2.00120372               18.01500039                0.01000000               -0.02495530               -0.03682791                0.08330211               -0.02017759                0.00154867                0.03547219
               1.00257683                2.00041667               18.01493996                0.01000000               -0.04435164               -0.04651650                0.08311691               -0.02622803                0.02658405                0.02657175
               2.00193935                1.99945766               18.01537834                0.01000001               -0.06598009               -0.04891271                0.08779416               -0.00095707                0.04874868                0.02197174
               3.00125723                1.99921414               18.01580008                0.01000000               -0.08106713               -0.03616575                0.09150444                0.07714166                0.05481834               -0.00513265
               4.00031800                1.99978339               18.01642149                0.01000000               -0.10237799               -0.03282051                0.09571088                0.16039443                0.06713488               -0.01637760
               4.99920967                2.00128190               18.01721056                0.01000001               -0.10710962               -0.04923078                0.10004423                0.22723846                0.06777879               -0.02299634
               5.99817581                2.00314665               18.01799734                0.01000000               -0.12584050               -0.11211978                0.10403860                0.25181359                0.07327706               -0.05027759
               6.99669286                2.00524378               18.01901280                0.01000000               -0.09048163               -0.07751012                0.10812126                0.15804263                0.03499331               -0.01920319
               7.99636618                2.00618731               18.01923850                0.06635720               -0.03291921               -0.03306473                0.10983648                0.00067737               -0.00588852                0.00402092
               8.99603447                2.00712269               18.01943571                0.99999999               -0.03344890               -0.03345765                0.11157478                0.00004415               -0.00427046               -0.00180733
               9.99569720                2.00804926               18.01969473                1.00000000               -0.03372694               -0.03401062                0.11328094                0.00043036               -0.00130490                0.00651837
               0.00321062                3.00071814               18.01568269                0.01000003               -0.02006958               -0.03964353                0.08910758               -0.01360663                0.00479433                0.06913338
               1.00300992                2.99973670               18.01557407                0.01000001               -0.02449039               -0.07939354                0.08943151               -0.00191297                0.01234675                0.04556123
               2.00272081                2.99889892               18.01561168                0.01000000               -0.04464138               -0.07402754                0.09083194                0.05902861                0.03001146                0.00957291
               3.00211710                2.99871468               18.01585071                0.01000000               -0.07286022               -0.06406614                0.09330132                0.14037823                0.04588247               -0.00624281
               4.00126361                2.99933695               18.01625940                0.01000000               -0.09412738               -0.05874637                0.09650453                0.22044303                0.05650885               -0.01254387
               5.00023455                3.00062661               18.01680917                0.01000000               -0.11095656               -0.07123189                0.09957771                0.28323543                0.06254091               -0.01236720
               5.99904448                3.00237427               18.01746084                0.01000001               -0.12356191               -0.08572485                0.10271339                0.30110909                0.05671605               -0.00288598
               6.99776331                3.00402208               18.01805218                0.01000000               -0.18009441               -0.10454288                0.10531393                0.32598746                0.04628112               -0.00712005
               7.99544259                3.00585979               18.01865778                0.01000001               -0.13283380               -0.08653107                0.10409379                0.27304841                0.00011531                0.02133611
               8.99510663                3.00679234               18.01868720                0.01000001               -0.03323863               -0.10295101                0.10886428                0.21424686               -0.01513470                0.03208845
               9.99477782                3.00771314               18.01898921                0.24156226               -0.03288187               -0.20391926                0.11054638                0.24859020               -0.00167945                0.02536137
               0.00451713                4.00041085               18.01636678                0.01000000               -0.01593382               -0.04015531                0.09440089                0.02920180                0.00014901                0.07267337
               1.00435779                3.99882880               18.01604237                0.01000000               -0.01875957               -0.10425269                0.09376908                0.06867502                0.00862852                0.03119675
               2.00414193                3.99797711               18.01586155                0.01000000               -0.03655176               -0.10232402                0.09401846                0.14244062                0.02751159                0.00238580
               3.00362675                3.99793282               18.01590497                0.01000000               -0.06635001               -0.08767831                0.09554011                0.21107151                0.04784312               -0.01064901
               4.00281493                3.99860846               18.01618025                0.01000000               -0.08948472               -0.08148541                0.09769701                0.27357664                0.06398276               -0.00880329
               5.00183706                3.99985726               18.01664934                0.01000000               -0.10062033               -0.08443239                0.10045096                0.31918083                0.07299832                0.00385174
               6.00080253                4.00143216               18.01723183                0.01000000               -0.10549870               -0.09849037                0.10332449                0.35247444                0.07382976                0.02193988
               6.99972708                4.00315292               18.01784580                0.01000001               -0.08728208               -0.10996916                0.10588567                0.36374899                0.06269109                0.04510503
               7.99905689                4.00445669               18.01833671                0.01000001               -0.06305124               -0.14736539                0.10831026                0.39824168                0.04511181                0.05752880
               8.99846606                4.00506367               18.01865765                0.01000000               -0.01147387               -0.17592550                0.11017101                0.28942616                0.01940493                0.07813326
               9.99882741                4.00397087               18.01869004                0.01000001                0.03613495               -0.27344931                0.11117096                0.21971515                0.01082329                0.04743256
               0.00695875                4.99991503               18.01710949                0.01000001               -0.01415849               -0.10123467                0.09922691                0.10317256                0.00181222                0.08634945
               1.00681717                4.99765164               18.01651154                0.01000000               -0.02465728               -0.11551211                0.09766952                0.16885843                0.01198073                0.02340242
               2.00646561                4.99685244               18.01607781                0.01000001               -0.05549979               -0.10666515                0.09678890                0.21786366                0.03429488               -0.01136234
               3.00570717                4.99696112               18.01596574                0.01000000               -0.08274530               -0.10230964                0.09749006                0.27157797                0.06061553               -0.01782422
               4.00481070                4.99770725               18.01618804                0.01000000               -0.09563485               -0.09132309                0.09932670                0.30799081                0.08410654               -0.00742112
               5.00379447                4.99893797               18.01667528                0.01000000               -0.10061965               -0.09261021                0.10206444                0.33176306                0.09912548                0.01420379
               6.00279831                5.00040446               18.01733834                0.01000001               -0.08903603               -0.10447685                0.10551185                0.33546169                0.10443450                0.04394012
               7.00201375                5.00182270               18.01805616                0.01000001               -0.06508175               -0.13148732                0.10892581                0.32409174                0.09904028                0.07624125
               8.00149667                5.00291249               18.01869209                0.01000000               -0.03163881               -0.15414924                0.11226316                0.27756549                0.08018127                0.10691690
               9.00138098                5.00327383               18.01907234                0.01000000               -0.00694791               -0.16428304                0.11431456                0.19122139                0.04782720                0.12008899
              10.00135771                5.00224416               18.01902271                0.01000000               -0.00232635               -0.12322205                0.11472500                0.09450622                0.02886449                0.10277275
               0.01110735                5.99838616               18.01815094                0.80460685               -0.03098007               -0.09228678                0.10505921                0.11391706               -0.00350319                0.05106423
               1.01079755                5.99651856               18.01702252                0.01000000               -0.09588079               -0.07209954                0.10180116                0.16489415                0.01217744                0.00787887
               2.00918973                5.99584381               18.01621522                0.01000000               -0.12970240               -0.12517781                0.09898395                0.26275154                0.03942882               -0.03515163
               3.00820350                5.99588663               18.01599633                0.01000001               -0.10959169               -0.09614539                0.09898610                0.29272280                0.08321881               -0.02648121
               4.00699790                5.99678200               18.01625104                0.01000000               -0.12141998               -0.09092128                0.10100732                0.31972638                0.11364558               -0.00972512
               5.00577510                5.99800506               18.01684266                0.01000001               -0.11854354               -0.08593650                0.10439851                0.31641365                0.13438295                0.01876489
               6.00462703                5.99934262               18.01769287                0.01000000               -0.10371020               -0.09338714                0.10869638                0.28439722                0.14609894                0.05737749
               7.00370090                6.00052317               18.01866602                0.01000000               -0.07349847               -0.11732966                0.11356544                0.22959972                0.14393865                0.10352040
               8.00315706                6.00137371               18.01957003                0.01000000               -0.03710412               -0.14367875                0.11832158                0.16916041                0.12203230                0.15019857
               9.00295881                6.00177801               18.02014133                0.01000000               -0.01900863               -0.13898277                0.12101800                0.09556737                0.07423095                0.18402694
              10.00277689                6.00150643               18.02007383                0.01000001               -0.01819278               -0.05465717                0.12143337                0.04685137                0.04318716                0.18407374
               0.01297229                6.99806929               18.01859585                0.99999999               -0.03148846               -0.03185624                0.10667973                0.00007763               -0.00319112                0.02212059
               1.01265740                6.99620965               18.01735820                1.00000000               -0.03098588               -0.03100454                0.10316212               -0.00028744               -0.00579367                0.00083555
               2.01235257                6.99434888               18.01607465                0.01000000               -0.10169858               -0.08975591                0.09995711                0.19226035                0.05320076               -0.03615103
               3.01062343                6.99503821               18.01602517                0.01000000               -0.16328854               -0.09839037                0.10020884                0.29201781                0.11624233               -0.03517648
               4.00908680                6.99588882               18.01632100                0.01000001               -0.15306497               -0.08775380                0.10253713                0.31497644                0.14376142               -0.01952574
               5.00756213                6.99721924               18.01707398                0.01000001               -0.15593315               -0.05796511                0.10655246                0.29290780                0.17432442                0.01745000
               6.00596814                6.99853672               18.01820323                0.01000000               -0.14937359               -0.05557953                0.11264705                0.21686982                0.19514947                0.06235738
               7.00457466                6.99947611               18.01959993                0.01000000               -0.11715453               -0.07741876                0.11907868                0.11913692                0.20047553                0.11934428
               8.00362504                7.00003891               18.02100163                0.01000000               -0.07075294               -0.11377402                0.12589283                0.03113336                0.17720163                0.20194930
               9.00315960                7.00049418               18.02202067                0.01000002               -0.03935743               -0.12583105                0.13114199               -0.00958497                0.10950747                0.26993605
              10.00283790                7.00115101               18.02208815                0.01000146               -0.03217041               -0.04366526                0.13213845               -0.01715918                0.06162078                0.31081715
               0.01482819                7.99774903               18.01906328                0.99999999               -0.03159716               -0.03211526                0.10709189                0.00006579               -0.00073645                0.02311786
               1.01451221                7.99589847               18.01773641                1.00000000               -0.03109006               -0.03117077                0.10373972               -0.00002898               -0.00042732                0.00290339
               2.01420638                7.99404869               18.01641930                0.01000001               -0.10041490               -0.03010322                0.10037214                0.08587603                0.04330384               -0.01629955
               3.01250392                7.99391882               18.01597282                0.01000001               -0.15449917               -0.15651979                0.10054934                0.30536857                0.11172767               -0.08566728
               4.01111640                7.99502693               18.01629007                0.01000001               -0.17592795               -0.05210042                0.10314897                0.33600334                0.17495127               -0.02891359
               5.00898536                7.99684576               18.01730095                0.01000000               -0.22044220               -0.00446401                0.10847686                0.26380419                0.21586054                0.01241011
               6.00670756                7.99823103               18.01873900                0.01000000               -0.22019549               -0.00215776                0.11621532                0.14737899                0.24364773                0.05593592
               7.00458145                7.99897480               18.02063837                0.01000000               -0.19729517               -0.01588092                0.12499502                0.02032904                0.27952567                0.11261623
               8.00276165                7.99909823               18.02306122                0.01000002               -0.14632174               -0.04805297                0.13667139               -0.10605071                0.26794415                0.20891015
               9.00165501                7.99926139               18.02492728                0.01000001               -0.08208098               -0.09702174                0.14570889               -0.19186665                0.17759062                0.46531871
              10.00112003                8.00063313               18.02564224                0.01000000               -0.05349783               -0.14909821                0.14965406               -0.14138241                0.11797083                0.45650777
               0.01667473                8.99742699               18.01953109                1.00000000               -0.03175602               -0.03228483                0.10756020                0.00006868                0.00226259                0.01824322
               1.01635717                8.99558624               18.01811903                0.99999999               -0.03124949               -0.03126945                0.10416337               -0.00000753                0.00104961                0.00174068
               2.01604974                8.99374682               18.01668376                1.00000000               -0.03023026               -0.03025036                0.10073304               -0.00005618               -0.00543206               -0.01215040
               3.01575256                8.99190781               18.01514541                0.01000176               -0.15849039               -0.11515307                0.09723670                0.30906362                0.12264643               -0.07276603
               4.01287993                8.99484681               18.01627760                0.01000000               -0.30592248                0.03996980                0.10333949                0.31605905                0.23642546               -0.02534216
               5.00963411                8.99712996               18.01745287                0.01000000               -0.30466293                0.04871677                0.10973101                0.17597474                0.23862257                0.00786983
               6.00678667                8.99849357               18.01912232                0.01000000               -0.27600361                0.04102662                0.11818741                0.07572781                0.27698591                0.03516641
               7.00411404                8.99915849               18.02145958                0.01000002               -0.27846157                0.03373260                0.12972711               -0.01465342                0.33893236                0.07140310
               8.00121744                8.99907785               18.02470007                0.01000001               -0.31633367                0.03592639                0.14528787               -0.11590111                0.51022074                0.14516849
               8.99778737                8.99855374               18.03078819                0.99999998               -0.19753346               -0.06145741                0.17385950               -0.21965372                0.31643951                0.30783833
               9.99726677                8.99816905               18.03052497                0.99999999               -0.05205959               -0.14916756                0.17318915               -0.21194335               -0.00100825                0.25679179
               0.01851106                9.99710334               18.01990152                1.00000000               -0.03188263               -0.03236512                0.10799997                0.00060786                0.01266485                0.01345320
               1.01819224                9.99527308               18.01847714                1.00000000               -0.03136890               -0.03131549                0.10459907                0.00052396                0.01594763                0.00046750
               2.01788368                9.99344368               18.01711704                1.00000000               -0.03035225               -0.03031347                0.10119830                0.00052851                0.01602653               -0.00388064
               3.01758519                9.99161576               18.01569533                0.01000000               -0.28341232               -0.02920522                0.09779009                0.30239493                0.11466287               -0.00420772
               4.01221544                9.99582632               18.01631142                0.01002769               -0.43635466                0.09795105                0.10289662                0.24376727                0.20052427               -0.01272248
               5.00885810                9.99782009               18.01749109                0.01000000               -0.30109278                0.06901356                0.10968313                0.08366036                0.22837450                0.01010181
               6.00619358                9.99905156               18.01915647                0.01000001               -0.25770021                0.05579948                0.11850187                0.03215898                0.27405225                0.02414410
               7.00370409                9.99964945               18.02159739                0.01000014               -0.25726043                0.04909646                0.13081275               -0.00273500                0.36755998                0.04306314
               8.00104837                9.99981676               18.02542472                0.01000000               -0.27666772                0.07389047                0.14940671               -0.09776722                0.48587794                0.10697688
               8.99817074                9.99803224               18.03051491                0.99999999               -0.16989090               -0.05215028                0.17373620               -0.07001182                0.26890489                0.00123482
               9.99765056                9.99764978               18.03025168                1.00000000               -0.05201835               -0.05192731                0.17306582                0.00013192                0.00111494               -0.00111487
               0.00123966                0.00169837               19.01574852                1.00000000               -0.02547182               -0.02536836                0.08504714               -0.00020638               -0.00365757                0.00341400
               1.00098494                0.00086395               19.01572371                1.00000000               -0.02542357               -0.02526049                0.08469827               -0.00006024               -0.00407204               -0.00107782
               2.00073119                0.00002634               19.01569253                0.01000000               -0.00787015               -0.02515410                0.08435005                0.02208360                0.04340634               -0.00170459
               3.00082754               -0.00037181               19.01661827                0.01000000                0.00242521               -0.02817104                0.09001925                0.01578448                0.10162187               -0.00344083
               4.00077969                0.00021112               19.01769358                0.01000001               -0.02329955               -0.02036852                0.09608933                0.04623682                0.12635546               -0.01131633
               5.00036155                0.00199171               19.01909802                0.01000001               -0.10182372               -0.01515766                0.10273825                0.11985460                0.16383765               -0.01848481
               5.99874322                0.00553305               19.02099849                0.29251466               -0.09745570               -0.03318835                0.11104396                0.12657604                0.09855071               -0.00097466
               6.99841243                0.00653892               19.02146522                0.99999787               -0.03365038               -0.03354209                0.11315402                0.00013851                0.01682330               -0.00422352
               7.99807021                0.00754037               19.02172652                0.99999999               -0.03451308               -0.03412567                0.11503116                0.00031472                0.00820228               -0.00047178
               8.99772217                0.00853396               19.02201810                1.00000000               -0.03511014               -0.03471413                0.11701282                0.00031026                0.00781390                0.00092309
               9.99736801                0.00951972               19.02227060                1.00000000               -0.03541642               -0.03532648                0.11899438                0.00071960                0.00582811                0.00531851
               0.00207202                1.00144469               19.01578700                1.00000000               -0.02516664               -0.02522488                0.08406520               -0.00015624                0.00101690                0.00368239
               1.00182035                1.00061134               19.01576349                0.01000000               -0.02510584               -0.02511139                0.08371422               -0.00001060                0.00268060               -0.00280293
               2.00156990                0.99977480               19.01577323                0.01000000               -0.04636799               -0.03416854                0.08336639                0.00001262                0.04900084                0.01870790
               3.00089299                0.99934648               19.01667507                0.01000001               -0.07548014               -0.02504245                0.09004606                0.03437171                0.08937512               -0.00409270
               4.00006030                1.00000744               19.01757602                0.01000000               -0.09969334               -0.02030844                0.09536241                0.09975455                0.09457567               -0.01395863
               4.99889913                1.00184013               19.01870021                0.01000000               -0.11624653               -0.02472890                0.10105993                0.19630159                0.12475602               -0.02075545
               5.99773537                1.00520117               19.02039316                0.01000001               -0.07444852               -0.09783860                0.10847569                0.18112237                0.07954993               -0.03837493
               6.99741016                1.00620350               19.02078046                1.00000000               -0.03297656               -0.03314279                0.11049978               -0.00003658                0.00763671               -0.00420588
               7.99707584                1.00719912               19.02103155                0.99999999               -0.03372786               -0.03374131                0.11244562                0.00002662                0.00122980               -0.00038044
               8.99673560                1.00818682               19.02128892                0.99999999               -0.03431995               -0.03432861                0.11443042                0.00002091                0.00106733                0.00056596
               9.99638944                1.00916646               19.02153668                1.00000000               -0.03461597               -0.03494259                0.11641346                0.00039904                0.00050470                0.00659118
               0.00290323                2.00119388               19.01583232                0.01000001               -0.02486097               -0.03577561                0.08308565               -0.01840893                0.00154909                0.03878224
               1.00265462                2.00036172               19.01576920                0.01000000               -0.04534607               -0.04840174                0.08272943               -0.02503923                0.02941895                0.03019581
               2.00199630                1.99934297               19.01626161                0.01000001               -0.06861389               -0.05098651                0.08795874                0.00397093                0.05301403                0.02630744
               3.00128234                1.99912734               19.01671136                0.01000000               -0.08575875               -0.03720874                0.09096552                0.09103882                0.05820496               -0.00292762
               4.00028113                1.99980495               19.01737622                0.01000000               -0.10942467               -0.03349199                0.09523717                0.18297595                0.07086868               -0.01495067
               4.99909384                2.00149713               19.01820899                0.01000001               -0.11394184               -0.05297178                0.09976096                0.25701682                0.07086842               -0.02247019
               5.99800229                2.00357628               19.01903613                0.01000000               -0.13400468               -0.12312113                0.10372111                0.28161041                0.07604859               -0.05122225
               6.99641375                2.00587607               19.02009279                0.01000000               -0.09574336               -0.08286564                0.10785774                0.17511336                0.03614710               -0.01926220
               7.99608743                2.00686555               19.02033697                0.06987682               -0.03292516               -0.03306825                0.10984901                0.00068376               -0.00585091                0.00252085
               8.99575525                2.00784739               19.02055289                0.99999999               -0.03353590               -0.03354149                0.11186254                0.00004657               -0.00423504               -0.00177963
               9.99541671                2.00882087               19.02083031                1.00000000               -0.03385405               -0.03418392                0.11384568                0.00040726               -0.00128900                0.00653074
               0.00336815                3.00072918               19.01657250                0.01000001               -0.01976786               -0.03828303                0.08887705               -0.01142544                0.00537020                0.07554883
               1.00317047                2.99964331               19.01646750                0.01000001               -0.02422244               -0.08439744                0.08925097                0.00359092                0.01340238                0.05169936
               2.00288370                2.99875507               19.01651724                0.01000000               -0.04593411               -0.07870390                0.09049035                0.07260728                0.03205399                0.01303913
               3.00225179                2.99860230               19.01678180                0.01000000               -0.07668365               -0.06776967                0.09296498                0.16248830                0.04872719               -0.00344140
               4.00135003                2.99933760               19.01722324                0.01011591               -0.09918278               -0.06227403                0.09594989                0.24911253                0.05930404               -0.01043670
               5.00026813                3.00078070               19.01780263                0.01000000               -0.11806948               -0.07650438                0.09910427                0.31749592                0.06574252               -0.01141233
               5.99898864                3.00273875               19.01848725                0.01000001               -0.13224899               -0.09274606                0.10266190                0.33530758                0.05892971               -0.00118218
               6.99762315                3.00454619               19.01910464                0.01000000               -0.19352233               -0.11320357                0.10520457                0.35929466                0.04599661               -0.00589378
               7.99511819                3.00653775               19.01969956                0.01000001               -0.14209740               -0.09207625                0.10440477                0.29912863                0.00027131                0.02324841
               8.99478121                3.00751599               19.01977805                0.01004568               -0.03337879               -0.10899425                0.10930865                0.23345028               -0.01358554                0.03406196
               9.99445062                3.00848278               19.02009822                0.25751489               -0.03305896               -0.21896211                0.11126918                0.27083361               -0.00168089                0.02686806
               0.00484645                4.00042822               19.01731055                0.01000000               -0.01459139               -0.04198827                0.09440827                0.03530628                0.00020649                0.07884152
               1.00470054                3.99867377               19.01698050                0.01000000               -0.01784995               -0.11240178                0.09389502                0.08158066                0.00911771                0.03598942
               2.00448946                3.99776889               19.01680183                0.01000000               -0.03754799               -0.10970868                0.09406502                0.16511454                0.02895881                0.00591218
               3.00394958                3.99777195               19.01685991                0.01011648               -0.07022335               -0.09267919                0.09521871                0.23970305                0.04997267               -0.00780167
               4.00308499                3.99855947               19.01715616                0.01000000               -0.09534839               -0.08686134                0.09724260                0.30734785                0.06634897               -0.00656121
               5.00204261                3.99996704               19.01765231                0.01000001               -0.10710193               -0.08961896                0.09995375                0.35544851                0.07571957                0.00623888
               6.00094295                4.00172136               19.01826480                0.01000000               -0.11209878               -0.10591810                0.10325807                0.39062583                0.07648611                0.02495411
               6.99980064                4.00361200               19.01890451                0.01000001               -0.09213754               -0.11820842                0.10607507                0.40052126                0.06489756                0.04897169
               7.99910020                4.00502402               19.01942006                0.01000001               -0.06607056               -0.15856331                0.10861463                0.43671386                0.04689980                0.06367180
               8.99847923                4.00566750               19.01976096                0.01000000               -0.01002010               -0.18862784                0.11047290                0.31673070                0.02045047                0.08300061
               9.99889980                4.00444163               19.01980262                0.01000001                0.04205708               -0.29482357                0.11158937                0.23991115                0.01162066                0.05099986
               0.00758316                4.99988941               19.01810474                0.01000001               -0.01217561               -0.11383284                0.09983033                0.11912402                0.00182888                0.09262608
               1.00746141                4.99739527               19.01749154                0.01000000               -0.02476721               -0.12509494                0.09834482                0.19372703                0.01230828                0.02780107
               2.00708782                4.99656090               19.01704769                0.01000001               -0.06030662               -0.11375130                0.09740081                0.24864034                0.03544474               -0.00863417
               3.00625527                4.99674872               19.01694262                0.01000000               -0.08929639               -0.10888982                0.09765950                0.30595680                0.06204417               -0.01484140
               4.00530189                4.99760037               19.01718042                0.01000001               -0.10200286               -0.09694897                0.09901803                0.34375346                0.08704106               -0.00506386
               5.00421522                4.99898832               19.01769562                0.01000000               -0.10728444               -0.09847112                0.10198632                0.36920410                0.10296462                0.01715036
               6.00315620                5.00062038               19.01839277                0.01000002               -0.09421508               -0.11163932                0.10533084                0.37165745                0.10851074                0.04797548
               7.00233092                5.00218202               19.01914712                0.01000001               -0.06796192               -0.14071474                0.10906307                0.35737642                0.10308201                0.08127650
               8.00179696                5.00336649               19.01981568                0.01000000               -0.03163504               -0.16486939                0.11250750                0.30526674                0.08382589                0.11264365
               9.00169821                5.00374343               19.02021744                0.01000000               -0.00481881               -0.17585493                0.11484728                0.20984488                0.04991010                0.12705400
              10.00170059                5.00258631               19.02017281                0.01000000                0.00023727               -0.13111212                0.11537475                0.10347780                0.03013523                0.10893030
               0.01221721                5.99815156               19.01920606                0.77957852               -0.03136175               -0.10285610                0.10615321                0.13260652               -0.00345361                0.05464574
               1.01190360                5.99617187               19.01804706                0.01000000               -0.10541985               -0.07682188                0.10329875                0.18787615                0.01220991                0.01052259
               2.01010882                5.99549387               19.01720988                0.01000000               -0.14371745               -0.13390178                0.09995346                0.29510042                0.04009856               -0.03326965
               3.00902925                5.99559415               19.01698900                0.01000001               -0.11941772               -0.10256492                0.09970121                0.32742095                0.08613580               -0.02475468
               4.00772046                5.99662049               19.01726268                0.01000000               -0.13112832               -0.09625640                0.10128994                0.35566504                0.11791135               -0.00755784
               5.00640668                5.99799762               19.01788675                0.01000002               -0.12690339               -0.09096798                0.10432379                0.35121770                0.13968713                0.02184744
               6.00518239                5.99948857               19.01878043                0.01000001               -0.11023085               -0.09917093                0.10886856                0.31570482                0.15200628                0.06199182
               7.00420206                6.00079770               19.01980133                0.01000000               -0.07691352               -0.12458491                0.11336890                0.25488422                0.14985334                0.10971197
               8.00364412                6.00172664               19.02075214                0.01000000               -0.03728806               -0.15240420                0.11811511                0.18755472                0.12678114                0.15807934
               9.00345630                6.00215040               19.02135365                0.01000001               -0.01802618               -0.14692982                0.12135481                0.10568981                0.07708920                0.19337958
              10.00328360                6.00181939               19.02129050                0.01000001               -0.01727022               -0.05536591                0.12199328                0.05160654                0.04487902                0.19346853
               0.01419466                6.99783229               19.01966648                0.99999999               -0.03180432               -0.03205347                0.10752173                0.00001842               -0.00338537                0.02279694
               1.01387662                6.99585884               19.01839557                0.99996916               -0.03135566               -0.03135474                0.10436588               -0.00031661               -0.00585204                0.00142462
               2.01356755                6.99388286               19.01708194                0.01000000               -0.10997751               -0.09576517                0.10152204                0.21338512                0.05471110               -0.03569965
               3.01167707                6.99469742               19.01703086                0.01000000               -0.17779139               -0.10462384                0.10107434                0.32318741                0.11979555               -0.03433455
               4.01001172                6.99567524               19.01734840                0.01000000               -0.16527897               -0.09302930                0.10318854                0.34830634                0.14914374               -0.01816352
               5.00837149                6.99716896               19.01814276                0.01000001               -0.16707529               -0.06046200                0.10687658                0.32381571                0.18064648                0.02042082
               6.00667022                6.99863697               19.01932906                0.01000000               -0.15904769               -0.05771980                0.11244887                0.24120011                0.20300064                0.06695049
               7.00519054                6.99969032               19.02079036                0.01000000               -0.12374307               -0.08105579                0.11883971                0.13523381                0.20897060                0.12620783
               8.00419536                7.00031840               19.02226031                0.01000000               -0.07356387               -0.11922931                0.12593542                0.03872225                0.18470081                0.21194832
               9.00371926                7.00080484               19.02333234                0.01000002               -0.04003009               -0.13085695                0.13124289               -0.00742092                0.11408583                0.28275041
              10.00339475                7.00147899               19.02341138                0.01000000               -0.03245062               -0.04183096                0.13254878               -0.01716919                0.06419117                0.32538306
               0.01616449                7.99751049               19.02013610                1.00000000               -0.03177992               -0.03220860                0.10747529                0.00001491               -0.00073387                0.02314044
               1.01584669                7.99554478               19.01877763                1.00000000               -0.03132787               -0.03139615                0.10451394               -0.00001258               -0.00044230                0.00295241
               2.01553793                7.99357857               19.01742872                0.01000001               -0.10730372               -0.03045191                0.10152929                0.09442669                0.04489915               -0.01640378
               3.01370062                7.99350167               19.01698303                0.01000001               -0.16614396               -0.16907291                0.10119746                0.33516662                0.11647046               -0.08783968
               4.01221505                7.99475991               19.01732346                0.01000066               -0.18896733               -0.05454942                0.10401585                0.36899104                0.18154246               -0.02818745
               5.00992127                7.99678838               19.01838939                0.01000000               -0.23650121               -0.00256024                0.10908034                0.29074701                0.22335844                0.01506398
               6.00748503                7.99833418               19.01990054                0.01000000               -0.23479843                0.00023678                0.11596344                0.16408867                0.25368082                0.05948444
               7.00522530                7.99917659               19.02188822                0.01000000               -0.20904868               -0.01460377                0.12505195                0.02701497                0.29131391                0.11881865
               8.00330406                7.99934205               19.02442670                0.01000002               -0.15390030               -0.04834399                0.13648492               -0.10886769                0.27950230                0.21912145
               9.00214730                7.99953327               19.02638357                0.01000001               -0.08560749               -0.09829522                0.14558969               -0.20179448                0.18528786                0.48667636
              10.00159191                8.00098277               19.02713936                0.01000000               -0.05553895               -0.15230700                0.14980225               -0.14862531                0.12324805                0.47724418
               0.01812638                8.99718812               19.02060652                1.00000000               -0.03180893               -0.03226162                0.10753000                0.00001491                0.00226229                0.01827292
               1.01780829                8.99523091               19.01916249                0.99999999               -0.03135963               -0.03137444                0.10452956                0.00000662                0.00103527                0.00171181
               2.01749919                8.99327383               19.01769498                1.00000000               -0.03046155               -0.03047811                0.10151064               -0.00003999               -0.00548969               -0.01223398
               3.01719906                8.99131596               19.01612381                0.01000118               -0.16971761               -0.12404001                0.09844310                0.33808682                0.12714305               -0.07454928
               4.01410484                8.99458425               19.01731488                0.01000000               -0.32934506                0.04536184                0.10403390                0.34616368                0.24523622               -0.02505726
               5.01061216                8.99711775               19.01855206                0.01000000               -0.32705265                0.05493971                0.11020331                0.19332195                0.24844182                0.00923330
               6.00756378                8.99864170               19.02030621                0.01000000               -0.29445985                0.04652929                0.11849629                0.08434239                0.28891835                0.03726409
               7.00472296                8.99939825               19.02275707                0.01000002               -0.29512312                0.03857357                0.12982829               -0.01306628                0.35383376                0.07525947
               8.00166132                8.99935152               19.02615221                0.01000001               -0.33401561                0.04121578                0.14517754               -0.12041961                0.53302083                0.15210413
               8.99804265                8.99883893               19.03252341                0.99999998               -0.20690397               -0.06073904                0.17318740               -0.23081558                0.33076851                0.32166981
               9.99752324                8.99843285               19.03225667                0.99999999               -0.05194088               -0.15351241                0.17314953               -0.22378940               -0.00101024                0.26840175
               0.02007920                9.99686526               19.02097937                1.00000000               -0.03180819               -0.03228618                0.10755968                0.00048508                0.01269327                0.01347439
               1.01976112                9.99491729               19.01952299                1.00000000               -0.03135584               -0.03136228                0.10455918                0.00046978                0.01598693                0.00044863
               2.01945208                9.99296900               19.01813094                0.99995724               -0.03045961               -0.03048218                0.10156920                0.00046849                0.01607220               -0.00391687
               3.01915193                9.99102087               19.01667718                0.01000000               -0.30577718               -0.02950900                0.09856392                0.33019334                0.11884416               -0.00422233
               4.01333654                9.99566714               19.01734384                0.01002386               -0.47108323                0.10828901                0.10355710                0.26648519                0.20887646               -0.01266867
               5.00973026                9.99788717               19.01859054                0.01000000               -0.32225787                0.07694220                0.11016590                0.09169099                0.23845983                0.01092927
               6.00689138                9.99926476               19.02034339                0.01000001               -0.27380534                0.06230611                0.11899693                0.03580389                0.28650988                0.02548494
               7.00425415                9.99994806               19.02290712                0.01005377               -0.27182007                0.05498093                0.13118631               -0.00180083                0.38447882                0.04527292
               8.00145498               10.00016636               19.02691938                0.01000000               -0.29022488                0.08148416                0.14956598               -0.10211280                0.50835839                0.11188867
               8.99844966                9.99831848               19.03225247                0.99999999               -0.17633502               -0.05204466                0.17377712               -0.07199175                0.28122676                0.00123518
               9.99792828                9.99791252               19.03198572                1.00000000               -0.05213767               -0.05203311                0.17373929               -0.00009281                0.00111653               -0.00111577
               0.00122964                0.00169897               20.01660095                1.00000000               -0.02556784               -0.02544201                0.08543167               -0.00028744               -0.00366444                0.00341644
               1.00097396                0.00081830               20.01657184                1.00000000               -0.02549526               -0.02528121                0.08492477               -0.00008793               -0.00406636               -0.00108164
               2.00071974               -0.00006649               20.01653637                0.01000001               -0.00656725               -0.02512665                0.08442300                0.02470717                0.04636694               -0.00169876
               3.00084262               -0.00045981               20.01751689                0.01000000                0.00404723               -0.02771434                0.08971954                0.01851353                0.10721698               -0.00274456
               4.00080068                0.00021960               20.01865193                0.01000001               -0.02501925               -0.01880504                0.09559718                0.05248161                0.13201494               -0.01121126
               5.00034223                0.00221148               20.02012219                0.01000079               -0.11327225               -0.01263277                0.10208152                0.13497087                0.17007297               -0.01879599
               5.99853524                0.00614145               20.02210519                0.27926794               -0.10677146               -0.03299201                0.11025530                0.14370125                0.10164050               -0.00098517
               6.99820680                0.00719432               20.02259370                1.00000000               -0.03346187               -0.03337196                0.11251835                0.00017066                0.01680641               -0.00430157
               7.99786600                0.00824353               20.02287525                0.99999999               -0.03441540               -0.03405075                0.11470149                0.00035886                0.00816883               -0.00047773
               8.99751850                0.00928531               20.02318808                1.00000000               -0.03509962               -0.03472832                0.11698006                0.00035473                0.00783477                0.00092725
               9.99716401                0.01031981               20.02346183                1.00000000               -0.03544896               -0.03543359                0.11925849                0.00074044                0.00584769                0.00533264
               0.00210743                1.00144455               20.01662809                1.00000000               -0.02516242               -0.02525461                0.08415631               -0.00020773                0.00102222                0.00369208
               1.00185581                1.00056549               20.01660023                0.01000000               -0.02507859               -0.02508572                0.08363230               -0.00001769                0.00267546               -0.00281153
               2.00160586                0.99968225               20.01660568                0.01000000               -0.04855503               -0.03468605                0.08312236                0.00176416                0.05252166                0.02145229
               3.00088471                0.99926305               20.01757355                0.01000001               -0.08080045               -0.02456621                0.08967122                0.04067027                0.09518861               -0.00271107
               3.99998985                1.00003155               20.01852714                0.01000000               -0.10768461               -0.01912232                0.09488925                0.11295870                0.09928118               -0.01333680
               4.99873102                1.00208515               20.01970813                0.01000000               -0.12545136               -0.02407011                0.10052133                0.22024343                0.12976832               -0.02053387
               5.99748083                1.00581153               20.02147495                0.01000001               -0.07867748               -0.10566673                0.10784569                0.20266000                0.08216086               -0.03942035
               6.99715747                1.00686060               20.02188323                1.00000000               -0.03283675               -0.03299804                0.11003242               -0.00001753                0.00760923               -0.00426461
               7.99682409                1.00790303               20.02215522                0.99999999               -0.03367816               -0.03369065                0.11227761                0.00002450                0.00122692               -0.00038475
               8.99648390                1.00893803               20.02243387                0.99999999               -0.03435903               -0.03436699                0.11455916                0.00001943                0.00108574                0.00057815
               9.99613691                1.00996547               20.02270290                1.00000000               -0.03469937               -0.03507370                0.11683945                0.00037375                0.00051981                0.00660681
               0.00298361                2.00119387               20.01666211                0.01002271               -0.02476970               -0.03468328                0.08287841               -0.01669979                0.00154875                0.04225635
               1.00273591                2.00031658               20.01659454                0.01000000               -0.04630729               -0.05030525                0.08233297               -0.02383339                0.03217410                0.03407052
               2.00205746                1.99923979               20.01713751                0.01000001               -0.07145944               -0.05313801                0.08739418                0.00870058                0.05736950                0.03098886
               3.00130672                1.99904887               20.01761939                0.01000000               -0.09098537               -0.03828710                0.09061873                0.10491481                0.06174752               -0.00048135
               4.00023775                1.99983715               20.01832623                0.01000000               -0.11697985               -0.03416347                0.09482759                0.20601069                0.07458413               -0.01363974
               4.99896712                2.00173007               20.01920577                0.01000001               -0.12123843               -0.05650491                0.09943035                0.28726647                0.07395172               -0.02157480
               5.99781298                2.00402811               20.02007176                0.01000000               -0.14260838               -0.13447850                0.10337915                0.31222607                0.07827027               -0.05176579
               6.99611496                2.00653436               20.02116995                0.01000000               -0.10119615               -0.08840576                0.10755733                0.19275394                0.03717300               -0.01930016
               7.99578906                2.00756972               20.02143548                0.07289982               -0.03292598               -0.03306759                0.10984382                0.00070627               -0.00581588                0.00116598
               8.99545644                2.00859797               20.02167296                0.99999999               -0.03362367               -0.03362587                0.11215207                0.00004856               -0.00420171               -0.00175360
               9.99511659                2.00961834               20.02197165                1.00000000               -0.03398484               -0.03436398                0.11443276                0.00038358               -0.00127393                0.00654259
               0.00352802                3.00075088               20.01746023                0.01000000               -0.01947936               -0.03692162                0.08857300               -0.00926233                0.00595830                0.08227290
               1.00333322                2.99955938               20.01735909                0.01000001               -0.02402123               -0.08960148                0.08905160                0.00907799                0.01439460                0.05836754
               2.00304759                2.99861949               20.01742149                0.01000000               -0.04737902               -0.08374426                0.09034033                0.08610784                0.03399274                0.01717543
               3.00238564                2.99849730               20.01771001                0.01000000               -0.08093672               -0.07164469                0.09271257                0.18469738                0.05117603               -0.00054052
               4.00142886                2.99934828               20.01817840                0.01006291               -0.10501286               -0.06585486                0.09537312                0.27847566                0.06163161               -0.00857480
               5.00028539                3.00095505               20.01879126                0.01000000               -0.12538979               -0.08205118                0.09887312                0.35246817                0.06718218               -0.00885105
               5.99892106                3.00312196               20.01951408                0.01000001               -0.14072233               -0.10011946                0.10250939                0.37022484                0.06066551                0.00041593
               6.99747094                3.00509249               20.02015627                0.01000001               -0.20732291               -0.12222445                0.10509570                0.39372676                0.04548822               -0.00454936
               7.99477460                3.00724167               20.02074588                0.01000001               -0.15173400               -0.09778558                0.10494088                0.32611961                0.00037250                0.02528434
               8.99443626                3.00826551               20.02087337                0.01000491               -0.03353765               -0.11568418                0.10975861                0.25362976               -0.01218472                0.03587220
               9.99410385                3.00927820               20.02121459                0.27413343               -0.03324084               -0.23510270                0.11201810                0.29426481               -0.00168223                0.02825878
               0.00518136                4.00045544               20.01825495                0.01000000               -0.01324945               -0.04394203                0.09452167                0.04159693                0.00023332                0.08556796
               1.00504886                3.99852455               20.01792027                0.01000000               -0.01698315               -0.12091384                0.09409435                0.09483106                0.00944355                0.04144118
               2.00484169                3.99756491               20.01774285                0.01000000               -0.03884948               -0.11738935                0.09417907                0.18836232                0.02988303                0.01013474
               3.00427187                3.99761597               20.01780934                0.01006344               -0.07460871               -0.09810510                0.09494269                0.26924134                0.05157368               -0.00506119
               4.00334952                3.99852006               20.01812510                0.01000000               -0.10145323               -0.09244174                0.09692234                0.34213695                0.06871426               -0.00411434
               5.00224281                4.00008905               20.01864842                0.01000001               -0.11347370               -0.09542584                0.09967250                0.39308529                0.07864967                0.00909927
               6.00108005                4.00202573               20.01929699                0.01000001               -0.11865167               -0.11368090                0.10308631                0.42983879                0.07945366                0.02761316
               6.99986977                4.00408987               20.01996730                0.01000001               -0.09708089               -0.12705373                0.10620318                0.43849142                0.06762866                0.05285386
               7.99913843                4.00561401               20.02050900                0.01000001               -0.06886321               -0.17042005                0.10893553                0.47613408                0.04964921                0.06904420
               8.99849251                4.00628429               20.02086711                0.01000000               -0.00809569               -0.20216391                0.11100828                0.34440304                0.02276051                0.08623322
               9.99897651                4.00491628               20.02092183                0.01000001                0.04840037               -0.31716578                0.11247051                0.26049125                0.01338773                0.05362798
               0.00822173                4.99987204               20.01910609                0.01000001               -0.01013499               -0.12690547                0.10045015                0.13565272                0.00168342                0.09974983
               1.00812038                4.99714110               20.01847843                0.01000000               -0.02491536               -0.13497886                0.09905265                0.21943614                0.01250411                0.03323876
               2.00772342                4.99627170               20.01802583                0.01000001               -0.06525297               -0.12103701                0.09806054                0.28010828                0.03635759               -0.00515910
               3.00681532                4.99653520               20.01791893                0.01000000               -0.09624519               -0.11563386                0.09765275                0.34146440                0.06467786               -0.01321790
               4.00579852                4.99749945               20.01816841                0.01000001               -0.10869479               -0.10285946                0.09892371                0.38100954                0.09008867               -0.00232332
               5.00464142                4.99904653               20.01871501                0.01000001               -0.11407498               -0.10470947                0.10183506                0.40785900                0.10671788                0.02021254
               6.00351702                5.00084834               20.01944496                0.01000997               -0.09944701               -0.11897820                0.10537665                0.40887025                0.11230472                0.05170522
               7.00265248                5.00255141               20.02023742                0.01000000               -0.07070750               -0.15078476                0.10925097                0.39207052                0.10625348                0.08693721
               8.00210287                5.00383327               20.02094224                0.01000000               -0.03152185               -0.17616724                0.11246118                0.33363790                0.08641478                0.11941123
               9.00202205                5.00422223               20.02136929                0.01000000               -0.00265911               -0.18767922                0.11514140                0.22856687                0.05153832                0.13336462
              10.00204969                5.00293488               20.02133020                0.01000000                0.00276393               -0.13895232                0.11615378                0.11247688                0.03099737                0.11459997
               0.01335628                5.99791733               20.02027400                0.75354975               -0.03183561               -0.11384233                0.10741410                0.15199756               -0.00341017                0.05879760
               1.01303793                5.99582498               20.01908849                0.01000000               -0.11532600               -0.08167692                0.10496345                0.21156788                0.01170001                0.01385857
               2.01104976                5.99514417               20.01821429                0.01000000               -0.15822557               -0.14278243                0.10090352                0.32832008                0.04022944               -0.03098709
               3.00987341                5.99530329               20.01799035                0.01000001               -0.12956914               -0.10888551                0.10028494                0.36281279                0.08824959               -0.02284064
               4.00845838                5.99646287               20.01827684                0.01000001               -0.14111605               -0.10173389                0.10136113                0.39254068                0.12134131               -0.00479632
               5.00705109                5.99799486               20.01892914                0.01001144               -0.13529029               -0.09607607                0.10441984                0.38681357                0.14437139                0.02474314
               6.00575257                5.99964616               20.01987025                0.01008762               -0.11624204               -0.10463600                0.10853653                0.34714238                0.15701355                0.06600822
               7.00472625                6.00107418               20.02093340                0.01000000               -0.08061044               -0.13190230                0.11327173                0.28074222                0.15501622                0.11522104
               8.00414036                6.00209066               20.02193233                0.01000000               -0.03820051               -0.16149750                0.11827823                0.20653696                0.13159646                0.16574470
               9.00396224                6.00253070               20.02256842                0.01000001               -0.01698037               -0.15514873                0.12166310                0.11573865                0.07997732                0.20203459
              10.00380076                6.00213724               20.02251370                0.01000001               -0.01614850               -0.05625314                0.12263793                0.05635151                0.04653916                0.20223492
               0.01544639                6.99759519               20.02074629                0.99999999               -0.03214872               -0.03227668                0.10843808               -0.00005509               -0.00364386                0.02345128
               1.01512490                6.99550757               20.01944552                1.00000000               -0.03174414               -0.03171857                0.10562344               -0.00031594               -0.00596723                0.00198234
               2.01481151                6.99341605               20.01810509                0.01000000               -0.11860138               -0.10182991                0.10310616                0.23495703                0.05571713               -0.03472526
               3.01275288                6.99435749               20.01804666                0.01000001               -0.19268708               -0.11171117                0.10191558                0.35569396                0.12256787               -0.03343967
               4.01095777                6.99546477               20.01838477                0.01000000               -0.17792363               -0.09830817                0.10360064                0.38250139                0.15380349               -0.01580084
               5.00919440                6.99712501               20.01921151                0.01000128               -0.17886065               -0.06285586                0.10700946                0.35576033                0.18757249                0.02255637
               6.00738055                6.99875562               20.02045221                0.01000000               -0.16857885               -0.06012975                0.11228638                0.26590574                0.20990725                0.07088742
               7.00582283                6.99991336               20.02197673                0.01000000               -0.13017363               -0.08448550                0.11856261                0.15015105                0.21658563                0.13249586
               8.00477708                7.00060332               20.02352034                0.01000000               -0.07662884               -0.12509570                0.12604788                0.04609386                0.19182420                0.22150023
               9.00429025                7.00111926               20.02464553                0.01000002               -0.04067145               -0.13634278                0.13143346               -0.00538208                0.11837608                0.29489603
              10.00396365                7.00180982               20.02473913                0.01000000               -0.03265975               -0.04022577                0.13303594               -0.01731062                0.06664988                0.33922048
               0.01753043                7.99727180               20.02121278                1.00000000               -0.03196849               -0.03230113                0.10786760               -0.00003641               -0.00073231                0.02312183
               1.01721075                7.99519061               20.01982669                0.99992097               -0.03157288               -0.03162253                0.10530395                0.00001410               -0.00045667                0.00298670
               2.01689898                7.99310757               20.01844988                0.01010118               -0.11360866               -0.03080717                0.10271020                0.10227870                0.04589203               -0.01647799
               3.01493858                7.99306907               20.01799677                0.01000001               -0.17790449               -0.18174100                0.10216930                0.36558944                0.11983563               -0.08880147
               4.01334089                7.99449670               20.01837039                0.01000000               -0.20315644               -0.05697378                0.10503738                0.40336602                0.18677969               -0.02634415
               5.01087545                7.99673774               20.01948255                0.01000000               -0.25292757               -0.00057736                0.10892652                0.31820364                0.23247340                0.01634603
               6.00828234                7.99844357               20.02105827                0.01000000               -0.24969383                0.00201909                0.11614607                0.18130986                0.26344560                0.06313925
               7.00588157                7.99938447               20.02313941                0.01000000               -0.22129932               -0.01342923                0.12512447                0.03335371                0.30276022                0.12474877
               8.00385635                7.99958875               20.02579092                0.01000002               -0.16167315               -0.04880385                0.13642149               -0.11230915                0.29040358                0.22866710
               9.00264811                7.99980385               20.02783907                0.01000007               -0.08914612               -0.10005073                0.14553596               -0.21239964                0.19261293                0.50701612
              10.00207343                8.00133272               20.02863829                0.01000000               -0.05746808               -0.15595472                0.14999992               -0.15629247                0.12832045                0.49716485
               0.01960805                8.99694917               20.02168169                1.00000000               -0.03186319               -0.03223392                0.10750006               -0.00004263                0.00226158                0.01832087
               1.01928941                8.99487512               20.02020962                0.99999999               -0.03147152               -0.03147822                0.10490055                0.00001955                0.00102899                0.00170084
               2.01897862                8.99279991               20.01871397                1.00000000               -0.03069434               -0.03070768                0.10229303               -0.00002401               -0.00552122               -0.01228594
               3.01867553                8.99072267               20.01711427                0.01000001               -0.18111017               -0.13222445                0.09964615                0.36679942                0.13116566               -0.07567855
               4.01535641                8.99432529               20.01835828                0.01000000               -0.35319572                0.05091597                0.10473573                0.37647542                0.25339981               -0.02462819
               5.01161161                8.99711347               20.01965694                0.01000000               -0.34981922                0.06119783                0.11050558                0.21115041                0.25823927                0.00986329
               6.00836003                8.99879600               20.02149224                0.01000000               -0.31334491                0.05216711                0.11888527                0.09280918                0.30029696                0.03965673
               7.00534472                8.99964478               20.02405615                0.01000002               -0.31242569                0.04351687                0.13002070               -0.01163262                0.36810264                0.07885415
               8.00211151                8.99962725               20.02760362                0.01000001               -0.35232151                0.04657186                0.14512677               -0.12563481                0.55485161                0.15866391
               8.99829829                8.99911824               20.03425193                0.99999998               -0.21657297               -0.06025136                0.17251844               -0.24278472                0.34448325                0.33484744
               9.99778006                8.99869072               20.03398796                0.99999999               -0.05182301               -0.15816850                0.17310876               -0.23610398               -0.00101262                0.27954545
               0.02167769                9.99662712               20.02205271                1.00000000               -0.03172882               -0.03220507                0.10710489                0.00035670                0.01273390                0.01350827
               1.02136040                9.99456104               20.02056832                1.00000000               -0.03133760               -0.03140740                0.10450216                0.00041366                0.01603769                0.00044497
               2.02105094                9.99249342               20.01914842                1.00000000               -0.03056123               -0.03064925                0.10192020                0.00040941                0.01612335               -0.00393449
               3.02074918                9.99042458               20.01766660                0.01000000               -0.32856689               -0.02980902                0.09931815                0.35844559                0.12275562               -0.00423792
               4.01447960                9.99551502               20.01838256                0.01005308               -0.50607169                0.11897311                0.10395597                0.28917488                0.21850359               -0.01285454
               5.01062775                9.99796170               20.01969441                0.01000000               -0.34361992                0.08482355                0.11104896                0.10020744                0.24828758                0.01142173
               6.00760720                9.99948691               20.02153641                0.01000001               -0.29050357                0.06909056                0.11962516                0.03937266                0.29853782                0.02694288
               7.00481767               10.00025480               20.02422112                0.01000684               -0.28685069                0.06100225                0.13166261               -0.00104014                0.40079078                0.04738603
               8.00187019               10.00052019               20.02841604                0.01000831               -0.30443683                0.08929409                0.14978205               -0.10693156                0.53016980                0.11658007
               8.99872894                9.99859882               20.03399045                0.99999999               -0.18319008               -0.05194225                0.17381961               -0.07447659                0.29315645                0.00123809
               9.99820639                9.99816935               20.03372647                0.99999999               -0.05225490               -0.05213713                0.17440916               -0.00031362                0.00111539               -0.00111810
               0.00122459                0.00171242               21.01745716                1.00000000               -0.02563982               -0.02550503                0.08583358               -0.00033147               -0.00366813                0.00344712
               1.00096819                0.00078552               21.01742221                1.00000000               -0.02555589               -0.02531189                0.08513761               -0.00012621               -0.00408255               -0.00111277
               2.00071347               -0.00014626               21.01738099                0.01000000               -0.00559401               -0.02510433                0.08448034                0.02707668                0.04925607               -0.00169439
               3.00085631               -0.00054003               21.01841266                0.01000000                0.00506059               -0.02702173                0.08946894                0.02103517                0.11250531               -0.00198800
               4.00081469                0.00023647               21.01960552                0.01000001               -0.02732826               -0.01700716                0.09516074                0.05886339                0.13731368               -0.01107503
               5.00030975                0.00244392               21.02113965                0.01000000               -0.12550869               -0.00980470                0.10143386                0.15056015                0.17586866               -0.01908136
               5.99830451                0.00677381               21.02320360                0.26666879               -0.11656253               -0.03276238                0.10938299                0.16139399                0.10442953               -0.00099819
               6.99797850                0.00787385               21.02371559                0.99999999               -0.03326505               -0.03318862                0.11183870                0.00021169                0.01672506               -0.00437057
               7.99763921                0.00897088               21.02402055                0.99999999               -0.03431088               -0.03396925                0.11434834                0.00040528                0.00813846               -0.00048291
               8.99729228                0.01006092               21.02435770                1.00000000               -0.03508797               -0.03474164                0.11694270                0.00040227                0.00785330                0.00093088
               9.99693745                0.01114423               21.02465577                1.00000000               -0.03548286               -0.03554538                0.11953543                0.00076406                0.00586503                0.00534571
               0.00214817                1.00145737               21.01747013                1.00000000               -0.02519040               -0.02527788                0.08422525               -0.00025988                0.00098408                0.00372077
               1.00189627                1.00053241               21.01743614                0.01000000               -0.02505790               -0.02506236                0.08355028               -0.00000872                0.00270402               -0.00284398
               2.00164702                0.99960270               21.01743568                0.01000000               -0.05104845               -0.03534005                0.08292278                0.00313616                0.05601474                0.02429161
               3.00087530                0.99918975               21.01846850                0.01000001               -0.08678350               -0.02393573                0.08935555                0.04679784                0.10091700               -0.00120899
               3.99991135                1.00006640               21.01947380                0.01000000               -0.11643112               -0.01777860                0.09449406                0.12639286                0.10377652               -0.01262897
               4.99854668                1.00234587               21.02071063                0.01000000               -0.13539306               -0.02307078                0.09999274                0.24486944                0.13446580               -0.02030828
               5.99720349                1.00644619               21.02255007                0.01000001               -0.08323005               -0.11359840                0.10713609                0.22475504                0.08449152               -0.04039912
               6.99688208                1.00754196               21.02298111                1.00000000               -0.03268782               -0.03284136                0.10952646               -0.00000016                0.00751987               -0.00431726
               7.99654973                1.00863119               21.02327710                0.99999999               -0.03362261               -0.03363367                0.11208976                0.00002137                0.00122436               -0.00038864
               8.99620963                1.00971350               21.02358010                0.99999999               -0.03439779               -0.03440485                0.11468640                0.00001798                0.00110236                0.00058932
               9.99586177                1.01078878               21.02387347                1.00000000               -0.03478525               -0.03521013                0.11728277                0.00034835                0.00053348                0.00662126
               0.00306933                2.00120686               21.01748989                0.01000000               -0.02466362               -0.03377868                0.08270379               -0.01518764                0.00157571                0.04581388
               1.00282269                2.00028428               21.01741585                0.01000000               -0.04752395               -0.05237339                0.08191325               -0.02295442                0.03503614                0.03813275
               2.00211885                1.99914694               21.01800950                0.01000001               -0.07470594               -0.05547253                0.08705183                0.01312998                0.06205413                0.03611831
               3.00132857                1.99898126               21.01852374                0.01000000               -0.09662104               -0.03941063                0.09036894                0.11885243                0.06527426                0.00216896
               4.00018643                1.99988090               21.01927277                0.01000000               -0.12506118               -0.03495842                0.09456630                0.22956530                0.07808494               -0.01219707
               4.99882735                2.00198250               21.02019760                0.01000001               -0.12914537               -0.05924198                0.09896350                0.31751838                0.07673934               -0.02056719
               5.99760352                2.00450184               21.02110371                0.01000000               -0.15169288               -0.14621763                0.10300907                0.34339869                0.08035650               -0.05237151
               6.99579349                2.00721702               21.02224394                0.01000000               -0.10677098               -0.09420560                0.10722381                0.21077045                0.03807032               -0.01932698
               7.99546810                2.00829821               21.02253385                0.07546364               -0.03292215               -0.03306355                0.10982226                0.00073062               -0.00578359                0.00004388
               8.99513505                2.00937282               21.02279593                0.99999999               -0.03371219               -0.03371082                0.11244347                0.00004956               -0.00417131               -0.00172976
               9.99479386                2.01044003               21.02311896                0.99999999               -0.03411915               -0.03455043                0.11504083                0.00035867               -0.00126007                0.00655352
               0.00368960                3.00078180               21.01834396                0.01000001               -0.01924924               -0.03565769                0.08848758               -0.00712855                0.00671687                0.08939876
               1.00349710                2.99948494               21.01824853                0.01000001               -0.02384802               -0.09505141                0.08896856                0.01451358                0.01545785                0.06555007
               2.00321264                2.99849325               21.01832405                0.01000000               -0.04893547               -0.08898464                0.09023374                0.09978985                0.03583520                0.02178715
               3.00251840                2.99840154               21.01863605                0.01000000               -0.08556140               -0.07597278                0.09261267                0.20721037                0.05348819                0.00263823
               4.00150141                2.99936723               21.01913070                0.01002730               -0.11211464               -0.06968583                0.09532278                0.30966290                0.06409798               -0.00652040
               5.00027610                3.00116103               21.01978009                0.01000000               -0.13322348               -0.08786105                0.09885388                0.38854856                0.06903081               -0.00659794
               5.99883694                3.00352183               21.02053744                0.01000001               -0.14874910               -0.10795493                0.10220203                0.40532192                0.06208739                0.00184098
               6.99730112                3.00565785               21.02120655                0.01000001               -0.22141979               -0.13145500                0.10514500                0.42978974                0.04513968               -0.00348333
               7.99440854                3.00796992               21.02179837                0.01000001               -0.16161635               -0.10448338                0.10566428                0.35533564                0.00047592                0.02718484
               8.99406879                3.00903928               21.02197322                0.01000004               -0.03370107               -0.12382865                0.11021518                0.27572075               -0.01102119                0.03776596
               9.99373452                3.01009777               21.02233858                0.29146181               -0.03342717               -0.25207252                0.11279049                0.31906160               -0.00168349                0.02973618
               0.00552048                4.00049371               21.01920098                0.01000000               -0.01189665               -0.04582214                0.09464122                0.04808124                0.00015285                0.09299636
               1.00540151                3.99838325               21.01886238                0.01000000               -0.01612184               -0.12965552                0.09432501                0.10840941                0.00959031                0.04759470
               2.00519804                3.99736725               21.01868541                0.01000000               -0.04013560               -0.12534888                0.09437182                0.21201956                0.03056657                0.01481610
               3.00459880                3.99746180               21.01875877                0.01002779               -0.07889221               -0.10490935                0.09508996                0.30038945                0.05320940               -0.00222943
               4.00362020                3.99848718               21.01909461                0.01000000               -0.10775420               -0.09825346                0.09703447                0.37848283                0.07132235               -0.00166914
               5.00244372                4.00022528               21.01964576                0.01000001               -0.12035296               -0.10245905                0.09986153                0.43262419                0.08149419                0.01163345
               6.00121314                4.00234274               21.02032653                0.01000001               -0.12512574               -0.12202996                0.10293990                0.47027917                0.08196073                0.03039961
               6.99994120                4.00458792               21.02102857                0.01010660               -0.10098791               -0.13515895                0.10584673                0.47616884                0.06940919                0.05616516
               7.99919338                4.00620854               21.02159877                0.01010097               -0.07097959               -0.18192672                0.10896728                0.51465871                0.05119593                0.07335800
               8.99852161                4.00689625               21.02198113                0.01000000               -0.00676341               -0.21649374                0.11184695                0.37311348                0.02376437                0.09009827
               9.99905811                4.00539858               21.02205203                0.01000001                0.05365023               -0.34056679                0.11383643                0.28344305                0.01417353                0.05689880
               0.00887215                4.99986536               21.02011374                0.01000000               -0.00803917               -0.14031969                0.10106914                0.15262479                0.00137443                0.10767664
               1.00879175                4.99689183               21.01947259                0.01000000               -0.02488352               -0.14506444                0.09975631                0.24583549                0.01234940                0.03966954
               2.00837448                4.99598627               21.01900890                0.01000001               -0.06927507               -0.12861912                0.09846900                0.31125155                0.03665388               -0.00128087
               3.00740625                4.99630335               21.01889567                0.01000000               -0.10334445               -0.12260947                0.09777798                0.37743874                0.06672697               -0.01125216
               4.00630759                4.99740216               21.01915890                0.01000001               -0.11666144               -0.10894909                0.09912565                0.41983991                0.09307459               -0.00002972
               5.00507302                4.99911185               21.01973232                0.01000001               -0.12138525               -0.11146519                0.10164571                0.44680324                0.11046442                0.02315032
               6.00387988                5.00108123               21.02050030                0.01000001               -0.10571623               -0.12706295                0.10569317                0.44740439                0.11672230                0.05516042
               7.00295870                5.00295467               21.02133214                0.01000001               -0.07432447               -0.16125524                0.10953921                0.42746268                0.11047357                0.09118614
               8.00239339                5.00433138               21.02206490                0.01000000               -0.03088386               -0.18725536                0.11230793                0.36011932                0.08928986                0.12446179
               9.00234102                5.00470941               21.02252027                0.01000000                0.00026601               -0.19906958                0.11527080                0.24539603                0.05339248                0.13926823
              10.00239871                5.00328644               21.02249588                0.01000000                0.00576900               -0.14717124                0.11697571                0.12098876                0.03237736                0.11998600
               0.01452003                5.99768732               21.02135434                0.72652569               -0.03227258               -0.12514094                0.10863195                0.17202290               -0.00338378                0.06349848
               1.01419730                5.99548196               21.02014633                0.01000001               -0.12542433               -0.08657734                0.10658179                0.23571356                0.01066871                0.01787731
               2.01201154                5.99479487               21.01922795                0.01000000               -0.17328096               -0.15167526                0.10174007                0.36169669                0.03934460               -0.02797240
               3.01073169                5.99500961               21.01899470                0.01000001               -0.14015218               -0.11405704                0.10028063                0.39779108                0.08958181               -0.02110221
               4.00920850                5.99630820               21.01928991                0.01000001               -0.15154899               -0.10682411                0.10108872                0.43008563                0.12477602               -0.00278348
               5.00770071                5.99799598               21.01997514                0.01000001               -0.14450487               -0.10225905                0.10456566                0.42378825                0.14907671                0.02791984
               6.00631840                5.99980148               21.02095116                0.01000002               -0.12302008               -0.11072703                0.10817036                0.37950533                0.16230341                0.06974060
               7.00524030                6.00136282               21.02206676                0.01000000               -0.08386876               -0.14102193                0.11355449                0.30786859                0.15970824                0.12176857
               8.00464103                6.00246343               21.02311771                0.01000000               -0.03829138               -0.17207834                0.11854220                0.22608421                0.13607530                0.17293518
               9.00447448                6.00291486               21.02378691                0.01000001               -0.01585986               -0.16386496                0.12215103                0.12593455                0.08254991                0.21038793
              10.00432383                6.00245516               21.02374326                0.01000001               -0.01506459               -0.05738122                0.12333386                0.06112232                0.04810091                0.21056383
               0.01672332                6.99736254               21.02183524                0.99999999               -0.03248426               -0.03248979                0.10933457               -0.00012624               -0.00396486                0.02412597
               1.01639848                6.99516028               21.02050804                1.00000000               -0.03212802               -0.03207735                0.10687085               -0.00033096               -0.00613240                0.00255559
               2.01608076                6.99295277               21.01914406                0.01000000               -0.12748665               -0.10773725                0.10469119                0.25680456                0.05605594               -0.03318282
               3.01384874                6.99402221               21.01906917                0.01000001               -0.20789114               -0.11757923                0.10215864                0.38790237                0.12424760               -0.03198012
               4.01192293                6.99526568               21.01942042                0.01011097               -0.18966193               -0.10243427                0.10291782                0.41504063                0.15736858               -0.01403865
               5.01005550                6.99706667               21.02028295                0.01000001               -0.19098934               -0.06630486                0.10718908                0.38915865                0.19306369                0.02547051
               6.00810315                6.99886669               21.02157479                0.01000000               -0.18006912               -0.06222781                0.11204581                0.29231249                0.21861600                0.07419810
               7.00645412                7.00013423               21.02316161                0.01000000               -0.13700553               -0.08853365                0.11923860                0.16653362                0.22435374                0.13873993
               8.00536304                7.00088982               21.02478126                0.01000000               -0.07930658               -0.13156643                0.12619581                0.05346571                0.19881462                0.23033758
               9.00486799                7.00143211               21.02596101                0.01000002               -0.04112413               -0.14238360                0.13171538               -0.00366481                0.12244969                0.30633728
              10.00454055                7.00213881               21.02607209                0.01000000               -0.03274353               -0.03889618                0.13359502               -0.01752725                0.06900296                0.35241106
               0.01892202                7.99703752               21.02229345                1.00000000               -0.03215632               -0.03239658                0.10826077               -0.00008898               -0.00073190                0.02307707
               1.01860046                7.99484041               21.02088371                0.99999999               -0.03181587               -0.03184903                0.10608996                0.00003596               -0.00046840                0.00302246
               2.01828570                7.99264012               21.01948292                0.01000000               -0.12118170               -0.03116002                0.10388197                0.11104846                0.04689793               -0.01650494
               3.01617682                7.99265803               21.01902641                0.01000001               -0.19104213               -0.19448302                0.10387408                0.39743566                0.12126558               -0.08798128
               4.01446486                7.99425951               21.01942421                0.01011195               -0.21469794               -0.05930801                0.10489955                0.43595447                0.18969333               -0.02524773
               5.01188286                7.99666988               21.02056792                0.01000000               -0.26838853                0.00182473                0.10869822                0.34424482                0.23865891                0.01852218
               6.00909709                7.99855693               21.02222346                0.01000000               -0.26675050                0.00449982                0.11640233                0.19948150                0.27284052                0.06662001
               7.00654785                7.99959214               21.02439071                0.01000000               -0.23423119               -0.01203063                0.12524056                0.03973462                0.31339467                0.13059842
               8.00441246                7.99983211               21.02715513                0.01000002               -0.16978339               -0.04950698                0.13648901               -0.11627159                0.30081295                0.23766634
               9.00315219                8.00006718               21.02929429                0.01000007               -0.09262921               -0.10238056                0.14554197               -0.22374410                0.19956585                0.52631292
              10.00255988                8.00167723               21.03013936                0.01000000               -0.05923048               -0.16016181                0.15023127               -0.16447565                0.13318638                0.51624819
               0.02111575                8.99671461               21.02275652                1.00000000               -0.03191610               -0.03220702                0.10746677               -0.00009884                0.00227297                0.01838622
               1.02079659                8.99452330               21.02126050                0.99999999               -0.03158211               -0.03158149                0.10526704                0.00003330                0.00103949                0.00170517
               2.02048411                8.99232957               21.01974084                1.00000000               -0.03092649               -0.03093570                0.10307207               -0.00000890               -0.00553197               -0.01231012
               3.02017806                8.99013255               21.01811674                0.01005911               -0.19269703               -0.14132871                0.10085096                0.39730147                0.13479715               -0.07676893
               4.01663017                8.99407952               21.01940959                0.01000000               -0.37675391                0.05509893                0.10601477                0.40922783                0.26010116               -0.02471899
               5.01264299                8.99710316               21.02076217                0.01000000               -0.37298294                0.06853906                0.11100553                0.22682364                0.26641347                0.01160057
               6.00917051                8.99895669               21.02268392                0.01000001               -0.33346748                0.05791769                0.11942015                0.10143993                0.31093953                0.04162537
               7.00597364                8.99989362               21.02535748                0.01000002               -0.33039739                0.04868445                0.13025480               -0.01072634                0.38153954                0.08229045
               8.00256257                8.99989968               21.02905475                0.01000002               -0.37128283                0.05205107                0.14511442               -0.13162716                0.57568996                0.16482208
               8.99854798                8.99938450               21.03597378                0.99999998               -0.22658122               -0.06004855                0.17185915               -0.25569647                0.35756966                0.34736739
               9.99803094                8.99893558               21.03571884                0.99998919               -0.05170387               -0.16320493                0.17306454               -0.24895875               -0.00101320                0.29020445
               0.02330265                9.99639338               21.02312147                1.00000000               -0.03164927               -0.03212243                0.10664847                0.00023012                0.01278032                0.01356184
               1.02298616                9.99420878               21.02161303                1.00000000               -0.03131920               -0.03145163                0.10444622                0.00035807                0.01609543                0.00044766
               2.02267627                9.99202141               21.02016935                1.00000000               -0.03066306               -0.03081581                0.10227388                0.00034919                0.01618171               -0.00394906
               3.02237290                9.98983145               21.01866354                0.01000000               -0.34987316               -0.03011006                0.10007601                0.38648777                0.12617260               -0.00424826
               4.01567881                9.99536149               21.01942296                0.01000000               -0.54153682                0.12819744                0.10563232                0.31532380                0.22692922               -0.01358957
               5.01154216                9.99804066               21.02081152                0.01000000               -0.36716883                0.09374974                0.11209996                0.10760724                0.25769237                0.01299103
               6.00833543                9.99971528               21.02273589                0.01000001               -0.30759122                0.07585916                0.12030030                0.04275027                0.30970143                0.02810444
               7.00539034               10.00056583               21.02554037                0.01000000               -0.30231934                0.06722124                0.13215355               -0.00043748                0.41644158                0.04938469
               8.00228904               10.00087313               21.02991502                0.01000002               -0.31939908                0.09734491                0.15001162               -0.11233325                0.55127127                0.12104534
               8.99900236                9.99886621               21.03572886                0.99999999               -0.19052465               -0.05182864                0.17386343               -0.07756184                0.30467043                0.00122750
               9.99847855                9.99841313               21.03547390                0.99999999               -0.05238072               -0.05224415                0.17507252               -0.00054683                0.00112937               -0.00111418
               0.00122617                0.00174196               22.01831762                1.00000000               -0.02576958               -0.02557287                0.08616803               -0.00048505               -0.00372730                0.00333025
               1.00096847                0.00076818               22.01827459                1.00000000               -0.02558802               -0.02532219                0.08537027                0.00000214               -0.00391830               -0.00113111
               2.00071441               -0.00020974               22.01822597                0.01000000               -0.00501394               -0.02506879                0.08453053                0.02896745                0.05217392               -0.00151903
               3.00086820               -0.00061125               22.01930627                0.01000000                0.00527770               -0.02609662                0.08933500                0.02323667                0.11753924               -0.00122871
               4.00081996                0.00026154               22.02055514                0.01000001               -0.03033328               -0.01498194                0.09484657                0.06528460                0.14220913               -0.01090072
               5.00026153                0.00268788               22.02215087                0.01000000               -0.13860406               -0.00668440                0.10085483                0.16660270                0.18110312               -0.01936083
               5.99804788                0.00742853               22.02429284                0.25471103               -0.12685893               -0.03251025                0.10844551                0.17962934                0.10685630               -0.00100933
               6.99772435                0.00857587               22.02483048                0.99997449               -0.03306136               -0.03299607                0.11112612                0.00026133                0.01659448               -0.00443062
               7.99738666                0.00972078               22.02516221                0.99999999               -0.03420063               -0.03388261                0.11397469                0.00045590                0.00811259               -0.00048907
               8.99704034                0.01085913               22.02552693                1.00000000               -0.03507447               -0.03475431                0.11689875                0.00045109                0.00786957                0.00093200
               9.99668517                0.01199133               22.02585254                1.00000000               -0.03551725               -0.03566159                0.11982437                0.00078726                0.00587919                0.00535837
               0.00219510                1.00148623               22.01831259                1.00000000               -0.02507510               -0.02528178                0.08435097               -0.00027641                0.00104551                0.00387435
               1.00194435                1.00051496               22.01827124                0.01017808               -0.02506479               -0.02506683                0.08346646                0.00009430                0.00244706               -0.00304057
               2.00169380                0.99953957               22.01826413                0.01000000               -0.05397111               -0.03582394                0.08274566                0.00445363                0.05960509                0.02728705
               3.00086492                0.99912779               22.01936066                0.01000001               -0.09352768               -0.02320305                0.08918985                0.05264418                0.10655736                0.00045874
               3.99982325                1.00011172               22.02041702                0.01000000               -0.12604311               -0.01626147                0.09424175                0.13994386                0.10796798               -0.01181432
               4.99834406                1.00262103               22.02170798                0.01000000               -0.14615336               -0.02193029                0.09953875                0.27005733                0.13870564               -0.02011351
               5.99690018                1.00710343               22.02361768                0.01000001               -0.08816102               -0.12176080                0.10636676                0.24753836                0.08649381               -0.04127888
               6.99658084                1.00824591               22.02407376                1.00000000               -0.03252971               -0.03267460                0.10898683                0.00001996                0.00738246               -0.00436269
               7.99624959                1.00938195               22.02439701                0.99992486               -0.03356317               -0.03357291                0.11188807                0.00002068                0.00122146               -0.00039353
               8.99590958                1.01051159               22.02472760                0.99999999               -0.03443720               -0.03444343                0.11481577                0.00001564                0.00111819                0.00059803
               9.99556084                1.01163471               22.02504856                1.00000000               -0.03487355               -0.03535143                0.11773998                0.00032034                0.00054772                0.00663474
               0.00316318                2.00123632               22.01831618                0.01000001               -0.02461629               -0.03292361                0.08253634               -0.01404232                0.00167944                0.04995129
               1.00291702                2.00026685               22.01823281                0.01000000               -0.04862613               -0.05455544                0.08145845               -0.02223002                0.03831851                0.04247823
               2.00219066                1.99907378               22.01887855                0.01000001               -0.07840432               -0.05801271                0.08654148                0.01704108                0.06644911                0.04113921
               3.00134893                1.99892469               22.01942677                0.01000000               -0.10325330               -0.04063728                0.09044628                0.13231801                0.06866562                0.00510847
               4.00012559                1.99993631               22.02021756                0.01000000               -0.13389824               -0.03578412                0.09447680                0.25340557                0.08128200               -0.01050521
               4.99867097                2.00224927               22.02118504                0.01000001               -0.13759095               -0.06230513                0.09868021                0.34861047                0.07920954               -0.01970642
               5.99737377                2.00499332               22.02213194                0.01000000               -0.16123707               -0.15837318                0.10271159                0.37546388                0.08238848               -0.05302905
               6.99544623                2.00792238               22.02331443                0.01000000               -0.11261902               -0.10038643                0.10685537                0.22939833                0.03881302               -0.01914426
               7.99512139                2.00904932               22.02363193                0.07756597               -0.03291649               -0.03307519                0.10979335                0.00078752               -0.00575673               -0.00073358
               8.99478790                2.01017026               22.02392183                0.99999998               -0.03380349               -0.03379765                0.11274221                0.00005126               -0.00414200               -0.00170688
               9.99444532                2.01128430               22.02427246                0.99999999               -0.03425723               -0.03474277                0.11566534                0.00033444               -0.00124445                0.00656240
               0.00385320                3.00082776               22.01922998                0.01000001               -0.01909179               -0.03453697                0.08850411               -0.00546925                0.00727674                0.09687956
               1.00366229                2.99942385               22.01913846                0.01000001               -0.02382131               -0.10072283                0.08900391                0.01953918                0.01637372                0.07343982
               2.00337678                2.99837932               22.01922616                0.01000000               -0.05067659               -0.09487018                0.09040015                0.11285853                0.03760640                0.02674173
               3.00264876                2.99831504               22.01956226                0.01000000               -0.09050008               -0.08064640                0.09274425                0.22973251                0.05567724                0.00601096
               4.00156678                2.99939604               22.02008486                0.01000365               -0.11947452               -0.07389159                0.09557433                0.34116379                0.06645697               -0.00428389
               5.00025926                3.00137493               22.02076834                0.01000000               -0.14152131               -0.09398904                0.09888219                0.42548665                0.07151640               -0.00526806
               5.99873635                3.00393597               22.02155812                0.01000001               -0.15732319               -0.11612288                0.10214467                0.44129597                0.06368416                0.00323394
               6.99711280                3.00623818               22.02225917                0.01000001               -0.23594480               -0.14173975                0.10535660                0.46619865                0.04517330               -0.00252561
               7.99401745                3.00872045               22.02285916                0.01000001               -0.17185866               -0.11173397                0.10714421                0.38429245                0.00030662                0.02891311
               8.99367563                3.00983563               22.02307767                0.01000000               -0.03389996               -0.13155290                0.11067589                0.29730244               -0.01020494                0.03979137
               9.99333946                3.01093985               22.02347040                0.30946296               -0.03361720               -0.26936702                0.11358459                0.34406546               -0.00168587                0.03155395
               0.00586161                4.00054559               22.02014777                0.01000000               -0.01053666               -0.04777729                0.09477523                0.05459623               -0.00003297                0.10085280
               1.00575624                3.99825239               22.01980677                0.01000000               -0.01524830               -0.13866495                0.09461595                0.12203570                0.00954994                0.05429619
               2.00555664                3.99717638               22.01963028                0.01000000               -0.04146894               -0.13378897                0.09466804                0.23580064                0.03098507                0.01978774
               3.00492686                3.99731176               22.01971114                0.01000404               -0.08338328               -0.11204059                0.09546412                0.33166034                0.05443392                0.00085772
               4.00388898                3.99845848               22.02006579                0.01000000               -0.11430456               -0.10462427                0.09729382                0.41571566                0.07338803                0.00052744
               5.00264077                4.00036949               22.02064565                0.01000001               -0.12762669               -0.10973892                0.10012557                0.47312134                0.08386746                0.01349277
               6.00133644                4.00267086               22.02135579                0.01000001               -0.13275289               -0.13045270                0.10315485                0.51166924                0.08377743                0.03310590
               6.99998571                4.00508758               22.02208424                0.01000961               -0.10633260               -0.14506182                0.10613114                0.51641694                0.07038799                0.05915638
               7.99920979                4.00681464               22.02268835                0.01000001               -0.07355867               -0.19584398                0.10942425                0.55673499                0.05102996                0.07952031
               8.99851454                4.00753920               22.02310405                0.01000000               -0.00458012               -0.23169070                0.11263339                0.40327995                0.02303490                0.09598243
               9.99911819                4.00589696               22.02319856                0.01000000                0.06036478               -0.36482434                0.11499533                0.30610307                0.01429667                0.06000667
               0.00953152                4.99987221               22.02112747                0.01000000               -0.00593114               -0.15398913                0.10165101                0.16998547                0.00082171                0.11644636
               1.00947221                4.99665055               22.02047356                0.01000000               -0.02490496               -0.15526591                0.10044382                0.27263875                0.01165210                0.04705045
               2.00903342                4.99570354               22.01999521                0.01000001               -0.07361725               -0.13634096                0.09890470                0.34276563                0.03602710                0.00287160
               3.00799986                4.99607423               22.01987449                0.01000000               -0.11050288               -0.13020050                0.09801212                0.41381229                0.06712006               -0.00874633
               4.00682336                4.99730355               22.02015092                0.01000001               -0.12452751               -0.11563990                0.09927882                0.45952011                0.09535625                0.00136268
               5.00550931                4.99918015               22.02074792                0.01000001               -0.12858590               -0.11834337                0.10172894                0.48769783                0.11412576                0.02525603
               6.00425164                5.00132691               22.02155882                0.01010298               -0.11059781               -0.13521873                0.10562056                0.48636858                0.12069282                0.05828807
               7.00329736                5.00333695               22.02242821                0.01008619               -0.07755536               -0.17037541                0.10943804                0.46224081                0.11468267                0.09380077
               8.00270054                5.00480357               22.02318840                0.01000000               -0.03192213               -0.19908198                0.11325649                0.38984041                0.09326975                0.12851255
               9.00265891                5.00520182               22.02367471                0.01000000                0.00227352               -0.21207398                0.11638050                0.26564729                0.05612085                0.14543067
              10.00274601                5.00364337               22.02366971                0.01000000                0.00870940               -0.15623272                0.11798757                0.13074909                0.03414329                0.12488308
               0.01570464                5.99746580               22.02244664                0.69873024               -0.03269464               -0.13668047                0.10976682                0.19262551               -0.00335286                0.06874505
               1.01537769                5.99514707               22.02122013                0.01000001               -0.13581778               -0.09146318                0.10812073                0.26024925                0.00902014                0.02258552
               2.01298828                5.99444956               22.02024909                0.01000000               -0.18872972               -0.16030574                0.10246841                0.39493802                0.03693948               -0.02415775
               3.01160310                5.99470775               22.01999596                0.01000001               -0.15074135               -0.11940254                0.10022345                0.43288651                0.09009983               -0.02011263
               4.00997345                5.99614568               22.02029862                0.01000001               -0.16158634               -0.11269324                0.10069537                0.46814309                0.12844637               -0.00285715
               5.00837137                5.99800262               22.02102045                0.01010444               -0.15332158               -0.10692524                0.10414864                0.46063975                0.15411218                0.03008028
               6.00690702                5.99996648               22.02203365                0.01000000               -0.13087487               -0.11798152                0.10869453                0.41500108                0.16763587                0.07282074
               7.00575387                6.00168008               22.02320449                0.01000000               -0.08826485               -0.14863665                0.11381911                0.33362940                0.16497421                0.12649722
               8.00514173                6.00283300               22.02430317                0.01000000               -0.03830909               -0.18154571                0.11860659                0.24355424                0.14003970                0.17947503
               9.00498769                6.00329772               22.02501144                0.01000001               -0.01458268               -0.17316009                0.12277233                0.13643995                0.08511359                0.21863538
              10.00485007                6.00277230               22.02498038                0.01000001               -0.01376179               -0.05907139                0.12428869                0.06623481                0.04966136                0.21872333
               0.01802149                6.99713860               22.02293298                0.99999999               -0.03280542               -0.03268729                0.11017596               -0.00019977               -0.00432771                0.02481672
               1.01769343                6.99482129               22.02158294                1.00000000               -0.03249948               -0.03242359                0.10807627               -0.00034790               -0.00633558                0.00314139
               2.01737150                6.99249743               22.02019891                0.01000000               -0.13659818               -0.11344356                0.10625167                0.27854218                0.05530177               -0.03100402
               3.01496147                6.99368618               22.02008983                0.01000001               -0.22400736               -0.12229380                0.10070761                0.41858812                0.12535887               -0.03222719
               4.01289135                6.99504969               22.02044313                0.01001399               -0.20300838               -0.10715531                0.10223574                0.44876317                0.16260504               -0.01503452
               5.01090130                6.99704165               22.02135530                0.01009097               -0.20085690               -0.06868253                0.10659838                0.41977991                0.19756049                0.02834696
               6.00887421                6.99896728               22.02269312                0.01000000               -0.18989396               -0.06498235                0.11204244                0.31659453                0.22542224                0.07805414
               7.00710342                7.00036421               22.02436150                0.01000000               -0.14601198               -0.09397552                0.12013681                0.18346523                0.23230499                0.14450282
               8.00595397                7.00117266               22.02604425                0.01000000               -0.08275058               -0.13822051                0.12659265                0.06008538                0.20499527                0.23872277
               9.00544841                7.00173862               22.02727984                0.01000002               -0.04162161               -0.14901923                0.13215845               -0.00216061                0.12636647                0.31712941
              10.00512154                7.00246194               22.02741103                0.01001617               -0.03268703               -0.03806823                0.13429980               -0.01781986                0.07130260                0.36503045
               0.02033527                7.99681206               22.02337800                1.00000000               -0.03233577               -0.03248652                0.10862958               -0.00014211               -0.00074247                0.02300641
               1.02001191                7.99449860               22.02194849                0.99999999               -0.03205155               -0.03206962                0.10685468                0.00005419               -0.00048869                0.00304962
               2.01969424                7.99218069               22.02052752                0.01000000               -0.12946579               -0.03150742                0.10503630                0.12017568                0.04803466               -0.01650402
               3.01742260                7.99226188               22.02007425                0.01000001               -0.20504958               -0.20680077                0.10455149                0.42815680                0.12558349               -0.08993577
               4.01559325                7.99400257               22.02046838                0.01000531               -0.22866110               -0.06087607                0.10288251                0.46943751                0.19789794               -0.02666896
               5.01284937                7.99662897               22.02165652                0.01000000               -0.28384484                0.00301113                0.10948304                0.37142577                0.24395250                0.02231265
               6.00991635                7.99866684               22.02338631                0.01000000               -0.28157862                0.00744006                0.11609350                0.21404417                0.28132793                0.07011229
               7.00721780                7.99980056               22.02564422                0.01000000               -0.24736607               -0.01116404                0.12556632                0.04515036                0.32364241                0.13553465
               8.00496903                8.00006859               22.02852070                0.01000002               -0.17813033               -0.05044333                0.13666223               -0.12140925                0.31071569                0.24613725
               9.00365519                8.00031734               22.03074991                0.01000007               -0.09610000               -0.10537981                0.14567241               -0.23602408                0.20618597                0.54455433
              10.00304703                8.00201094               22.03164291                0.01000000               -0.06081663               -0.16508379                0.15054841               -0.17323376                0.13791821                0.53451309
               0.02264556                8.99648887               22.02383103                1.00000000               -0.03196726               -0.03217987                0.10742818               -0.00015244                0.00227997                0.01846436
               1.02232589                8.99417990               22.02231496                0.99999999               -0.03169113               -0.03168412                0.10562861                0.00004636                0.00105555                0.00172869
               2.02201174                8.99186728               22.02077541                1.00000000               -0.03115828               -0.03116350                0.10384854                0.00000460               -0.00551524               -0.01229617
               3.02170272                8.98955016               22.01913129                0.01002296               -0.20493655               -0.15079359                0.10206178                0.42806577                0.13852840               -0.07794261
               4.01791301                8.99383217               22.02047858                0.01000000               -0.40185823                0.06069612                0.10701836                0.44143341                0.26775756               -0.02493844
               5.01366556                8.99710187               22.02187705                0.01000000               -0.39647497                0.07469178                0.11202746                0.24516016                0.27344131                0.01447692
               6.00998351                8.99911608               22.02388064                0.01000001               -0.35304404                0.06391063                0.11976639                0.10975472                0.32107350                0.04375368
               7.00660468                9.00014093               22.02666124                0.01000002               -0.34872447                0.05380744                0.13052738               -0.01013609                0.39437700                0.08553782
               8.00300902                9.00016379               22.03050591                0.01000002               -0.39095446                0.05759742                0.14519910               -0.13859072                0.59561003                0.17053604
               8.99878559                8.99963102               22.03768912                0.99999998               -0.23696750               -0.06020691                0.17118137               -0.26976267                0.37000413                0.35909637
               9.99826967                8.99916026               22.03744925                1.00000000               -0.05159198               -0.16869985                0.17302295               -0.26248227               -0.00102656                0.30036944
               0.02495017                9.99616846               22.02418568                1.00000000               -0.03157366               -0.03204144                0.10620303                0.00010718                0.01283884                0.01362538
               1.02463444                9.99386492               22.02265725                1.00000000               -0.03130529               -0.03149799                0.10440707                0.00030289                0.01616440                0.00047066
               2.02432407                9.99155742               22.02119390                1.00000000               -0.03077072               -0.03098581                0.10264931                0.00028736                0.01624412               -0.00393959
               3.02401902                9.98924601               22.01966813                0.01000000               -0.37269302               -0.03041567                0.10085907                0.41458396                0.13059159               -0.00426285
               4.01687021                9.99521650               22.02049521                0.01000000               -0.57751805                0.13843305                0.10782085                0.33956027                0.23202297               -0.01312995
               5.01246866                9.99812281               22.02193641                0.01000000               -0.38989110                0.10209384                0.11300474                0.11673806                0.26530717                0.01429317
               6.00907238                9.99994505               22.02394242                0.01000001               -0.32506440                0.08289669                0.12099220                0.04658303                0.32047823                0.02938001
               7.00596737               10.00087671               22.02686419                0.01000001               -0.31826299                0.07357826                0.13258637                0.00004429                0.43159111                0.05134311
               8.00270712               10.00122054               22.03141627                0.01000002               -0.33519525                0.10567514                0.15020279               -0.11836494                0.57178485                0.12523181
               8.99926347                9.99911320               22.03746772                0.99992764               -0.19841140               -0.05178212                0.17390539               -0.08139191                0.31583368                0.00129172
               9.99873890                9.99863694               22.03722792                0.99999998               -0.05245711               -0.05233230                0.17574769               -0.00070285                0.00106197               -0.00113958
               0.00123611                0.00178908               23.01918052                1.00000000               -0.02546338               -0.02527851                0.08617145               -0.00037880               -0.00350851                0.00365644
               1.00098147                0.00076960               23.01912962                1.00000000               -0.02554165               -0.02562305                0.08554806               -0.00088228               -0.00384353               -0.00117708
               2.00072527               -0.00025296               23.01907160                0.01000000               -0.00517732               -0.02511772                0.08477202                0.03029222                0.05501304               -0.00163376
               3.00087793               -0.00067339               23.02019936                0.01000000                0.00444959               -0.02481809                0.08943178                0.02494612                0.12235978               -0.00047188
               4.00081427                0.00029470               23.02150245                0.01000001               -0.03419093               -0.01269979                0.09473874                0.07170538                0.14659733               -0.01064338
               5.00019411                0.00294247               23.02315674                0.01000000               -0.15261198               -0.00330510                0.10038221                0.18306622                0.18561790               -0.01957437
               5.99776203                0.00810396               23.02537251                0.24343386               -0.13765453               -0.03224493                0.10746090                0.19836653                0.10884818               -0.00102203
               6.99744102                0.00929868               23.02593811                1.00000000               -0.03285094               -0.03279241                0.11037583                0.00031471                0.01640997               -0.00449171
               7.99710501                0.01049151               23.02630004                0.99999999               -0.03408369               -0.03378987                0.11358032                0.00050746                0.00808419               -0.00049060
               8.99675934                0.01167822               23.02669568                1.00000000               -0.03505950               -0.03476563                0.11685119                0.00050294                0.00788394                0.00094095
               9.99640382                0.01285937               23.02705226                1.00000000               -0.03555263               -0.03578129                0.12012366                0.00081412                0.00589561                0.00536610
               0.00225180                1.00153629               23.01915715                1.00000000               -0.02581252               -0.02502873                0.08431574               -0.00061432                0.00121310                0.00407926
               1.00199367                1.00051337               23.01910547                0.01000000               -0.02510504               -0.02514909                0.08344684                0.00023943                0.00308759               -0.00301265
               2.00174969                0.99949586               23.01909059                0.01000000               -0.05700552               -0.03696702                0.08283272                0.00468247                0.06369509                0.02978141
               3.00085356                0.99907843               23.02025229                0.01000001               -0.10131541               -0.02223896                0.08930312                0.05783938                0.11212155                0.00240924
               3.99972339                1.00016770               23.02135864                0.01000000               -0.13667108               -0.01458686                0.09418966                0.15352610                0.11175258               -0.01085343
               4.99812014                1.00290942               23.02270141                0.01000000               -0.15778996               -0.02072282                0.09922934                0.29584292                0.14233379               -0.01979534
               5.99656759                1.00778151               23.02467741                0.01000001               -0.09348730               -0.13015706                0.10555161                0.27106074                0.08807474               -0.04196022
               6.99625039                1.00897076               23.02516085                0.99999426               -0.03236372               -0.03249800                0.10841520                0.00004229                0.00719329               -0.00440991
               7.99592031                1.01015361               23.02551486                1.00000000               -0.03349748               -0.03350593                0.11166616                0.00001818                0.00122073               -0.00039306
               8.99558044                1.01133056               23.02587642                0.99999999               -0.03447506               -0.03448051                0.11494022                0.00001372                0.00112865                0.00061107
               9.99523081                1.01250155               23.02622827                1.00000000               -0.03496309               -0.03549661                0.11821117                0.00029321                0.00055329                0.00664417
               0.00326966                2.00128850               23.01914061                0.01000001               -0.02429706               -0.03242457                0.08228137               -0.01386947                0.00172732                0.05401479
               1.00302669                2.00026662               23.01904502                0.01000000               -0.05078969               -0.05667984                0.08122351               -0.02230395                0.04132045                0.04736077
               2.00225387                1.99900770               23.01974033                0.01000001               -0.08319074               -0.06097552                0.08703418                0.02032367                0.07072210                0.04628881
               3.00136288                1.99888183               23.02033266                0.01000000               -0.11000395               -0.04205186                0.09061896                0.14574718                0.07215027                0.00835681
               4.00005379                2.00000296               23.02116231                0.01000000               -0.14328626               -0.03671903                0.09462099                0.27736375                0.08405848               -0.00854032
               4.99849715                2.00252802               23.02217120                0.01000001               -0.14659431               -0.06571793                0.09867548                0.38054463                0.08135645               -0.01868781
               5.99712191                2.00550082               23.02315795                0.01000000               -0.17136930               -0.17094234                0.10257807                0.40864538                0.08403243               -0.05335144
               6.99506977                2.00864872               23.02438104                0.01000000               -0.11881702               -0.10666152                0.10646117                0.24868594                0.03930903               -0.01876110
               7.99474556                2.00982139               23.02472972                0.07996754               -0.03290482               -0.03309241                0.10974492                0.00078741               -0.00572611               -0.00051249
               8.99441167                2.01098861               23.02505078                0.99999998               -0.03389320               -0.03388357                0.11303778                0.00005287               -0.00412238               -0.00168987
               9.99406770                2.01214944               23.02543227                0.99999999               -0.03439702               -0.03493991                0.11630718                0.00030899               -0.00124141                0.00657134
               0.00401817                3.00088780               23.02011404                0.01000001               -0.01897765               -0.03376168                0.08835951               -0.00419473                0.00785340                0.10462839
               1.00382840                2.99937978               23.02002861                0.01000001               -0.02386054               -0.10662755                0.08914869                0.02359271                0.01741963                0.08197251
               2.00354096                2.99827635               23.02013205                0.01000000               -0.05275763               -0.10068703                0.09067588                0.12585554                0.03932096                0.03233767
               3.00277324                2.99823739               23.02049094                0.01000000               -0.09582453               -0.08575500                0.09316033                0.25230284                0.05755140                0.00955836
               4.00162447                2.99943332               23.02104219                0.01000001               -0.12700370               -0.07856452                0.09598897                0.37286665                0.06857243               -0.00186328
               5.00023317                3.00159506               23.02175774                0.01000000               -0.15023411               -0.10062329                0.09914305                0.46316294                0.07377926               -0.00389359
               5.99861979                3.00436266               23.02258033                0.01000001               -0.16648134               -0.12483301                0.10244425                0.47853278                0.06521599                0.00495546
               6.99690354                3.00683753               23.02331368                0.01000001               -0.25118084               -0.15233548                0.10566784                0.50378650                0.04574582               -0.00071780
               7.99359617                3.00949176               23.02394126                0.01000001               -0.18250455               -0.11758398                0.10853597                0.41319855               -0.00016400                0.03101492
               8.99325345                3.01065289               23.02418674                0.01000000               -0.03404156               -0.13848739                0.11114160                0.31857113               -0.01039148                0.04183653
               9.99291534                3.01180276               23.02461027                0.32809050               -0.03381105               -0.28750155                0.11439784                0.36935257               -0.00168409                0.03322845
               0.00620182                4.00061327               23.02109649                0.01000000               -0.00918257               -0.04961944                0.09496839                0.06099164               -0.00037232                0.10924079
               1.00611000                3.99813407               23.02075470                0.01000000               -0.01442277               -0.14801487                0.09503254                0.13546778                0.00924460                0.06151892
               2.00591337                3.99699396               23.02057877                0.01000000               -0.04290141               -0.14257291                0.09518498                0.25928920                0.03106061                0.02498514
               3.00525197                3.99716673               23.02066805                0.01000001               -0.08799598               -0.11968908                0.09604503                0.36287040                0.05529989                0.00403641
               4.00415345                3.99843167               23.02104048                0.01000000               -0.12104523               -0.11183659                0.09783824                0.45328157                0.07507275                0.00252923
               5.00283107                4.00051555               23.02164827                0.01000001               -0.13516760               -0.11764473                0.10057883                0.51434796                0.08601579                0.01515454
               6.00145010                4.00300416               23.02238962                0.01000001               -0.14073312               -0.13967660                0.10377142                0.55400625                0.08592038                0.03542180
               7.00001640                4.00560201               23.02315120                0.01000003               -0.11279633               -0.15635453                0.10724644                0.55923887                0.07241029                0.06285465
               7.99919417                4.00746971               23.02378726                0.01000001               -0.07721532               -0.21024747                0.11046334                0.60164826                0.05238068                0.08504045
               8.99847210                4.00821886               23.02423380                0.01000000               -0.00195727               -0.24711337                0.11344075                0.43291846                0.02370430                0.10077677
               9.99915502                4.00639940               23.02435193                0.01000000                0.06829284               -0.39002390                0.11577761                0.32686506                0.01476135                0.06318768
               0.01019641                4.99989541               23.02214676                0.01000000               -0.00393435               -0.16782778                0.10219421                0.18761529                0.00003939                0.12593051
               1.01015706                4.99641948               23.02148147                0.01000000               -0.02511592               -0.16548881                0.10117742                0.29973684                0.01048013                0.05520391
               2.00969409                4.99542489               23.02098699                0.01000001               -0.07820610               -0.14429753                0.09958838                0.37426282                0.03467340                0.00724014
               3.00859294                4.99584361               23.02085591                0.01000000               -0.11764050               -0.13873537                0.09858027                0.45019395                0.06682560               -0.00664101
               4.00734128                4.99719659               23.02114448                0.01000001               -0.13226520               -0.12364113                0.09967006                0.49990269                0.09742112                0.00183536
               5.00594764                4.99924217               23.02176690                0.01000001               -0.13639131               -0.12626715                0.10238815                0.52946983                0.11733670                0.02635544
               6.00461345                5.00156913               23.02261271                0.01001029               -0.11624330               -0.14402831                0.10573569                0.52526268                0.12387886                0.06105739
               7.00362277                5.00371044               23.02352090                0.01000868               -0.08005826               -0.18212727                0.10979548                0.49857715                0.11666780                0.09958633
               8.00301229                5.00528681               23.02433003                0.01000000               -0.03203237               -0.21363132                0.11463649                0.42204424                0.09541032                0.13555438
               9.00298212                5.00571063               23.02484788                0.01000000                0.00396356               -0.22682161                0.11787324                0.28714580                0.05752038                0.15143204
              10.00309156                5.00400228               23.02485564                0.01000000                0.01094343               -0.16555473                0.11943947                0.14037369                0.03480524                0.12982271
               0.01690600                5.99725671               23.02354968                0.67023087               -0.03307464               -0.14839495                0.11076483                0.21377970               -0.00332229                0.07449407
               1.01657525                5.99482429               23.02230874                0.01000001               -0.14657524               -0.09623685                0.10953101                0.28500300                0.00679378                0.02791551
               2.01397450                5.99410801               23.02127732                0.01000000               -0.20455489               -0.16853186                0.10325960                0.42767690                0.03330193               -0.02007949
               3.01248416                5.99439202               23.02099917                0.01000001               -0.16107780               -0.12721101                0.10018185                0.46847987                0.09031942               -0.02172784
               4.01075294                5.99595885               23.02130381                0.01000001               -0.17181209               -0.12006807                0.10081164                0.50832390                0.13195614               -0.00437355
               5.00904791                5.99799021               23.02205812                0.01001185               -0.16329290               -0.11223145                0.10406412                0.49869133                0.16034971                0.02989562
               6.00748708                6.00012359               23.02312505                0.01001943               -0.13888231               -0.12470079                0.10935557                0.44805971                0.17356561                0.07582873
               7.00627027                6.00195947               23.02434314                0.01000000               -0.09261080               -0.15629386                0.11454664                0.35999047                0.17102682                0.13046017
               8.00563487                6.00319708               23.02548984                0.01000000               -0.03853625               -0.19200317                0.11954855                0.26276402                0.14487718                0.18619540
               9.00549954                6.00368243               23.02624235                0.01000001               -0.01278369               -0.18371963                0.12368262                0.14688236                0.08811619                0.22626468
              10.00537919                6.00308831               23.02622903                0.01000001               -0.01203511               -0.06126964                0.12563030                0.07122122                0.05140157                0.22642756
               0.01933684                6.99692751               23.02403876                0.99999999               -0.03310134               -0.03285574                0.11092941               -0.00026858               -0.00473040                0.02553792
               1.01900583                6.99449474               23.02266957                1.00000000               -0.03284714               -0.03274564                0.10920537               -0.00036782               -0.00657443                0.00375765
               2.01867990                6.99205426               23.02126909                0.01000000               -0.14470646               -0.11872340                0.10774789                0.29753947                0.05221167               -0.02820286
               3.01611170                6.99329939               23.02108332                0.01000001               -0.23851664               -0.12870859                0.10010918                0.45022219                0.12488507               -0.03721747
               4.01390957                6.99479522               23.02146513                0.01000098               -0.21774923               -0.11340801                0.10205724                0.48928798                0.17359389               -0.02068326
               5.01175672                6.99699754               23.02241492                0.01001350               -0.21520904               -0.06979132                0.10601176                0.45379799                0.20799479                0.02799263
               6.00960539                6.99907512               23.02381564                0.01000000               -0.20038120               -0.06759698                0.11297160                0.34179422                0.23210649                0.08207069
               7.00774909                7.00058456               23.02556435                0.01000000               -0.15303918               -0.09781861                0.12027652                0.19938378                0.23935122                0.14963760
               8.00654460                7.00144675               23.02731312                0.01000001               -0.08602748               -0.14519445                0.12720798                0.06689472                0.21087552                0.24715282
               9.00602854                7.00203623               23.02860418                0.01000002               -0.04201900               -0.15667202                0.13291055               -0.00078570                0.13019103                0.32760878
              10.00570422                7.00277689               23.02875809                0.01000001               -0.03243190               -0.03795179                0.13531479               -0.01828245                0.07362601                0.37702601
               0.02176618                7.99659960               23.02446604                1.00000000               -0.03250205               -0.03256538                0.10895266               -0.00018993               -0.00075634                0.02291227
               1.02144116                7.99416938               23.02302081                1.00000000               -0.03227681               -0.03228118                0.10758611                0.00007145               -0.00051026                0.00307380
               2.02112064                7.99173354               23.02158365                0.01038115               -0.13467617               -0.03184962                0.10617077                0.12630211                0.04816436               -0.01647169
               3.01874763                7.99181785               23.02111744                0.01000001               -0.21400470               -0.21597814                0.10057946                0.45454554                0.14832531               -0.11398840
               4.01684055                7.99369069               23.02148186                0.01000000               -0.24518252               -0.06206511                0.10268367                0.50532677                0.21001612               -0.02566818
               5.01384398                7.99659438               23.02275758                0.01000000               -0.30522997                0.00576356                0.10979478                0.40169975                0.25724494                0.02304097
               6.01073595                7.99877165               23.02454533                0.01000000               -0.29788337                0.01002711                0.11668256                0.23055565                0.29074784                0.07421519
               7.00788631                8.00000309               23.02690204                0.01000001               -0.26074298               -0.01000769                0.12603643                0.05041781                0.33421355                0.14021358
               8.00552109                8.00029319               23.02988837                0.01000002               -0.18663122               -0.05159619                0.13703256               -0.12759096                0.32014736                0.25409309
               9.00415369                8.00054899               23.03220774                0.01000007               -0.09944246               -0.10938087                0.14604370               -0.24938695                0.21255694                0.56178184
              10.00353224                8.00232927               23.03315033                0.01000000               -0.06214523               -0.17094642                0.15109074               -0.18267560                0.14259247                0.55194003
               0.02419348                8.99627621               23.02490509                1.00000000               -0.03201643               -0.03215109                0.10737778               -0.00020298                0.00229164                0.01855473
               1.02387332                8.99384912               23.02337307                0.99999999               -0.03180036               -0.03178794                0.10599121                0.00005655                0.00108186                0.00176524
               2.02355748                8.99141726               23.02181781                1.00000000               -0.03139266               -0.03139511                0.10463404                0.00001708               -0.00547856               -0.01225700
               3.02324547                8.98897982               23.02015797                0.01001782               -0.21589533               -0.15726582                0.10328080                0.45362249                0.14158264               -0.07806788
               4.01923957                8.99355392               23.02154996                0.01000000               -0.42678614                0.06874726                0.10771120                0.46717117                0.27457346               -0.02416995
               5.01470974                8.99711281               23.02300272                0.01000000               -0.42158913                0.08067081                0.11296469                0.26394262                0.28212949                0.01578845
               6.01080779                8.99927566               23.02507925                0.01000001               -0.37369168                0.07038423                0.12022698                0.11764310                0.33127696                0.04675207
               7.00723591                9.00038441               23.02796803                0.01000002               -0.36804488                0.05918523                0.13099413               -0.00994238                0.40713174                0.08881748
               8.00344689                9.00041482               23.03195873                0.01000002               -0.41155937                0.06319216                0.14547512               -0.14678344                0.61465267                0.17585743
               8.99900472                8.99984862               23.03939741                0.99999998               -0.24783727               -0.06070744                0.17070649               -0.28515856                0.38212019                0.36972612
               9.99849014                8.99935796               23.03917930                0.99999999               -0.05145783               -0.17481360                0.17301160               -0.27670830               -0.00068030                0.31028995
               0.02661630                9.99595658               23.02524553                1.00000000               -0.03150663               -0.03196285                0.10578120               -0.00001442                0.01290442                0.01370189
               1.02630123                9.99353362               23.02370118                1.00000000               -0.03130102               -0.03154951                0.10439766                0.00024398                0.01624107                0.00050296
               2.02599028                9.99110564               23.02222233                1.00000000               -0.03089027               -0.03116262                0.10306071                0.00022534                0.01631229               -0.00392051
               3.02568342                9.98867253               23.02068072                0.01000000               -0.39696467               -0.03072923                0.10168756                0.44179542                0.13499733               -0.00427618
               4.01805098                9.99506563               23.02157938                0.01000001               -0.61411633                0.15117087                0.10866596                0.35790453                0.24031609               -0.01365837
               5.01340110                9.99820780               23.02307162                0.01000000               -0.41168841                0.10949867                0.11406768                0.12482075                0.27220618                0.01482728
               6.00981721               10.00017934               23.02515574                0.01000001               -0.34263972                0.09036791                0.12164817                0.04989273                0.33070790                0.03127579
               7.00654830               10.00118680               23.02819210                0.01000001               -0.33480026                0.08023936                0.13305804                0.00012418                0.44639541                0.05344823
               8.00312121               10.00155704               23.03291908                0.01000002               -0.35204594                0.11422130                0.15044227               -0.12516602                0.59185164                0.12911411
               8.99950738                9.99933484               23.03920697                0.99999997               -0.20709102               -0.05137743                0.17391935               -0.08593551                0.32606370                0.00076400
               9.99897939                9.99883300               23.03898886                0.99999775               -0.05279962               -0.05249553                0.17621687               -0.00125954                0.00072434               -0.00072412
               0.00125780                0.00186182               24.02004105                1.00000000               -0.02572857               -0.02541027                0.08569460               -0.00039710               -0.00328972                0.00398264
               1.00100052                0.00079294               24.01998555                1.00000000               -0.02564366               -0.02536348                0.08555128                0.00010387               -0.00376876               -0.00122305
               2.00074493               -0.00028038               24.01992141                0.01000000               -0.00579869               -0.02531398                0.08536595                0.03162029                0.05760227               -0.00174848
               3.00088454               -0.00072656               24.02109490                0.01000002                0.00247976               -0.02307785                0.08982554                0.02631078                0.12662831                0.00038823
               4.00079452                0.00033631               24.02244992                0.01000001               -0.03903545               -0.01015079                0.09486134                0.07814695                0.15027775               -0.01028396
               5.00010383                0.00320706               24.02415851                0.01000000               -0.16755234                0.00036084                0.10003083                0.19991230                0.18921950               -0.01963304
               5.99744348                0.00879829               24.02644206                0.23286457               -0.14894097               -0.03195019                0.10639791                0.21755132                0.11030605               -0.00104944
               6.99712501                0.01004057               24.02703799                1.00000000               -0.03263510               -0.03257885                0.10959208                0.00037665                0.01617441               -0.00453659
               7.99679077                0.01128134               24.02743382                0.99999999               -0.03396062               -0.03369172                0.11316794                0.00056014                0.00806384               -0.00049531
               8.99644580                0.01251647               24.02786396                1.00000000               -0.03504307               -0.03477576                0.11680051                0.00055790                0.00789589                0.00094112
               9.99608991                0.01374662               24.02825501                0.99999819               -0.03558879               -0.03590407                0.12043201                0.00084456                0.00590580                0.00537589
               0.00232272                1.00160772               24.01999891                0.99999999               -0.02500611               -0.02510462                0.08379112               -0.00028684                0.00138070                0.00428419
               1.00207266                1.00053930               24.01994017                0.01000000               -0.02509205               -0.02510068                0.08356102                0.00009764                0.00372813               -0.00298474
               2.00182088                0.99946648               24.01992079                0.01000000               -0.06166759               -0.03807620                0.08349466                0.00379478                0.06757413                0.03296656
               3.00083931                0.99904266               24.02114672                0.01000001               -0.11058473               -0.02101287                0.08971087                0.06268679                0.11720221                0.00435076
               3.99960918                1.00023480               24.02230082                0.01000000               -0.14836709               -0.01271773                0.09435197                0.16708542                0.11495776               -0.00967056
               4.99787196                1.00321067               24.02369257                0.01000000               -0.17034736               -0.01939365                0.09905836                0.32213073                0.14516714               -0.01920187
               5.99620224                1.00847879               24.02572871                0.01000001               -0.09923543               -0.13874638                0.10465833                0.29526068                0.08912283               -0.04232132
               6.99588726                1.00971478               24.02624206                1.00000000               -0.03219040               -0.03231248                0.10781421                0.00006280                0.00695451               -0.00444370
               7.99555843                1.01094442               24.02663033                1.00000000               -0.03342592               -0.03343323                0.11142551                0.00001457                0.00121782               -0.00039676
               8.99521874                1.01216871               24.02702641                0.99999999               -0.03451139               -0.03451611                0.11505979                0.00001283                0.00114099                0.00061778
               9.99486820                1.01338758               24.02741278                1.00000000               -0.03505368               -0.03564514                0.11869470                0.00026730                0.00056491                0.00665445
               0.00338891                2.00135973               24.01996181                0.01000000               -0.02451933               -0.03216337                0.08189008               -0.01396035                0.00177522                0.05821494
               1.00314371                2.00029092               24.01985728                0.01000000               -0.05357222               -0.05928383                0.08146656               -0.02408155                0.04501321                0.05239634
               2.00231746                1.99895809               24.02061923                0.01000001               -0.08868769               -0.06394230                0.08793669                0.02211290                0.07545077                0.05201569
               3.00136996                1.99885318               24.02123915                0.01000000               -0.11746176               -0.04359213                0.09102972                0.15870994                0.07480786                0.01186099
               3.99996823                2.00008195               24.02210998                0.01000000               -0.15337501               -0.03770999                0.09499954                0.30141233                0.08652257               -0.00621249
               4.99830246                2.00281919               24.02315855                0.01000001               -0.15618230               -0.06953392                0.09889890                0.41330758                0.08297952               -0.01723142
               5.99684458                2.00602336               24.02418350                0.01000000               -0.18209111               -0.18376945                0.10259281                0.44288089                0.08501435               -0.05305438
               6.99466064                2.00939432               24.02544365                0.01000000               -0.12537202               -0.11305544                0.10604264                0.26844253                0.03944177               -0.01804179
               7.99433714                2.01061267               24.02582682                0.08277339               -0.03288703               -0.03306054                0.10967746                0.00072583               -0.00570536               -0.00002177
               8.99400290                2.01182614               24.02618258                0.99999998               -0.03398153               -0.03396831                0.11332948                0.00005465               -0.00409883               -0.00167061
               9.99365751                2.01303372               24.02659861                1.00000000               -0.03453867               -0.03514122                0.11696463                0.00028276               -0.00122867                0.00657764
               0.00418113                3.00096445               24.02099717                0.01000001               -0.01884661               -0.03310255                0.08831395               -0.00364179                0.00846378                0.11274620
               1.00399266                2.99935362               24.02092143                0.01000001               -0.02401290               -0.11305045                0.08949944                0.02691589                0.01821301                0.09082799
               2.00370087                2.99818763               24.02103968                0.01000000               -0.05515086               -0.10684761                0.09118276                0.13821228                0.04075756                0.03777680
               3.00288965                2.99817082               24.02142547                0.01000000               -0.10147234               -0.09128360                0.09385868                0.27470780                0.05930067                0.01369232
               4.00167143                2.99948060               24.02200464                0.01001072               -0.13464710               -0.08375862                0.09663932                0.40455795                0.07016475                0.00095419
               5.00019670                3.00181999               24.02275120                0.01000000               -0.15933515               -0.10778849                0.09973782                0.50161451                0.07539955               -0.00193238
               5.99848472                3.00480340               24.02360700                0.01000001               -0.17649557               -0.13382215                0.10293959                0.51705120                0.06623665                0.00713701
               6.99666679                3.00745367               24.02437253                0.01000001               -0.26718010               -0.16284311                0.10619707                0.54277324                0.04612017                0.00161564
               7.99314112                3.01028321               24.02502988                0.01000002               -0.19340058               -0.12429967                0.10878964                0.44366676               -0.00078746                0.03348824
               8.99279878                3.01148934               24.02530050                0.01000000               -0.03412106               -0.14662752                0.11161086                0.34113013               -0.01085048                0.04402937
               9.99245870                3.01268476               24.02575836                0.34735397               -0.03400824               -0.30591864                0.11522822                0.39552345               -0.00168717                0.03484326
               0.00653773                4.00069768               24.02204714                0.01000000               -0.00788769               -0.05134102                0.09518455                0.06731147               -0.00080021                0.11807013
               1.00645885                3.99802991               24.02170742                0.01000000               -0.01366097               -0.15765142                0.09558097                0.14861861                0.00877739                0.06916976
               2.00626451                3.99682114               24.02153398                0.01000000               -0.04438517               -0.15189191                0.09597707                0.28245842                0.03087084                0.03069761
               3.00557115                3.99702751               24.02163204                0.01001085               -0.09271475               -0.12802655                0.09695349                0.39374419                0.05578088                0.00751493
               4.00441021                3.99840678               24.02202256                0.01000000               -0.12796003               -0.12018337                0.09882958                0.49126397                0.07630685                0.00479968
               5.00301195                4.00066342               24.02265723                0.01000001               -0.14291455               -0.12612893                0.10148273                0.55656224                0.08779108                0.01735171
               6.00155192                4.00334692               24.02343122                0.01000001               -0.14878296               -0.14953844                0.10468828                0.59822668                0.08788099                0.03809890
               7.00003629                4.00613746               24.02422917                0.01000002               -0.11885590               -0.16584747                0.10806712                0.60131806                0.07411858                0.06669383
               7.99917480                4.00812668               24.02489761                0.01000725               -0.08061699               -0.22355685                0.11141246                0.64483894                0.05408802                0.08859229
               8.99842395                4.00889359               24.02537286                0.01000000                0.00011690               -0.26337199                0.11446081                0.46368007                0.02481028                0.10476085
               9.99917714                4.00691535               24.02551411                0.01000002                0.07531941               -0.41610184                0.11697784                0.35057066                0.01534028                0.06685198
               0.01086289                4.99993763               24.02317136                0.01000002               -0.00213190               -0.18169971                0.10269936                0.20541313               -0.00089756                0.13602922
               1.01084158                4.99620060               24.02249711                0.01000000               -0.02552268               -0.17563151                0.10197724                0.32696171                0.00900313                0.06400672
               2.01035244                4.99514979               24.02198697                0.01000001               -0.08313408               -0.15276347                0.10064102                0.40545397                0.03293415                0.01178480
               3.00917889                4.99561029               24.02184609                0.01000000               -0.12458208               -0.14908621                0.09984254                0.48694901                0.06624435               -0.00511313
               4.00786080                4.99707693               24.02214432                0.01000001               -0.13955419               -0.13346120                0.10086744                0.54152689                0.09925294                0.00226322
               5.00638781                4.99929741               24.02279568                0.01000001               -0.14427907               -0.13554527                0.10361764                0.57404370                0.12036537                0.02754531
               6.00497522                5.00181263               24.02367353                0.01000032               -0.12372085               -0.15333929                0.10708138                0.56903473                0.12725279                0.06407319
               7.00391339                5.00413672               24.02462412                0.01000002               -0.08467268               -0.19458130                0.11127548                0.53863888                0.11953470                0.10542541
               8.00328176                5.00581207               24.02548113                0.01000000               -0.03148389               -0.22764285                0.11551023                0.45252174                0.09715206                0.14191480
               9.00328371                5.00622190               24.02603217                0.01000000                0.00724189               -0.24134384                0.11891646                0.30687613                0.05831666                0.15699840
              10.00342660                5.00436272               24.02605850                0.01000000                0.01428869               -0.17584752                0.12112202                0.15046221                0.03540575                0.13493757
               0.01812007                5.99706369               24.02466194                0.64106952               -0.03341406               -0.16023171                0.11160445                0.23547820               -0.00328832                0.08066928
               1.01778592                5.99451728               24.02341075                0.01000001               -0.15780862               -0.10081092                0.11079347                0.30961113                0.00413149                0.03374324
               2.01496389                5.99376587               24.02231428                0.01000000               -0.22014670               -0.17613761                0.10424471                0.45890225                0.02835814               -0.01578575
               3.01338299                5.99404579               24.02199960                0.01000001               -0.17051326               -0.13933678                0.10114841                0.50279622                0.08979364               -0.02447350
               4.01155363                5.99573755               24.02231485                0.01000001               -0.18129344               -0.13094787                0.10190253                0.55387777                0.13627458               -0.00730033
               5.00975712                5.99795251               24.02310173                0.01000180               -0.17301606               -0.11976873                0.10563629                0.54327305                0.16710320                0.02945780
               6.00809331                6.00028013               24.02422076                0.01000000               -0.14737502               -0.13121070                0.11039446                0.48425088                0.18034397                0.07948462
               7.00680962                6.00224583               24.02549542                0.01000000               -0.09766234               -0.16693276                0.11607165                0.38866334                0.17666790                0.13651684
               8.00614006                6.00357382               24.02669414                0.01000000               -0.03994001               -0.20474455                0.12125344                0.28353874                0.14920454                0.19302855
               9.00601082                6.00406672               24.02748510                0.01000001               -0.01176573               -0.19482492                0.12507284                0.15740606                0.09054579                0.23361257
              10.00590475                6.00339840               24.02749298                0.01000001               -0.01060757               -0.06407774                0.12730345                0.07615014                0.05290655                0.23365149
               0.02066526                6.99673300               24.02515157                0.99999999               -0.03336530               -0.03298554                0.11156913               -0.00033488               -0.00516875                0.02629687
               1.02033161                6.99418438               24.02376704                1.00000000               -0.03316429               -0.03303538                0.11023366               -0.00038902               -0.00684551                0.00441066
               2.02000198                6.99162704               24.02235387                0.01000000               -0.15342383               -0.12316675                0.10915581                0.31180883                0.04893607               -0.02492451
               3.01726314                6.99282355               24.02209201                0.01000001               -0.24851749               -0.15691658                0.09866363                0.49694133                0.12557921               -0.04963889
               4.01503163                6.99445797               24.02248427                0.01000002               -0.22762213               -0.11665853                0.10326673                0.53391437                0.18522581               -0.02752576
               5.01271069                6.99690204               24.02347553                0.01000001               -0.23323563               -0.07252582                0.10723211                0.49520606                0.22007336                0.02789636
               6.01036692                6.99918842               24.02495256                0.01000000               -0.21588620               -0.06962998                0.11462688                0.36947837                0.24203767                0.08569289
               7.00839297                7.00079807               24.02676703                0.01000000               -0.16176314               -0.10223379                0.12108044                0.21390902                0.24656341                0.15514309
               8.00713165                7.00171718               24.02858841                0.01000001               -0.08928539               -0.15344906                0.12820296                0.07267748                0.21696810                0.25520215
               9.00660726                7.00232540               24.02993805                0.01000002               -0.04227066               -0.16534845                0.13404591               -0.00012278                0.13392071                0.33767978
              10.00628624                7.00308117               24.03011732                0.01000000               -0.03210200               -0.03849349                0.13674081               -0.01897528                0.07581921                0.38839856
               0.02321061                7.99640397               24.02555705                1.00000000               -0.03265092               -0.03262603                0.10921322               -0.00023184               -0.00077455                0.02279736
               1.02288410                7.99385657               24.02410021                0.99999992               -0.03248596               -0.03247715                0.10826521                0.00008743               -0.00053449                0.00309475
               2.02256089                7.99130254               24.02265094                0.01272075               -0.11966082               -0.03217963                0.10726313                0.10830825                0.04379177               -0.01641214
               3.02049089                7.99090746               24.02208584                0.01000002               -0.22037304               -0.21990169                0.10320431                0.48204699                0.17084612               -0.13793422
               4.01815343                7.99340438               24.02252205                0.01001803               -0.27800424               -0.06033592                0.10270666                0.55613207                0.22401051               -0.02629482
               5.01493080                7.99650200               24.02385241                0.01000000               -0.32832932                0.01007806                0.11022946                0.42756577                0.26963666                0.02467532
               6.01158684                7.99888753               24.02571996                0.01000000               -0.31858829                0.01261541                0.11842956                0.24879880                0.30125826                0.07800176
               7.00855904                8.00020116               24.02816495                0.01000001               -0.27602855               -0.00854236                0.12695688                0.05460833                0.34430471                0.14552029
               8.00606627                8.00050484               24.03126135                0.01000002               -0.19573275               -0.05334763                0.13779673               -0.13501847                0.32932021                0.26198601
               9.00464438                8.00075975               24.03367078                0.01000007               -0.10262809               -0.11495453                0.14674597               -0.26380765                0.21868499                0.57828398
              10.00401371                8.00262853               24.03466473                0.01000000               -0.06306679               -0.17768187                0.15195417               -0.19282027                0.14712864                0.56854080
               0.02575543                8.99608048               24.02597858                1.00000000               -0.03206293               -0.03211846                0.10731353               -0.00024634                0.00230590                0.01865620
               1.02543480                8.99353483               24.02443479                0.99999999               -0.03190831               -0.03189064                0.10634959                0.00006616                0.00111630                0.00181482
               2.02511726                8.99098345               24.02286809                0.99999997               -0.03162854               -0.03162868                0.10542478                0.00002797               -0.00542259               -0.01219224
               3.02480223                8.98842552               24.02119691                0.01004318               -0.22787656               -0.13962395                0.10451476                0.45694237                0.14440269               -0.07365162
               4.02055973                8.99325125               24.02263280                0.01000000               -0.45116844                0.07400554                0.10934683                0.49051407                0.27873750               -0.02520007
               5.01577886                8.99710360               24.02413634                0.01000000               -0.44579984                0.08897771                0.11360803                0.27975462                0.28975415                0.01757145
               6.01164373                8.99944072               24.02628518                0.01000001               -0.39555166                0.07650266                0.12119231                0.12514185                0.34113075                0.04948389
               7.00786783                9.00062722               24.02928112                0.01000002               -0.38855205                0.06481897                0.13182682               -0.01087967                0.41950311                0.09229211
               8.00387269                9.00065023               24.03341541                0.01000002               -0.43302023                0.06886404                0.14602381               -0.15689481                0.63299687                0.18106466
               8.99920742                9.00002631               24.04110325                0.99999998               -0.25902099               -0.06252003                0.17069201               -0.30260572                0.39379165                0.37985662
               9.99869227                8.99952753               24.04090948                0.99999996               -0.05151480               -0.18125931                0.17304934               -0.29108329               -0.00033418                0.31975090
               0.02829697                9.99576161               24.02630131                1.00000000               -0.03145180               -0.03188725                0.10539311               -0.00012983                0.01297666                0.01378942
               1.02798245                9.99321876               24.02474520                1.00000000               -0.03131042               -0.03160719                0.10443271                0.00018352                0.01632449                0.00054563
               2.02767076                9.99066996               24.02325512                1.00000000               -0.03102639               -0.03134856                0.10352578                0.00016110                0.01638470               -0.00389032
               3.02736193                9.98811498               24.02170188                0.01000000               -0.41925654               -0.03105428                0.10257854                0.46669655                0.13901172               -0.00428940
               4.01928563                9.99488449               24.02266853                0.01000000               -0.65127514                0.16332402                0.10920612                0.38091901                0.24811658               -0.01476068
               5.01433642                9.99828155               24.02421776                0.01000000               -0.43597865                0.11779518                0.11454171                0.13241114                0.27861257                0.01519259
               6.01056606               10.00041759               24.02637538                0.01000001               -0.36022444                0.09768628                0.12224274                0.05303191                0.34036649                0.03316071
               7.00713194               10.00149754               24.02952535                0.01000000               -0.35183877                0.08703146                0.13369091               -0.00036215                0.46085989                0.05557405
               8.00352929               10.00188212               24.03442512                0.01000002               -0.37084854                0.12318936                0.15089092               -0.13375015                0.61146786                0.13288422
               8.99971496                9.99950935               24.04094611                0.99999996               -0.21698367               -0.05169659                0.17388212               -0.09318463                0.33599732                0.00023632
               9.99918961                9.99900334               24.04075226                0.99999999               -0.05253528               -0.05241876                0.17624017               -0.00086655                0.00038679               -0.00030872
               0.00128131                0.00195301               25.02089441                1.00000000               -0.02555777               -0.02517981                0.08488668               -0.00015557               -0.00334887                0.00386582
               1.00102573                0.00083589               25.02084064                1.00000000               -0.02566717               -0.02539446                0.08549959                0.00007725               -0.00360448               -0.00124140
               2.00076797               -0.00028668               25.02077892                0.01000001               -0.00718724               -0.02559471                0.08615120                0.03240783                0.05977074               -0.00157311
               3.00088199               -0.00076927               25.02199587                0.01000000               -0.00058783               -0.02095330                0.09042590                0.02725395                0.12998493                0.00138710
               4.00075621                0.00038722               25.02339968                0.01000001               -0.04478172               -0.00729923                0.09511922                0.08459738                0.15300660               -0.00975573
               4.99998635                0.00348170               25.02515736                0.01000000               -0.18337732                0.00436415                0.09978786                0.21704648                0.19165717               -0.01944208
               5.99708866                0.00950968               25.02750047                0.22299892               -0.16068026               -0.03160363                0.10520058                0.23709486                0.11114469               -0.00108680
               6.99677275                0.01079982               25.02812996                1.00000000               -0.03241707               -0.03235946                0.10878792                0.00045531                0.01592020               -0.00457645
               7.99644032                0.01208857               25.02856340                0.99999998               -0.03383403               -0.03359029                0.11274244                0.00061630                0.00804401               -0.00049866
               8.99609607                0.01337215               25.02903169                1.00000000               -0.03502526               -0.03478545                0.11674469                0.00061369                0.00790526                0.00094315
               9.99573982                0.01465135               25.02946090                1.00000000               -0.03562502               -0.03602982                0.12074801                0.00087430                0.00591529                0.00538353
               0.00239688                1.00170121               25.02083297                0.99999999               -0.02505242               -0.02492354                0.08310554               -0.00028075                0.00144216                0.00443784
               1.00214635                1.00058195               25.02077669                0.01000000               -0.02511242               -0.02513005                0.08373941               -0.00000204                0.00347121               -0.00318134
               2.00189463                0.99945737               25.02076048                0.01000000               -0.06643878               -0.03920982                0.08442081                0.00261483                0.07049312                0.03600385
               3.00081758                0.99902119               25.02204651                0.01000001               -0.12089652               -0.01952115                0.09032260                0.06715816                0.12132234                0.00650707
               3.99947670                1.00031423               25.02324568                0.01000000               -0.16109940               -0.01061663                0.09465955                0.18063872                0.11733427               -0.00820579
               4.99759559                1.00352534               25.02468258                0.01000000               -0.18380727               -0.01784710                0.09896377                0.34881396                0.14701388               -0.01823176
               5.99580055                1.00919364               25.02677058                0.01000001               -0.10538661               -0.14741214                0.10363279                0.31996578                0.08955515               -0.04224885
               6.99548786                1.01047623               25.02731713                1.00000000               -0.03201143               -0.03212011                0.10719045                0.00007790                0.00669989               -0.00447446
               7.99516032                1.01175267               25.02774337                0.99999998               -0.03335206               -0.03335825                0.11117638                0.00001335                0.00121588               -0.00039938
               8.99482082                1.01302429               25.02817761                0.99999999               -0.03454837               -0.03455234                0.11518149                0.00001143                0.00115070                0.00062475
               9.99446936                1.01429105               25.02860217                1.00000000               -0.03514591               -0.03579703                0.11918709                0.00023946                0.00057322                0.00666339
               0.00351423                2.00145454               25.02077841                0.01000001               -0.02446971               -0.03219077                0.08141127               -0.01502284                0.00187897                0.06275833
               1.00326953                2.00033329               25.02067436                0.01000000               -0.05666071               -0.06178751                0.08192951               -0.02608119                0.04833751                0.05716262
               2.00238102                1.99892912               25.02149906                0.01000001               -0.09506200               -0.06701159                0.08831641                0.02322318                0.07969744                0.05774993
               3.00136829                1.99884030               25.02215326                0.01000000               -0.12580902               -0.04514264                0.09182481                0.17112443                0.07712304                0.01566401
               3.99986484                2.00017489               25.02306230                0.01000000               -0.16425387               -0.03872033                0.09557357                0.32548967                0.08829560               -0.00343517
               4.99808322                2.00312476               25.02414918                0.01000001               -0.16638711               -0.07337990                0.09923250                0.44648781                0.08397245               -0.01511509
               5.99653709                2.00656144               25.02520980                0.01000000               -0.19339673               -0.19679772                0.10270661                0.47776516                0.08514503               -0.05200036
               6.99421528                2.01015742               25.02650190                0.01000000               -0.13222848               -0.11959513                0.10559857                0.28875904                0.03913923               -0.01687912
               7.99389252                2.01142141               25.02692327                0.08548861               -0.03286849               -0.03309672                0.10960634                0.00079011               -0.00568498                0.00034135
               8.99355791                2.01268110               25.02731737                0.99999998               -0.03407199               -0.03405445                0.11362689                0.00005753               -0.00407979               -0.00165501
               9.99321108                2.01393541               25.02777156                1.00000000               -0.03468275               -0.03534670                0.11763314                0.00025757               -0.00122003                0.00658464
               0.00433892                3.00105740               25.02188032                0.01000001               -0.01887757               -0.03270291                0.08832512               -0.00356887                0.00908046                0.12124750
               1.00415015                2.99934620               25.02181860                0.01000001               -0.02434222               -0.11957512                0.08996454                0.02944546                0.01891857                0.09977345
               2.00385208                2.99811714               25.02195571                0.01000000               -0.05779238               -0.11342537                0.09204272                0.14986444                0.04189683                0.04379324
               3.00299430                2.99811834               25.02236811                0.01000000               -0.10750212               -0.09719525                0.09478226                0.29667012                0.06055197                0.01829717
               4.00170204                2.99953982               25.02297498                0.01000451               -0.14277522               -0.08934548                0.09755440                0.43644841                0.07119960                0.00444800
               5.00013879                3.00205774               25.02375249                0.01000000               -0.16894210               -0.11533297                0.10059907                0.54064376                0.07600148                0.00111511
               5.99832319                3.00525769               25.02463913                0.01000001               -0.18678631               -0.14309156                0.10370432                0.55626307                0.06657437                0.00981880
               6.99640307                3.00808432               25.02543762                0.01000001               -0.28353742               -0.17365598                0.10636442                0.58250702                0.04534123                0.00430040
               7.99265245                3.01109073               25.02611705                0.01000002               -0.20475532               -0.13155512                0.11017443                0.47492949               -0.00227268                0.03632070
               8.99230796                3.01234320               25.02641895                0.01000004               -0.03432799               -0.15493426                0.11208103                0.36436390               -0.01118758                0.04645110
               9.99196589                3.01358412               25.02691484                0.36703865               -0.03420764               -0.32495547                0.11607422                0.42250417               -0.00168920                0.03671257
               0.00686526                4.00080048               25.02300018                0.01000000               -0.00665573               -0.05280994                0.09541100                0.07353206               -0.00123597                0.12729965
               1.00679870                3.99794179               25.02266632                0.01000000               -0.01295489               -0.16749557                0.09623070                0.16157482                0.00827343                0.07723226
               2.00660616                3.99666062               25.02249831                0.01000000               -0.04598438               -0.16184264                0.09700111                0.30531597                0.03049256                0.03698558
               3.00587901                3.99689640               25.02260712                0.01000462               -0.09758800               -0.13722772                0.09825873                0.42467741                0.05597843                0.01186568
               4.00465440                3.99838798               25.02301707                0.01000000               -0.13503951               -0.12951339                0.10023205                0.52982065                0.07706792                0.00816776
               5.00317822                4.00081810               25.02367792                0.01000001               -0.15093133               -0.13545876                0.10285552                0.59992825                0.08893147                0.02050660
               6.00163577                4.00369961               25.02448339                0.01000001               -0.15729228               -0.15983199                0.10590118                0.64365420                0.08885837                0.04164635
               7.00003238                4.00668430               25.02531254                0.01000379               -0.12517694               -0.17658164                0.10903868                0.64467488                0.07479492                0.07058603
               7.99913224                4.00879030               25.02601550                0.01000001               -0.08402861               -0.23810790                0.11186810                0.68964718                0.05480826                0.09351560
               8.99835181                4.00958241               25.02652301                0.01000000                0.00235503               -0.28024217                0.11549221                0.49545591                0.02513087                0.10978341
               9.99917934                4.00743630               25.02669149                0.01000000                0.08275304               -0.44309810                0.11856853                0.37444467                0.01565750                0.07053240
               0.01152696                5.00000120               25.02420075                0.01000000               -0.00054443               -0.19552948                0.10314210                0.22337626               -0.00187863                0.14662827
               1.01152151                4.99599628               25.02352101                0.01000000               -0.02615842               -0.18562823                0.10281777                0.35429607                0.00751761                0.07333063
               2.01100379                4.99488029               25.02299982                0.01000001               -0.08805138               -0.16176080                0.10205386                0.43620723                0.03141964                0.01701823
               3.00976048                4.99537379               25.02285276                0.01000000               -0.13135194               -0.16198833                0.10164091                0.52348582                0.06571493               -0.00256899
               4.00837675                4.99694955               25.02316182                0.01000001               -0.14673759               -0.14575466                0.10301592                0.58483398                0.10041505                0.00401231
               5.00682573                4.99934857               25.02383925                0.01000001               -0.15233355               -0.14592906                0.10551867                0.62086687                0.12255892                0.03025478
               6.00533008                5.00206105               25.02475434                0.01000002               -0.13099314               -0.16326725                0.10904970                0.61343105                0.13002889                0.06774861
               7.00420587                5.00455269               25.02574641                0.01000000               -0.08914012               -0.20687051                0.11300333                0.57826973                0.12273004                0.10945956
               8.00354727                5.00632858               25.02664023                0.01000000               -0.03173926               -0.24199670                0.11678042                0.48413570                0.09963930                0.14678005
               9.00357108                5.00673836               25.02722621                0.01000000                0.00998655               -0.25668054                0.12017692                0.32766968                0.05958579                0.16300167
              10.00374701                5.00472216               25.02727808                0.01000000                0.01759220               -0.18668908                0.12288248                0.16049043                0.03618472                0.14017021
               0.01934262                5.99688989               25.02578177                0.61134853               -0.03370790               -0.17214306                0.11226257                0.25771072               -0.00325475                0.08718139
               1.01900554                5.99422922               25.02452461                0.01000001               -0.16949052               -0.10513997                0.11188614                0.33403064                0.00121695                0.03993223
               2.01595280                5.99342540               25.02336221                0.01000000               -0.23630364               -0.18305869                0.10582193                0.48786386                0.02298937               -0.01131859
               3.01427946                5.99365663               25.02302214                0.01000001               -0.17882530               -0.15767067                0.10475667                0.53899417                0.08917939               -0.02830160
               4.01237630                5.99547289               25.02334186                0.01000001               -0.18976989               -0.14560245                0.10490416                0.60483522                0.13895174               -0.00833639
               5.01048407                5.99789952               25.02417084                0.01000001               -0.18380129               -0.12718910                0.10839564                0.59127726                0.17229414                0.03073927
               6.00870027                6.00043426               25.02533294                0.01001114               -0.15769091               -0.13856375                0.11251361                0.52359681                0.18462098                0.08352792
               7.00733025                6.00254689               25.02666458                0.01000000               -0.10354954               -0.17673974                0.11775267                0.41773724                0.18018946                0.14226510
               8.00662928                6.00395037               25.02791491                0.01000000               -0.04093138               -0.21724966                0.12271451                0.30337937                0.15190584                0.19953339
               9.00651162                6.00444880               25.02874381                0.01000002               -0.01038655               -0.20671087                0.12671807                0.16795555                0.09219047                0.24099516
              10.00642155                6.00370252               25.02877510                0.01000001               -0.00900686               -0.06745219                0.12927213                0.08112415                0.05405788                0.24084161
               0.02200251                6.99655834               25.02627014                0.99999999               -0.03358930               -0.03306814                0.11206781               -0.00039838               -0.00564237                0.02708863
               1.02166662                6.99389349               25.02487424                1.00000000               -0.03344279               -0.03328441                0.11113490               -0.00040916               -0.00714791                0.00509403
               2.02133366                6.99121911               25.02345221                0.01000000               -0.15868688               -0.12671632                0.11044844                0.31924683                0.04255598               -0.02135723
               3.01849288                6.99222037               25.02305659                0.01000001               -0.25515445               -0.18511824                0.10086496                0.54161833                0.12133717               -0.06235727
               4.01623057                6.99403751               25.02353047                0.01000834               -0.24014900               -0.12283120                0.10737450                0.58811470                0.20062203               -0.03716467
               5.01368990                6.99680479               25.02455956                0.01000000               -0.25379625               -0.07362194                0.11052282                0.54035056                0.22670396                0.03113508
               6.01115464                6.99928978               25.02610818                0.01000000               -0.23226975               -0.07176004                0.11668650                0.39807082                0.24938307                0.08946788
               7.00904451                7.00101790               25.02798596                0.01000000               -0.17208467               -0.10737413                0.12297582                0.22972914                0.25277092                0.16089778
               8.00771295                7.00198358               25.02987718                0.01000001               -0.09332299               -0.16222289                0.12972683                0.07793091                0.22227675                0.26288940
               9.00717805                7.00260414               25.03128510                0.01000002               -0.04254457               -0.17496660                0.13546757                0.00009610                0.13711038                0.34730003
              10.00686206                7.00337311               25.03149291                0.01000799               -0.03159889               -0.03972932                0.13848400               -0.01983436                0.07771991                0.39926118
               0.02466435                7.99622853               25.02665031                1.00000000               -0.03277766               -0.03266322                0.10939487               -0.00026540               -0.00079632                0.02266304
               1.02433658                7.99356353               25.02518611                1.00000000               -0.03267503               -0.03265293                0.10887718                0.00010297               -0.00056027                0.00311264
               2.02401085                7.99089107               25.02372891                0.01550218               -0.10215700               -0.03249358                0.10830114                0.08719894                0.04504013               -0.01632560
               3.02229344                7.98995427               25.02318153                0.01000002               -0.22283376               -0.21648106                0.12149566                0.50005603                0.22168931               -0.20655226
               4.01955418                7.99301626               25.02353600                0.01000001               -0.31273157               -0.05670286                0.10373505                0.60585675                0.23779604               -0.01909648
               5.01603881                7.99642708               25.02496217                0.01000000               -0.35527999                0.01470528                0.11322487                0.45726711                0.27958229                0.02793662
               6.01244858                7.99899906               25.02691393                0.01000000               -0.34038921                0.01600723                0.12019549                0.26516522                0.30985761                0.08145875
               7.00923102                8.00039941               25.02944118                0.01000001               -0.29234621               -0.00740255                0.12852874                0.05790448                0.35310192                0.15076933
               8.00660165                8.00070591               25.03264431                0.01000002               -0.20535051               -0.05556185                0.13895697               -0.14390897                0.33780452                0.26976485
               9.00512401                8.00094947               25.03514266                0.01000007               -0.10573660               -0.12168587                0.14774121               -0.27947690                0.22440321                0.59431886
              10.00448692                8.00290793               25.03618941                0.01000000               -0.06370895               -0.18538337                0.15305598               -0.20370712                0.15134947                0.58430704
               0.02732720                8.99590507               25.02705136                1.00000000               -0.03210595               -0.03208054                0.10723215               -0.00028067                0.00232260                0.01876865
               1.02700614                8.99324043               25.02550006                0.99999998               -0.03201464               -0.03199161                0.10670236                0.00007498                0.00115870                0.00187713
               2.02668690                8.99056924               25.02392631                1.00000000               -0.03186617               -0.03186432                0.10622162                0.00003829               -0.00534821               -0.01210335
               3.02636881                8.98789075               25.02224827                0.01000001               -0.24060064               -0.11887293                0.10576740                0.45455075                0.14746363               -0.07481867
               4.02187489                8.99290345               25.02373689                0.01000000               -0.47581844                0.08413515                0.10962739                0.50756948                0.28109784               -0.02220878
               5.01685244                8.99709889               25.02527488                0.01000000               -0.46946357                0.09608627                0.11441101                0.29670805                0.29665308                0.02102370
               6.01248562                8.99960992               25.02750309                0.01000001               -0.41783496                0.08315498                0.12249016                0.13196654                0.35042521                0.05163003
               7.00849574                9.00086985               25.03060457                0.01000002               -0.41004569                0.07052111                0.13297363               -0.01264173                0.43110035                0.09559507
               8.00428470                9.00087235               25.03487921                0.01000003               -0.45546284                0.07446973                0.14687836               -0.16856335                0.65068224                0.18628259
               8.99938649                9.00017042               25.04281125                0.99999998               -0.27068564               -0.06478118                0.17088099               -0.32153602                0.40484047                0.39005627
               9.99887099                8.99966545               25.04264029                0.99999996               -0.05154957               -0.18833285                0.17311713               -0.30610295               -0.00034794                0.32852947
               0.02998804                9.99558692               25.02735339                1.00000000               -0.03141267               -0.03181546                0.10504957               -0.00023756                0.01305488                0.01388715
               1.02967391                9.99292370               25.02578983                1.00000000               -0.03133708               -0.03167242                0.10452418                0.00012079                0.01641360                0.00059823
               2.02936130                9.99025379               25.02429285                1.00000000               -0.03118318               -0.03154557                0.10405821                0.00009459                0.01646024               -0.00384965
               3.02905025                9.98757681               25.02273230                0.04300700               -0.44319337               -0.03139432                0.10354805                0.49040238                0.14263460               -0.00430226
               4.02049743                9.99469896               25.02376350                0.01000001               -0.68918753                0.17955164                0.10846332                0.40085365                0.25329929               -0.01457816
               5.01526650                9.99834880               25.02536245                0.01000000               -0.45902358                0.12499123                0.11426947                0.13956507                0.28465838                0.01615681
               6.01131696               10.00066216               25.02760059                0.01000001               -0.37753671                0.10522407                0.12278811                0.05618507                0.35045332                0.03493205
               7.00771576               10.00180983               25.03086592                0.01000000               -0.36935738                0.09399835                0.13454496               -0.00134091                0.47504347                0.05746644
               8.00392981               10.00219531               25.03593690                0.01000002               -0.39077845                0.13229608                0.15151305               -0.14328861                0.63054231                0.13663254
               8.99990019                9.99965385               25.04268461                0.99999996               -0.22774930               -0.05165770                0.17381711               -0.10133099                0.34622998                0.00030066
               9.99937482                9.99914128               25.04251366                0.99988800               -0.05253700               -0.05241695                0.17605693               -0.00087405                0.00031960               -0.00033433
               0.00129836                0.00206201               26.02173878                1.00000000               -0.02544474               -0.02495414                0.08401116               -0.00002355               -0.00335254                0.00389658
               1.00104391                0.00089601               26.02169554                1.00000000               -0.02566216               -0.02540507                0.08546770                0.00021729               -0.00362063               -0.00127254
               2.00078512               -0.00027496               26.02164444                0.01000000               -0.00902139               -0.02586224                0.08692935                0.03277475                0.06138653               -0.00156873
               3.00086348               -0.00080010               26.02290342                0.01000000               -0.00459764               -0.01844843                0.09108876                0.02791548                0.13240791                0.00247574
               4.00069316                0.00044920               26.02435230                0.01000001               -0.05136467               -0.00411357                0.09537387                0.09105864                0.15469426               -0.00911457
               4.99983619                0.00376779               26.02615427                0.01000003               -0.19996935                0.00864262                0.09947543                0.23447190                0.19272142               -0.01885196
               5.99669378                0.01023633               26.02854607                0.21374001               -0.17278552               -0.03118595                0.10382810                0.25684564                0.11128559               -0.00112288
               6.99638048                0.01157469               26.02921375                1.00000000               -0.03219273               -0.03213382                0.10796268                0.00055285                0.01571162               -0.00460866
               7.99604992                0.01291143               26.02968867                0.99999998               -0.03370357               -0.03348613                0.11230512                0.00067345                0.00802575               -0.00050229
               8.99570641                0.01424348               26.03019885                1.00000000               -0.03500637               -0.03479508                0.11668585                0.00067119                0.00791173                0.00094412
               9.99534979                0.01557176               26.03066997                1.00000000               -0.03566145               -0.03615745                0.12106915                0.00090550                0.00592250                0.00539014
               0.00246413                1.00181247               26.02166102                0.99999999               -0.02495544               -0.02472308                0.08247666               -0.00023903                0.00140405                0.00446664
               1.00221457                1.00064196               26.02161496                0.01000000               -0.02516038               -0.02518728                0.08391603               -0.00000767                0.00349985               -0.00321382
               2.00196092                0.99946642               26.02160920                0.01000000               -0.07170068               -0.04035869                0.08536955                0.00104230                0.07281780                0.03874067
               3.00078056                0.99901542               26.02295318                0.01000001               -0.13205575               -0.01775162                0.09102398                0.07136729                0.12440816                0.00882405
               3.99931980                1.00040806               26.02419401                0.01000000               -0.17466082               -0.00826258                0.09503666                0.19419278                0.11867342               -0.00644517
               4.99728734                1.00385422               26.02567184                0.01000000               -0.19805101               -0.01604099                0.09891750                0.37573122                0.14730893               -0.01662843
               5.99535878                1.00992447               26.02780136                0.01000001               -0.11194414               -0.15607652                0.10243520                0.34500599                0.08932639               -0.04163232
               6.99504846                1.01125335               26.02838587                1.00000000               -0.03182607               -0.03192224                0.10654852                0.00007867                0.00649503               -0.00449878
               7.99472226                1.01257657               26.02885386                0.99998769               -0.03327524               -0.03328064                0.11091814                0.00001119                0.00121363               -0.00040210
               8.99438295                1.01389553               26.02933003                0.99999999               -0.03458504               -0.03458863                0.11530268                0.00001064                0.00115931                0.00062987
               9.99403056                1.01521019               26.02979652                1.00000000               -0.03523929               -0.03595111                0.11968772                0.00021242                0.00058121                0.00667212
               0.00363460                2.00156755               26.02159004                0.01000000               -0.02447885               -0.03224158                0.08093963               -0.01642612                0.00190598                0.06721295
               1.00338981                2.00039226               26.02149587                0.01000000               -0.06010483               -0.06424174                0.08235746               -0.02843074                0.05109721                0.06195655
               2.00243251                1.99891786               26.02238556                0.01000001               -0.10203160               -0.07010840                0.08903383                0.02404915                0.08315994                0.06331056
               3.00134918                1.99884487               26.02307564                0.01000000               -0.13471447               -0.04662560                0.09265889                0.18334718                0.07868172                0.01975440
               3.99973822                2.00028395               26.02402145                0.01000000               -0.17573894               -0.03966405                0.09625506                0.34966675                0.08923693               -0.00009707
               4.99783440                2.00344697               26.02514320                0.01000001               -0.17717272               -0.07703334                0.09957538                0.47980495                0.08426888               -0.01233919
               5.99619476                2.00711480               26.02623764                0.01000000               -0.20522235               -0.20991433                0.10285692                0.51307835                0.08449539               -0.04992617
               6.99372996                2.01093624               26.02755562                0.01000000               -0.13933961               -0.12621563                0.10513964                0.30891254                0.03834495               -0.01572267
               7.99340797                2.01224582               26.02801895                0.09091615               -0.03284770               -0.03295927                0.10952591                0.00037677               -0.00566754                0.00211190
               8.99307300                2.01355170               26.02845512                0.99999998               -0.03416278               -0.03414046                0.11392414                0.00006058               -0.00406335               -0.00164255
               9.99272471                2.01485274               26.02895127                1.00000000               -0.03482880               -0.03555535                0.11831324                0.00023311               -0.00121226                0.00659366
               0.00448618                3.00116764               26.02276367                0.01000001               -0.01905334               -0.03221540                0.08830008               -0.00374579                0.00959428                0.13016153
               1.00429564                2.99935712               26.02272072                0.01000001               -0.02484393               -0.12600596                0.09044147                0.03164899                0.01946941                0.10881026
               2.00398930                2.99806425               26.02288053                0.01000000               -0.06071125               -0.12005586                0.09290765                0.16134180                0.04271105                0.05009205
               3.00308142                2.99808290               26.02332111                0.01000000               -0.11391321               -0.10323479                0.09582597                0.31866528                0.06129199                0.02352655
               4.00171103                2.99961478               26.02395572                0.01000097               -0.15144173               -0.09503303                0.09859349                0.46865998                0.07164267                0.00877712
               5.00005258                3.00231355               26.02476318                0.01000000               -0.17899787               -0.12300896                0.10156028                0.58006323                0.07616946                0.00499535
               5.99813108                3.00572619               26.02568109                0.01000001               -0.19784454               -0.15250849                0.10451007                0.59575997                0.06595035                0.01324796
               6.99609569                3.00872904               26.02649981                0.01000001               -0.30083699               -0.18479262                0.10747525                0.62306562                0.04524876                0.00781833
               7.99211434                3.01191739               26.02723337                0.01000002               -0.21592253               -0.13860051                0.10640701                0.50681021               -0.00322310                0.03912954
               8.99177724                3.01321272               26.02754212                0.01000000               -0.03405952               -0.16348488                0.11255022                0.38796373               -0.01294077                0.04902166
               9.99143315                3.01449908               26.02807984                0.38753542               -0.03440959               -0.34449912                0.11693575                0.45006779               -0.00169579                0.03890134
               0.00718072                4.00092324               26.02395536                0.01000003               -0.00545311               -0.05395153                0.09556664                0.07982102               -0.00155453                0.13691555
               1.00712619                3.99787215               26.02363203                0.01000000               -0.01235771               -0.17741017                0.09685946                0.17453596                0.00783940                0.08568119
               2.00693356                3.99651675               26.02347400                0.01000000               -0.04771167               -0.17189959                0.09809029                0.32839039                0.03012734                0.04406499
               3.00617195                3.99678017               26.02359722                0.01000085               -0.10263972               -0.14695044                0.09966469                0.45581518                0.05587438                0.01740955
               4.00488077                3.99838329               26.02402720                0.01000000               -0.14238455               -0.13911972                0.10178273                0.56890993                0.07725915                0.01312884
               5.00332426                4.00098679               26.02471434                0.01000001               -0.15931476               -0.14519804                0.10437794                0.64376179                0.08924029                0.02504921
               6.00169447                4.00406463               26.02554924                0.01000001               -0.16620959               -0.17040703                0.10735271                0.68955789                0.08912185                0.04597258
               7.00000007                4.00724039               26.02640994                0.01000001               -0.13169891               -0.18775812                0.11021320                0.68977900                0.07441486                0.07542941
               7.99906050                4.00947381               26.02713498                0.01000535               -0.08747455               -0.25345582                0.11351055                0.73610144                0.05456016                0.09782879
               8.99825058                4.01028201               26.02768271                0.01000000                0.00464211               -0.29757893                0.11651953                0.52746485                0.02517529                0.11564581
               9.99915334                4.00796276               26.02788548                0.01000667                0.09027581               -0.47082837                0.11997563                0.39874618                0.01553887                0.07530974
               0.01218479                5.00008861               26.02523420                0.01000000                0.00080659               -0.20926617                0.10345626                0.24145953               -0.00276923                0.15755431
               1.01219286                4.99580892               26.02455346                0.01000000               -0.02678566               -0.19547234                0.10358790                0.38206387                0.00640806                0.08329196
               2.01164908                4.99462626               26.02402805                0.01000001               -0.09308381               -0.17148207                0.10346594                0.46637824                0.03006235                0.02369338
               3.01033118                4.99514389               26.02387891                0.01000000               -0.13832339               -0.17521218                0.10383520                0.56105539                0.06517875                0.00359646
               4.00888261                4.99683239               26.02420464                0.01000001               -0.15423550               -0.15905505                0.10533571                0.62844412                0.10060455                0.00917949
               5.00724647                4.99940959               26.02490606                0.01000001               -0.16069889               -0.15699025                0.10775703                0.66866613                0.12320300                0.03521771
               6.00566863                5.00231805               26.02585453                0.01001086               -0.13821878               -0.17338894                0.11087943                0.65809021                0.13107181                0.07271514
               7.00448210                5.00497388               26.02688418                0.01001529               -0.09369416               -0.21944017                0.11461290                0.61807983                0.12398928                0.11462344
               8.00379475                5.00684827               26.02781674                0.01000000               -0.03222542               -0.25731302                0.11839443                0.51628556                0.10054469                0.15306023
               9.00383759                5.00726114               26.02843571                0.01000000                0.01259061               -0.27271371                0.12188792                0.34890526                0.06006900                0.16931169
              10.00404656                5.00508252               26.02851615                0.01000000                0.02089746               -0.19811797                0.12492751                0.17063691                0.03670116                0.14565559
               0.02056928                5.99673792               26.02690719                0.58119816               -0.03394665               -0.18411886                0.11270490                0.28044916               -0.00322475                0.09392280
               1.02022982                5.99396270               26.02564847                0.01000001               -0.18215646               -0.10920826                0.11277479                0.35814558               -0.00138100                0.04633123
               2.01692615                5.99308711               26.02443072                0.01000000               -0.25214443               -0.18965273                0.10769430                0.51674473                0.02029418               -0.00466853
               3.01518693                5.99327593               26.02409473                0.01000001               -0.18710994               -0.18634382                0.10763541                0.56977596                0.08818598               -0.02399285
               4.01318396                5.99520219               26.02441293                0.01000001               -0.19875019               -0.16559203                0.10928130                0.66147729                0.13869184               -0.00238812
               5.01121193                5.99784699               26.02526965                0.01001232               -0.19459824               -0.13380872                0.11103887                0.64076289                0.17312711                0.03609231
               6.00929199                6.00059685               26.02647104                0.01000001               -0.16902402               -0.14606281                0.11495645                0.56320756                0.18657762                0.08867200
               7.00783144                6.00285159               26.02785048                0.01000000               -0.10965237               -0.18672262                0.11947381                0.44639908                0.18251245                0.14797238
               8.00709894                6.00432755               26.02914843                0.01000000               -0.04185032               -0.23013479                0.12418695                0.32297204                0.15406126                0.20603781
               9.00699444                6.00482773               26.03001946                0.01000002               -0.00878114               -0.21942922                0.12849397                0.17845004                0.09357288                0.24835633
              10.00692332                6.00400040               26.03007843                0.01000001               -0.00711172               -0.07152154                0.13148814                0.08618965                0.05492280                0.24796397
               0.02334422                6.99640623               26.02739292                0.99999999               -0.03376344               -0.03309499                0.11239430               -0.00045807               -0.00614876                0.02790314
               1.02300659                6.99362476               26.02598974                1.00000000               -0.03367370               -0.03348455                0.11188094               -0.00042772               -0.00747932                0.00579723
               2.02267075                6.99083320               26.02456284                0.01000000               -0.16974813               -0.12925894                0.11160140                0.31661932                0.03974235               -0.01807914
               3.01961162                6.99141702               26.02410931                0.01000001               -0.25648231               -0.28455952                0.11618976                0.63090011                0.12115907               -0.04219661
               4.01754110                6.99352055               26.02463176                0.01000001               -0.24722805               -0.11930802                0.10987044                0.66305762                0.19929009               -0.03158466
               5.01466706                6.99673341               26.02568599                0.01000001               -0.28064574               -0.07507856                0.11473542                0.59044180                0.22793067                0.03602668
               6.01192818                6.99939679               26.02728629                0.01000000               -0.24938384               -0.07375318                0.11886459                0.42595020                0.25294600                0.09428526
               7.00967938                7.00123942               26.02922655                0.01000000               -0.18250680               -0.11268267                0.12500528                0.24540155                0.25706731                0.16669866
               8.00827805                7.00224557               26.03118295                0.01000001               -0.09728232               -0.17147196                0.13134889                0.08275338                0.22635626                0.27067111
               9.00773374                7.00287255               26.03264740                0.01000002               -0.04265139               -0.18538779                0.13701236               -0.00002925                0.13969459                0.35667625
              10.00742502                7.00365209               26.03288700                0.01000001               -0.03087178               -0.04165553                0.14032574               -0.02085258                0.07932380                0.40962739
               0.02612307                7.99607602               26.02774495                1.00000000               -0.03287801               -0.03267345                0.10948269               -0.00028860               -0.00082139                0.02251115
               1.02579429                7.99329301               26.02627776                1.00000000               -0.03283975               -0.03280492                0.10940904                0.00011718               -0.00058662                0.00312734
               2.02546628                7.99050193               26.02481696                0.03781048               -0.03383546               -0.03278803                0.10927268               -0.00584627                0.05749572               -0.01621206
               3.02511759                7.98758474               26.02451575                0.01000002               -0.21687840               -0.20193192                0.09176870                0.53216942                0.19888065               -0.17273114
               4.02112871                7.99281602               26.02459676                0.01001668               -0.39865340               -0.04704850                0.11628487                0.71873282                0.22556619               -0.01865145
               5.01714452                7.99634542               26.02611691                0.01000000               -0.39118623                0.01951871                0.11567392                0.47922137                0.28536972                0.03158598
               6.01330499                7.99912179               26.02812387                0.01000000               -0.36269121                0.01949342                0.12223750                0.28234426                0.31522007                0.08523431
               7.00989069                8.00059794               26.03073552                0.01000001               -0.30920530               -0.00625205                0.13021913                0.06053257                0.36065330                0.15583273
               8.00712088                8.00089811               26.03404049                0.01000002               -0.21516755               -0.05811425                0.14032246               -0.15381753                0.34530286                0.27739124
               9.00558734                8.00111998               26.03662561                0.01000007               -0.10868367               -0.12935340                0.14884567               -0.29607039                0.22957740                0.60992576
              10.00494721                8.00316729               26.03772585                0.01000000               -0.06401343               -0.19391087                0.15421783               -0.21515803                0.15522654                0.59925955
               0.02890447                8.99575276               26.02812323                1.00000000               -0.03214506               -0.03203732                0.10713126               -0.00030432                0.00234135                0.01889156
               1.02858302                8.99296866               26.02656883                0.99999998               -0.03211913               -0.03209104                0.10704905                0.00008272                0.00120878                0.00195194
               2.02826209                8.99017744               26.02499252                1.00000000               -0.03210546               -0.03210212                0.10702504                0.00004737               -0.00525504               -0.01199142
               3.02794091                8.98737838               26.02331226                0.01000000               -0.25535064               -0.02619296                0.10703898                0.40142615                0.14890435               -0.08715510
               4.02315508                8.99257958               26.02482535                0.01000000               -0.49975949                0.08618500                0.10816981                0.51690801                0.28695843               -0.01719497
               5.01794572                8.99712379               26.02642456                0.01000000               -0.49162635                0.10420610                0.11585441                0.31275325                0.30331783                0.02233349
               6.01332255                8.99978666               26.02873499                0.01000001               -0.44160026                0.08997198                0.12389833                0.13786341                0.35883468                0.05391893
               7.00911372                9.00111438               26.03194060                0.01000002               -0.43214470                0.07631116                0.13429770               -0.01487838                0.44187929                0.09865225
               8.00467966                9.00108329               26.03635298                0.01000003               -0.47852837                0.08006397                0.14791002               -0.18141710                0.66752662                0.19140779
               8.99954315                9.00028549               26.04452087                0.99999998               -0.28262115               -0.06756761                0.17105259               -0.34169802                0.41553885                0.39999715
               9.99902723                8.99977387               26.04437182                1.00000000               -0.05159170               -0.19586912                0.17318710               -0.32162669               -0.00034919                0.33686986
               0.03168520                9.99543527               26.02840230                1.00000000               -0.03139272               -0.03174893                0.10476114               -0.00033611                0.01313815                0.01399427
               1.03137127                9.99265119               26.02683569                1.00000000               -0.03138469               -0.03174709                0.10468385                0.00005546                0.01650700                0.00066057
               2.03105750                9.98985988               26.02533628                1.00000000               -0.03136500               -0.03175558                0.10467120                0.00002604                0.01653687               -0.00379958
               3.03074397                9.98706088               26.02377284                0.06819838               -0.46680214               -0.03175014                0.10461132                0.51429786                0.14449122               -0.00431794
               4.02172146                9.99453972               26.02483779                0.01000418               -0.72757358                0.19601481                0.10745166                0.42507144                0.25908650               -0.01270271
               5.01619250                9.99842954               26.02650315                0.01000000               -0.48249001                0.13057487                0.11404006                0.14375294                0.29320277                0.01789356
               6.01207166               10.00092123               26.02883114                0.01000001               -0.39480018                0.11345714                0.12354836                0.05964217                0.36088954                0.03605511
               7.00829650               10.00212416               26.03221625                0.01000000               -0.38751133                0.10097759                0.13559101               -0.00281425                0.48898308                0.05926996
               8.00432144               10.00249939               26.03745538                0.01000002               -0.41168469                0.14161006                0.15224035               -0.15359880                0.64894825                0.14022633
               9.00006280                9.99976862               26.04442245                1.00000000               -0.23917624               -0.05168616                0.17375065               -0.11050888                0.35609638                0.00029026
               9.99953791                9.99924991               26.04427340                0.99999114               -0.05248919               -0.05239601                0.17588440               -0.00080399                0.00033392               -0.00033076
               0.00130074                0.00218647               27.02257463                1.00000000               -0.02530763               -0.02471780                0.08315283                0.00014553               -0.00335939                0.00389913
               1.00104766                0.00097160               27.02254999                1.00000000               -0.02564607               -0.02542562                0.08542208                0.00034675               -0.00361489               -0.00127638
               2.00078782               -0.00024759               27.02251751                0.01000001               -0.01126919               -0.02613495                0.08769196                0.03295171                0.06252001               -0.00156288
               3.00082228               -0.00081927               27.02381764                0.01000298               -0.00942867               -0.01552799                0.09169567                0.02832125                0.13389099                0.00357190
               4.00059925                0.00052152               27.02530716                0.01000000               -0.05876354               -0.00053405                0.09555546                0.09766443                0.15522843               -0.00829885
               4.99964701                0.00406951               27.02714687                0.01004182               -0.21721773                0.01343249                0.09891195                0.25149613                0.19228197               -0.01822540
               5.99625489                0.01097664               27.02957703                0.20485899               -0.18513120               -0.03072067                0.10233689                0.27651161                0.11083429               -0.00112891
               6.99594439                0.01236342               27.03028921                1.00000000               -0.03195754               -0.03190374                0.10712113                0.00066208                0.01562970               -0.00463319
               7.99561574                0.01374814               27.03080951                0.99999998               -0.03356946               -0.03337948                0.11185813                0.00073095                0.00800868               -0.00050378
               8.99527300                0.01512866               27.03136541                1.00000000               -0.03498609               -0.03480428                0.11662457                0.00073008                0.00791456                0.00094628
               9.99491602                0.01650606               27.03188228                1.00000000               -0.03569780               -0.03628547                0.12139385                0.00093794                0.00592647                0.00539308
               0.00251707                1.00193929               27.02248250                1.00000000               -0.02489065               -0.02451612                0.08182553               -0.00019794                0.00140942                0.00447649
               1.00226816                1.00071734               27.02245501                0.01000000               -0.02521491               -0.02524681                0.08409259                0.00000276                0.00349481               -0.00322246
               2.00201277                0.99949106               27.02246787                0.01000000               -0.07736126               -0.04142018                0.08636291               -0.00076353                0.07464931                0.04123913
               3.00072094                0.99902545               27.02386699                0.01000001               -0.14406362               -0.01566371                0.09170685                0.07544418                0.12650870                0.01118016
               3.99913150                1.00051618               27.02514641                0.01000000               -0.18932638               -0.00551457                0.09542868                0.20805792                0.11915580               -0.00446746
               4.99693441                1.00420384               27.02666093                0.01000000               -0.21292218               -0.01414372                0.09872448                0.40293269                0.14653571               -0.01496698
               5.99487305                1.01066944               27.02881928                0.01000001               -0.11845754               -0.16467269                0.10112726                0.37001176                0.08839238               -0.04041640
               6.99456526                1.01204438               27.02944810                0.99999999               -0.03163126               -0.03171995                0.10589210                0.00006940                0.00642029               -0.00451610
               7.99424043                1.01341434               27.02996173                1.00000000               -0.03319596               -0.03320009                0.11065102                0.00000852                0.00121361               -0.00040455
               8.99390134                1.01478062               27.03048367                0.99999999               -0.03462136               -0.03462506                0.11542276                0.00000933                0.00116626                0.00063302
               9.99354800                1.01614320               27.03099592                1.00000000               -0.03533375               -0.03610466                0.12019441                0.00018483                0.00058646                0.00667929
               0.00374068                2.00169615               27.02239721                0.01000002               -0.02447321               -0.03219922                0.08050062               -0.01796684                0.00190571                0.07171526
               1.00349595                2.00046666               27.02232150                0.01000000               -0.06381216               -0.06655511                0.08276230               -0.03088155                0.05360665                0.06672401
               2.00246444                1.99892401               27.02327974                0.01000001               -0.10949542               -0.07302601                0.08977260                0.02469664                0.08609935                0.06872379
               3.00130604                1.99886745               27.02400644                0.01000000               -0.14412127               -0.04790748                0.09346113                0.19556171                0.07955740                0.02402014
               3.99958202                2.00041123               27.02498740                0.01000000               -0.18768185               -0.04032820                0.09684176                0.37402538                0.08939638                0.00358616
               4.99755241                2.00378664               27.02614069                0.01000001               -0.18837163               -0.08086598                0.09985406                0.51371855                0.08384885               -0.00911738
               5.99581458                2.00768319               27.02726694                0.01000000               -0.21757703               -0.22291969                0.10291170                0.54874461                0.08311840               -0.04692766
               6.99320087                2.01172902               27.02860469                0.01000000               -0.14674540               -0.13290042                0.10466672                0.32957264                0.03705448               -0.01316183
               7.99287967                2.01308414               27.02911378                0.09231111               -0.03282692               -0.03285224                0.10943792                0.00061915               -0.00565005               -0.00138926
               8.99254433                2.01443616               27.02959585                0.99999997               -0.03425639               -0.03422826                0.11422335                0.00005777               -0.00404875               -0.00163899
               9.99219455                2.01578396               27.03013783                1.00000000               -0.03497805               -0.03576334                0.11900006                0.00020680               -0.00120477                0.00660744
               0.00461671                3.00129531               27.02364632                0.01000000               -0.01940323               -0.03139413                0.08817281               -0.00390008                0.01003726                0.13934192
               1.00442267                2.99938624               27.02362743                0.01000001               -0.02553979               -0.13219958                0.09084344                0.03380620                0.01984503                0.11787302
               2.00410591                2.99803054               27.02381386                0.01000000               -0.06388630               -0.12648044                0.09369012                0.17300718                0.04319141                0.05661102
               3.00314495                2.99806730               27.02428463                0.01000000               -0.12065438               -0.10903328                0.09676300                0.34081717                0.06151569                0.02917962
               4.00169282                2.99970962               27.02494685                0.01000000               -0.16040638               -0.10047935                0.09950145                0.50098340                0.07146078                0.01380845
               4.99993682                3.00258652               27.02578370                0.01000000               -0.18936283               -0.13052167                0.10231963                0.61950027                0.07577738                0.00950151
               5.99790557                3.00621104               27.02672933                0.01000001               -0.20905280               -0.16187849                0.10526743                0.63539396                0.06580282                0.01749106
               6.99575576                3.00938637               27.02758713                0.01000001               -0.31799462               -0.19602495                0.10861355                0.66401663                0.04030222                0.01198053
               7.99154567                3.01275730               27.02824519                0.01000002               -0.22765465               -0.14603138                0.10520034                0.53903392               -0.00519387                0.04289459
               8.99120267                3.01409605               27.02866996                0.01003721               -0.03445715               -0.17172057                0.11302840                0.41155570               -0.00943552                0.05180690
               9.99085653                3.01542793               27.02925355                0.40869459               -0.03461406               -0.36388879                0.11780645                0.47768929               -0.00169924                0.04115123
               0.00748082                4.00106826               27.02491151                0.01000003               -0.00439762               -0.05474253                0.09556857                0.08625733               -0.00179955                0.14679448
               1.00743684                3.99782267               27.02460351                0.01000000               -0.01186481               -0.18702754                0.09733312                0.18796402                0.00744154                0.09436625
               2.00724352                3.99639440               27.02446012                0.01000000               -0.04967670               -0.18165517                0.09898446                0.35188980                0.02967310                0.05169601
               3.00644331                3.99668679               27.02460041                0.01000000               -0.10805297               -0.15595502                0.10087332                0.48748853                0.05543280                0.02426639
               4.00508246                3.99840164               27.02505273                0.01000000               -0.15011627               -0.14811048                0.10305690                0.60791441                0.07681094                0.01931714
               5.00344098                4.00117620               27.02576548                0.01000001               -0.16799286               -0.15444520                0.10561444                0.68735306                0.08877784                0.03073570
               6.00172261                4.00444562               27.02663044                0.01000001               -0.17530215               -0.18087424                0.10859944                0.73500694                0.08857365                0.05119801
               6.99993494                4.00780852               27.02751680                0.01000001               -0.13859665               -0.19908730                0.11158549                0.73427847                0.07442514                0.07999134
               7.99895067                4.01016351               27.02828572                0.01000000               -0.09150668               -0.26904887                0.11529862                0.78270979                0.05392200                0.10701714
               8.99810481                4.01100175               27.02885340                0.01000000                0.00669469               -0.31541049                0.11793254                0.56065270                0.02377405                0.12127529
               9.99908457                4.00850619               27.02909100                0.01000001                0.09797601               -0.49928057                0.12173083                0.42362439                0.01524868                0.07983860
               0.01283304                5.00020046               27.02626987                0.01000000                0.00227785               -0.22293182                0.10355080                0.26025997               -0.00358980                0.16868471
               1.01285582                4.99564569               27.02559277                0.01000000               -0.02767286               -0.20515498                0.10411719                0.41072578                0.00554857                0.09367202
               2.01227959                4.99439744               27.02506913                0.01000001               -0.09841748               -0.17985767                0.10450737                0.49857053                0.02912515                0.03146655
               3.01088747                4.99494820               27.02492947                0.01000000               -0.14589459               -0.18702064                0.10531357                0.59838165                0.06434559                0.01116529
               4.00936169                4.99674741               27.02526854                0.01000001               -0.16237847               -0.17018222                0.10712306                0.67210871                0.09959348                0.01736409
               5.00763990                4.99949761               27.02599439                0.01000001               -0.16941528               -0.16673850                0.10943652                0.71468366                0.12254306                0.04188570
               6.00597339                5.00259356               27.02697193                0.01000000               -0.14582298               -0.18348392                0.11238021                0.70177009                0.13074662                0.07881580
               7.00472344                5.00540463               27.02803867                0.01000000               -0.09833732               -0.23222738                0.11605357                0.65754609                0.12398791                0.12078933
               8.00400664                5.00737632               27.02900812                0.01000000               -0.03251973               -0.27292974                0.12001363                0.54870328                0.10064752                0.15872116
               9.00407305                5.00778784               27.02966397                0.01000000                0.01567480               -0.28987543                0.12363837                0.37071386                0.06024514                0.17539758
              10.00432014                5.00544232               27.02977663                0.01000000                0.02470898               -0.21076194                0.12685202                0.18132331                0.03688310                0.15115938
               0.02179556                5.99660963               27.02803586                0.55079230               -0.03411776               -0.19609072                0.11288939                0.30363671               -0.00320140                0.10081228
               1.02145438                5.99371957               27.02678011                0.01000001               -0.19415672               -0.11327738                0.11341684                0.38394553               -0.00374255                0.05286143
               2.01791242                5.99279724               27.02551610                0.01000000               -0.26967041               -0.19630711                0.10866479                0.54780772                0.01790110                0.00353402
               3.01606097                5.99294638               27.02517484                0.01000001               -0.19686001               -0.19963871                0.10999510                0.60802092                0.08742617               -0.00651951
               4.01397522                5.99499800               27.02552749                0.01000001               -0.20862333               -0.17627079                0.11117239                0.70865287                0.13744091                0.00642140
               5.01188851                5.99784143               27.02639162                0.01000000               -0.20621136               -0.14097796                0.11298197                0.68660159                0.17063560                0.04462406
               6.00985100                6.00077594               27.02763207                0.01000000               -0.17927033               -0.15354574                0.11676769                0.60110756                0.18697914                0.09496028
               7.00830310                6.00316397               27.02905405                0.01000000               -0.11547358               -0.19689016                0.12108462                0.47473600                0.18400394                0.15408377
               8.00754152                6.00470492               27.03039865                0.01000000               -0.04250068               -0.24356867                0.12571901                0.34264216                0.15571900                0.21277468
               9.00745309                6.00520424               27.03131369                0.01000002               -0.00697260               -0.23281622                0.13028784                0.18904328                0.09470113                0.25553229
              10.00740207                6.00429095               27.03140486                0.01000001               -0.00510128               -0.07620419                0.13386818                0.09113023                0.05573134                0.25490498
               0.02468589                6.99627864               27.02851803                0.99999999               -0.03387775               -0.03305889                0.11251765               -0.00051295               -0.00668232                0.02872589
               1.02434712                6.99338014               27.02711186                1.00000000               -0.03384804               -0.03362891                0.11244521               -0.00044484               -0.00783512                0.00650734
               2.02400893                6.99047129               27.02568424                0.01000000               -0.17499907               -0.13300500                0.11259226                0.32928192                0.04707591               -0.01502245
               3.02084714                6.99095542               27.02538039                0.01000001               -0.26846205               -0.28248386                0.11426094                0.65904902                0.12039623               -0.04631953
               4.01863969                6.99322199               27.02572787                0.01000001               -0.26265728               -0.12741754                0.11166632                0.71058739                0.18105762               -0.00895895
               5.01559399                6.99667805               27.02685427                0.01000000               -0.29833456               -0.07606045                0.11657409                0.63156155                0.22751363                0.04123575
               6.01267300                6.99952264               27.02848547                0.01000000               -0.26524003               -0.07604477                0.12083078                0.45360716                0.25394813                0.10015751
               7.01028919                7.00146682               27.03048606                0.01000000               -0.19268909               -0.11809807                0.12664866                0.26033397                0.26019573                0.17283599
               8.00881922                7.00250495               27.03250415                0.01000001               -0.10106538               -0.18106050                0.13284557                0.08703978                0.22957241                0.27854793
               9.00826788                7.00313152               27.03402534                0.01000002               -0.04249480               -0.19648594                0.13845224               -0.00047967                0.14179039                0.36620332
              10.00796932                7.00391824               27.03429942                0.01000002               -0.02985581               -0.04413220                0.14191250               -0.02188271                0.08071803                0.41982635
               0.02758230                7.99594845               27.02883996                1.00000000               -0.03294715               -0.03265435                0.10946378               -0.00030030               -0.00084852                0.02234376
               1.02725283                7.99304699               27.02737429                1.00000000               -0.03297631               -0.03293009                0.10984834                0.00012937               -0.00061373                0.00313912
               2.02692278                7.99013714               27.02591436                0.04524200               -0.03807883               -0.03305996                0.11016858                0.00395757                0.02760739               -0.01607522
               3.02649126                7.98729670               27.02501690                0.01000002               -0.22292183               -0.20324313                0.08702361                0.54897218                0.14469027               -0.09906807
               4.02246434                7.99244965               27.02586169                0.01000000               -0.41360860               -0.04517398                0.11485378                0.74427946                0.24105068               -0.01792853
               5.01821908                7.99632023               27.02727565                0.01000000               -0.41649853                0.02406336                0.11800352                0.51102852                0.27926699                0.03559718
               6.01413437                7.99925505               27.02935868                0.01000000               -0.38458056                0.02291929                0.12394279                0.29775294                0.31971457                0.08923503
               7.01052747                8.00080201               27.03204556                0.01000001               -0.32583722               -0.00523301                0.13181872                0.06274034                0.36684909                0.16100464
               8.00761763                8.00108371               27.03545076                0.01000002               -0.22486350               -0.06096695                0.14167016               -0.16458727                0.35203415                0.28503858
               9.00603020                8.00127452               27.03811957                0.01000007               -0.11133253               -0.13789956                0.15001732               -0.31324319                0.23426226                0.62513868
              10.00539098                8.00340830               27.03927377                0.01000000               -0.06392272               -0.20314729                0.15547625               -0.22698312                0.15886091                0.61347027
               0.03048281                8.99562556               27.02919398                1.00000000               -0.03217952               -0.03198944                0.10700952               -0.00031575                0.00236213                0.01902347
               1.03016101                8.99272154               27.02764104                0.99999998               -0.03222145               -0.03218913                0.10738895                0.00008875                0.00126537                0.00203775
               2.02983838                8.98981009               27.02606681                1.00000000               -0.03234681               -0.03234288                0.10783586                0.00005635               -0.00514566               -0.01185794
               3.02951408                8.98689056               27.02438905                0.01000000               -0.26683114               -0.03637053                0.10833250                0.42278591                0.14881482               -0.05711203
               4.02450176                8.99231851               27.02590029                0.01000000               -0.52524572                0.09851870                0.10824456                0.53766313                0.29334302               -0.01969690
               5.01900916                8.99715932               27.02759197                0.01000000               -0.51777402                0.11146330                0.11719614                0.32903186                0.30963250                0.02380932
               6.01414627                8.99998103               27.02998106                0.01000002               -0.46469120                0.09679533                0.12536453                0.14450605                0.36620326                0.05590954
               7.00971534                9.00136216               27.03329052                0.01000002               -0.45456543                0.08209561                0.13568439               -0.01758531                0.45195261                0.10170364
               8.00505497                9.00128561               27.03783741                0.01000003               -0.50184586                0.08556635                0.14897971               -0.19518448                0.68355952                0.19643482
               8.99967842                9.00037353               27.04623230                0.99999998               -0.29464368               -0.07090157                0.17123552               -0.36282077                0.42584707                0.40958263
               9.99916209                8.99985529               27.04610403                1.00000000               -0.05163274               -0.20383937                0.17325298               -0.33739174               -0.00035250                0.34479411
               0.03338402                9.99530866               27.02944862                1.00000000               -0.03139549               -0.03168939                0.10453791               -0.00042366                0.01322510                0.01410948
               1.03307007                9.99240321               27.02788351                1.00000000               -0.03145709               -0.03183297                0.10492319               -0.00001312                0.01660338                0.00073130
               2.03275488                9.98949029               27.02638627                1.00000000               -0.03157555               -0.03198086                0.10537662               -0.00004569                0.01661399               -0.00373984
               3.03243856                9.98656929               27.02482452                0.09439693               -0.49030188               -0.03212736                0.10577965                0.53893494                0.14557892               -0.00433051
               4.02294884                9.99442002               27.02591253                0.01000002               -0.76506773                0.21015099                0.10789864                0.44371903                0.26376174               -0.00798206
               5.01713720                9.99854949               27.02764325                0.01000000               -0.50635970                0.13901699                0.11470700                0.15135076                0.30242148                0.01894795
               6.01282165               10.00119095               27.03007156                0.01000001               -0.41330087                0.12099238                0.12473349                0.06225910                0.37147164                0.03693322
               7.00887119               10.00244392               27.03357774                0.01000002               -0.40595382                0.10817602                0.13678179               -0.00421122                0.50249268                0.06097392
               8.00470257               10.00279503               27.03898171                0.01000002               -0.43335403                0.15094221                0.15304286               -0.16461105                0.66663715                0.14363110
               9.00020410                9.99985649               27.04615963                1.00000000               -0.25114833               -0.05170381                0.17368614               -0.12060737                0.36560265                0.00029344
               9.99967961                9.99933152               27.04603135                0.99999999               -0.05244978               -0.05237768                0.17570366               -0.00074576                0.00033325               -0.00033357
               0.00128044                0.00232425               28.02340184                1.00000000               -0.02517091               -0.02448227                0.08228718                0.00030633               -0.00335936                0.00390139
               1.00102874                0.00106045               28.02340398                1.00000000               -0.02562886               -0.02544513                0.08537520                0.00047685               -0.00361479               -0.00127724
               2.00076787               -0.00020695               28.02339828                0.01000001               -0.01385394               -0.02640857                0.08846293                0.03301533                0.06312811               -0.00156328
               3.00075166               -0.00082736               28.02473733                0.01000000               -0.01496809               -0.01224182                0.09221242                0.02863704                0.13443474                0.00469262
               4.00046851                0.00060472               28.02626341                0.01000000               -0.06698488                0.00337537                0.09561075                0.10417418                0.15475817               -0.00723461
               4.99941196                0.00437517               28.02813251                0.01000000               -0.23501916                0.01858899                0.09794664                0.26954939                0.19131806               -0.01793449
               5.99576812                0.01172925               28.03059281                0.19612303               -0.19756815               -0.03030183                0.10088747                0.29658671                0.10993291               -0.00112649
               6.99546060                0.01316424               28.03135618                1.00000000               -0.03171120               -0.03166915                0.10626530                0.00076412                0.01569224               -0.00465221
               7.99513390                0.01459690               28.03192583                0.99999998               -0.03343374               -0.03327011                0.11140367                0.00078876                0.00799429               -0.00050412
               8.99479192                0.01602588               28.03253134                1.00000000               -0.03496660               -0.03481339                0.11656247                0.00078948                0.00791142                0.00094720
               9.99443457                0.01745235               28.03309785                0.99998844               -0.03573548               -0.03641202                0.12172271                0.00096948                0.00592083                0.00538727
               0.00254730                1.00207943               28.02329753                1.00000000               -0.02482038               -0.02431034                0.08117903               -0.00015865                0.00140849                0.00447854
               1.00229910                1.00080600               28.02329681                0.01000000               -0.02526899               -0.02530628                0.08426710                0.00001118                0.00349666               -0.00322319
               2.00204192                0.99952897               28.02333646                0.01000000               -0.08334524               -0.04233524                0.08735562               -0.00270404                0.07589735                0.04348105
               3.00063220                0.99905023               28.02478731                0.01000001               -0.15664703               -0.01325061                0.09231287                0.07952571                0.12766775                0.01351356
               3.99890898                1.00063847               28.02610258                0.01000000               -0.20435051               -0.00247422                0.09560399                0.22171113                0.11879840               -0.00243262
               4.99654519                1.00456106               28.02764633                0.01000000               -0.22847647               -0.01166594                0.09819175                0.43038217                0.14538650               -0.01357881
               5.99433945                1.01142623               28.02982391                0.01000001               -0.12553869               -0.17315252                0.09986439                0.39557463                0.08692388               -0.03866460
               6.99403441                1.01284755               28.03050371                0.99999999               -0.03142437               -0.03151301                0.10521976                0.00007871                0.00648783               -0.00452728
               7.99371097                1.01426420               28.03106688                0.99999999               -0.03311603               -0.03311636                0.11037791                0.00000530                0.00121768               -0.00040558
               8.99337209                1.01567774               28.03163849                0.99999999               -0.03465909               -0.03466215                0.11554492                0.00000466                0.00117374                0.00063674
               9.99301779                1.01708823               28.03220041                1.00000000               -0.03543057               -0.03625472                0.12070270                0.00015371                0.00059114                0.00667587
               0.00382412                2.00183804               28.02320005                0.01000000               -0.02447064               -0.03196255                0.08007083               -0.01950148                0.00190622                0.07622365
               1.00357942                2.00055433               28.02315112                0.01000000               -0.06772803               -0.06867119                0.08315834               -0.03328950                0.05585044                0.07136020
               2.00246956                1.99894635               28.02418101                0.01000001               -0.11733733               -0.07564398                0.09043631                0.02536540                0.08851081                0.07384009
               3.00123267                1.99890763               28.02494487                0.01000000               -0.15388339               -0.04888538                0.09413560                0.20777180                0.07969679                0.02826108
               3.99939189                2.00055523               28.02595828                0.01000000               -0.20004146               -0.04064246                0.09721117                0.39832084                0.08876731                0.00730895
               4.99723184                2.00414185               28.02714029                0.01000001               -0.19993832               -0.08411375                0.09982682                0.54757167                0.08254636               -0.00559038
               5.99539313                2.00826620               28.02829587                0.01000000               -0.23038188               -0.23568638                0.10270081                0.58481871                0.08096608               -0.04291249
               6.99262420                2.01253398               28.02964896                0.01000000               -0.15446588               -0.13955064                0.10417688                0.35099185                0.03535556               -0.01056304
               7.99230381                2.01393458               28.03020771                0.09419310               -0.03281091               -0.03304280                0.10934641                0.00076590               -0.00562407               -0.00091465
               8.99196798                2.01533263               28.03073959                0.99999996               -0.03435739               -0.03432216                0.11453297                0.00003808               -0.00403280               -0.00163220
               9.99161666                2.01672726               28.03133127                1.00000000               -0.03513221               -0.03596503                0.11968201                0.00017180               -0.00119954                0.00661347
               0.00472471                3.00144017               28.02452713                0.01000000               -0.01997033               -0.03012311                0.08793265               -0.00392974                0.01042206                0.14862852
               1.00452500                2.99943258               28.02453759                0.01000001               -0.02643891               -0.13800986                0.09111975                0.03614553                0.02005673                0.12678121
               2.00419593                2.99801609               28.02475434                0.01000000               -0.06731265               -0.13254774                0.09431622                0.18502521                0.04331231                0.06306059
               3.00317875                2.99807252               28.02525637                0.01000000               -0.12773731               -0.11434863                0.09748409                0.36324301                0.06118175                0.03498882
               4.00164118                2.99982562               28.02594575                0.01000000               -0.16965494               -0.10536479                0.10012094                0.53331466                0.07051089                0.01912390
               4.99978565                3.00287879               28.02680957                0.01000000               -0.19987399               -0.13755201                0.10260833                0.65885748                0.07466041                0.01449838
               5.99764370                3.00671251               28.02778644                0.01000001               -0.21998879               -0.17101037                0.10551905                0.67496240                0.06487450                0.02232931
               6.99538587                3.01005654               28.02867209                0.01000001               -0.33580352               -0.20726503                0.10969753                0.70499692                0.03858266                0.01697090
               7.99092763                3.01360335               28.02933738                0.01000002               -0.24028522               -0.15416777                0.11216003                0.57166448               -0.00827036                0.04723782
               8.99058017                3.01499130               28.02980269                0.01000001               -0.03478291               -0.18095654                0.11353772                0.43591876               -0.00990620                0.05511776
               9.99023197                3.01636893               28.03043597                0.44454411               -0.03481975               -0.38453994                0.11866447                0.50608574               -0.00171026                0.04405218
               0.00776072                4.00123558               28.02586673                0.01000003               -0.00343117               -0.05511128                0.09538014                0.09297994               -0.00207325                0.15670857
               1.00772641                3.99779413               28.02557869                0.01000000               -0.01152993               -0.19634043                0.09759784                0.20196919                0.00699095                0.10302456
               2.00753012                3.99629540               28.02545369                0.01000000               -0.05192070               -0.19082429                0.09959028                0.37627438                0.02904479                0.05938399
               3.00668800                3.99662066               28.02561468                0.01000000               -0.11391024               -0.16398742                0.10167203                0.51962419                0.05458060                0.03111195
               4.00525192                3.99844794               28.02608833                0.01000000               -0.15829461               -0.15603565                0.10387445                0.64692650                0.07565470                0.02606520
               5.00352210                4.00139081               28.02682663                0.01000001               -0.17686471               -0.16288100                0.10630641                0.73031760                0.08757854                0.03699054
               6.00171463                4.00484599               28.02772123                0.01000001               -0.18444021               -0.19098862                0.10922477                0.77967280                0.08771653                0.05692364
               6.99983330                4.00838868               28.02864165                0.01000000               -0.14561453               -0.21020618                0.11289268                0.77725058                0.07374883                0.08526270
               7.99880233                4.01085122               28.02944095                0.01000000               -0.09562639               -0.28467931                0.11700419                0.82897984                0.05337174                0.11266225
               8.99792077                4.01171350               28.03004136                0.01000000                0.00903890               -0.33412481                0.11984577                0.59395293                0.02372892                0.12601787
               9.99898311                4.00903646               28.03032010                0.01000001                0.10623396               -0.52885450                0.12325056                0.44864252                0.01596332                0.08350701
               0.01346720                5.00033795               28.02730522                0.01000000                0.00373651               -0.23647843                0.10339973                0.27958447               -0.00446144                0.17991672
               1.01350457                4.99550577               28.02663581                0.01000000               -0.02861601               -0.21466459                0.10437341                0.44049879                0.00455412                0.10401878
               2.01289488                4.99419960               28.02611820                0.01000001               -0.10429394               -0.18763563                0.10506859                0.53231580                0.02793165                0.03909070
               3.01141869                4.99479277               28.02598518                0.01000000               -0.15426630               -0.19630209                0.10605973                0.63706851                0.06320363                0.02026169
               4.00980956                4.99670491               28.02634710                0.01000001               -0.17123729               -0.17883297                0.10799561                0.71462373                0.09836016                0.02510302
               5.00799395                4.99962117               28.02709479                0.01000001               -0.17851345               -0.17556117                0.11037262                0.75928872                0.12103473                0.04912561
               6.00623929                5.00289273               28.02810213                0.01000001               -0.15341427               -0.19317367                0.11345016                0.74428807                0.12983470                0.08544851
               7.00492566                5.00585241               28.02920525                0.01000000               -0.10284431               -0.24514041                0.11703873                0.69643363                0.12378564                0.12708445
               8.00418240                5.00790976               28.03021701                0.01000000               -0.03258354               -0.28821046                0.12113670                0.58038726                0.10064668                0.16438794
               9.00427399                5.00830880               28.03090848                0.01000000                0.01882533               -0.30682508                0.12497135                0.39217771                0.05989810                0.18108554
              10.00455891                5.00579184               28.03105319                0.01000000                0.02849208               -0.22303775                0.12847600                0.19192816                0.03652600                0.15638974
               0.02301677                5.99650601               28.02916498                0.52030218               -0.03420419               -0.20806474                0.11276712                0.32726792               -0.00318733                0.10777570
               1.02267473                5.99350084               28.02791681                0.01000001               -0.20636676               -0.11725260                0.11376297                0.41078873               -0.00645454                0.05949065
               2.01888944                5.99254268               28.02660402                0.01000000               -0.28753349               -0.20325577                0.10896989                0.58213148                0.01583293                0.01097002
               3.01692406                5.99269462               28.02629464                0.01000001               -0.20867202               -0.20720996                0.11026832                0.64429073                0.08640490               -0.00176392
               4.01471600                5.99487128               28.02663638                0.01000001               -0.22020041               -0.18488724                0.11127763                0.75318901                0.13407870                0.01570311
               5.01252005                5.99787959               28.02752929                0.01000001               -0.21734292               -0.14735308                0.11402063                0.72885197                0.16917748                0.05207666
               6.01036914                6.00098252               28.02880639                0.01000000               -0.18875535               -0.16096979                0.11790210                0.63711746                0.18677128                0.10191861
               7.00874495                6.00348587               28.03027217                0.01000000               -0.12077262               -0.20738877                0.12231311                0.50217212                0.18476052                0.16091315
               8.00795369                6.00508701               28.03166281                0.01000000               -0.04313513               -0.25726672                0.12691234                0.36194710                0.15688241                0.21977683
               9.00788224                6.00557700               28.03262522                0.01005595               -0.00490443               -0.24590339                0.13148683                0.19944921                0.09564752                0.26228366
              10.00785560                6.00457570               28.03275579                0.01000001               -0.00266456               -0.08060652                0.13515637                0.09648620                0.05671375                0.26097746
               0.02602291                6.99617665               28.02964327                0.99999999               -0.03392373               -0.03295353                0.11241175               -0.00056056               -0.00723189                0.02954781
               1.02568367                6.99316072               28.02823865                1.00000000               -0.03395879               -0.03371150                0.11280526               -0.00046404               -0.00820767                0.00721805
               2.02534373                6.99013449               28.02681468                0.01000000               -0.18538810               -0.13724156                0.11340502                0.34871170                0.04087260               -0.01160246
               3.02197591                6.99064857               28.02639453                0.01000001               -0.28276830               -0.30499501                0.10833549                0.70063365                0.11540381               -0.03117860
               4.01968837                6.99300716               28.02686509                0.01000179               -0.27580846               -0.12931200                0.11166960                0.75002574                0.18231441               -0.00451039
               5.01645974                6.99667410               28.02801747                0.01000000               -0.31565059               -0.07799613                0.11692732                0.66894973                0.22621034                0.04877268
               6.01337536                6.99967334               28.02970290                0.01000000               -0.27975649               -0.07858102                0.12214971                0.47953782                0.25516579                0.10617526
               7.01086461                7.00170464               28.03175952                0.01000000               -0.20225709               -0.12361496                0.12798372                0.27408675                0.26252643                0.17944943
               8.00933021                7.00276443               28.03383986                0.01000001               -0.10451661               -0.19106911                0.13425064                0.09099808                0.23231516                0.28670018
               9.00877428                7.00339074               28.03541644                0.01000002               -0.04194934               -0.20806023                0.13973160               -0.00086905                0.14343687                0.37522994
              10.00849123                7.00417971               28.03572525                0.01003318               -0.02830518               -0.04718083                0.14305790               -0.02308012                0.08145039                0.42868693
               0.02903744                7.99584694               28.02993422                1.00000000               -0.03298219               -0.03260398                0.10932735               -0.00029894               -0.00087853                0.02216458
               1.02870762                7.99282661               28.02847473                1.00000000               -0.03308102               -0.03302594                0.11018602                0.00013710               -0.00064007                0.00314743
               2.02837582                7.98979785               28.02702033                0.06971329               -0.03217787               -0.03330595                0.11097648               -0.00822266                0.03396925               -0.01591732
               3.02806406                7.98659472               28.02625622                0.01000002               -0.23424194               -0.21100259                0.09336807                0.57975011                0.14226287               -0.09477969
               4.02369098                7.99228504               28.02689383                0.01000000               -0.44155926               -0.04361815                0.11011152                0.79277997                0.23368247               -0.01063144
               5.01923287                7.99631967               28.02847698                0.01000000               -0.43808081                0.02791321                0.11889812                0.53618632                0.28469543                0.03961370
               6.01492936                7.99941090               28.03060273                0.01000000               -0.40486400                0.02593150                0.12532440                0.31333060                0.32248624                0.09356286
               7.01113559                8.00101357               28.03337190                0.01000001               -0.34209069               -0.00441794                0.13326092                0.06432692                0.37278867                0.16637744
               8.00808755                8.00126563               28.03687389                0.01000002               -0.23430087               -0.06416956                0.14293933               -0.17594606                0.35833251                0.29270289
               9.00644958                8.00141580               28.03962595                0.01000007               -0.11357523               -0.14768250                0.15130557               -0.33071749                0.23882863                0.63984904
              10.00581605                8.00363209               28.04083537                0.01000000               -0.06335320               -0.21337729                0.15694541               -0.23909617                0.16233029                0.62683583
               0.03205760                8.99552457               28.03026342                1.00000000               -0.03220936               -0.03193737                0.10686558               -0.00031368                0.00238357                0.01916090
               1.03173550                8.99250020               28.02871661                0.99999998               -0.03232129               -0.03228635                0.10772230                0.00009298                0.00132778                0.00213246
               2.03141117                8.98946837               28.02714924                0.99999999               -0.03258884               -0.03258480                0.10865069                0.00006367               -0.00501938               -0.01170843
               3.03108373                8.98642852               28.02547891                0.01000001               -0.27960760               -0.02456988                0.10963646                0.43658322                0.14860178               -0.06328893
               4.02581902                8.99213480               28.02699024                0.01000000               -0.55130606                0.10352828                0.10968251                0.56454169                0.29624504               -0.01073032
               5.02005761                8.99723237               28.02876848                0.01000000               -0.54354785                0.11931275                0.11846799                0.34530976                0.31623614                0.02486723
               6.01494806                9.00019197               28.03124228                0.01000002               -0.48805920                0.10339983                0.12689154                0.15105781                0.37330946                0.05821266
               7.01029642                9.00161628               28.03465428                0.01000002               -0.47694972                0.08778134                0.13708224               -0.02051637                0.46150318                0.10476218
               8.00540907                9.00148103               28.03933257                0.01000003               -0.52514755                0.09088920                0.15002685               -0.20972260                0.69888174                0.20135780
               8.99979347                9.00043709               28.04794558                0.99999998               -0.30661729               -0.07479813                0.17142382               -0.38466163                0.43577155                0.41876746
               9.99927672                8.99991217               28.04783688                1.00000000               -0.05167484               -0.21217464                0.17331687               -0.35323767               -0.00035568                0.35218995
               0.03507992                9.99520819               28.03049306                1.00000000               -0.03142381               -0.03163821                0.10438821               -0.00049892                0.01331501                0.01422996
               1.03476568                9.99218088               28.02893415                1.00000000               -0.03155747               -0.03193171                0.10525166               -0.00008399                0.01670139                0.00080947
               2.03444877                9.98914616               28.02744381                0.99999999               -0.03181947               -0.03222140                0.10618661               -0.00011807                0.01668888               -0.00367526
               3.03412929                9.98610332               28.02588843                0.12173302               -0.51354033               -0.03251989                0.10706926                0.56502900                0.14623820               -0.00435391
               4.02417796                9.99435560               28.02699577                0.01000002               -0.80236950                0.22208023                0.10966573                0.46602455                0.26757751               -0.00372850
               5.01808190                9.99870592               28.02879729                0.01000000               -0.53056771                0.14735526                0.11648077                0.15859443                0.31064740                0.02020389
               6.01356661               10.00147890               28.03132581                0.01000001               -0.43228509                0.12869290                0.12636233                0.06501867                0.38166806                0.03799864
               7.00943620               10.00276920               28.03495188                0.01000306               -0.42471604                0.11529207                0.13812818               -0.00579624                0.51546047                0.06260271
               8.00507229               10.00308341               28.04051624                0.01000002               -0.45554942                0.16023789                0.15384404               -0.17614607                0.68355234                0.14687685
               9.00032521                9.99991983               28.04789617                1.00000000               -0.26355785               -0.05172517                0.17362405               -0.13156665                0.37472536                0.00029412
               9.99980113                9.99938860               28.04778747                0.99999550               -0.05240805               -0.05235705                0.17551708               -0.00068288                0.00033544               -0.00033507
               0.00122926                0.00247311               29.02422037                1.00000000               -0.02503339               -0.02424638                0.08141994                0.00046775               -0.00335972                0.00390178
               1.00097893                0.00116039               29.02425750                1.00000000               -0.02561165               -0.02546454                0.08532807                0.00060584               -0.00361495               -0.00127716
               2.00071703               -0.00015523               29.02428677                0.01000000               -0.01665453               -0.02668280                0.08923594                0.03303040                0.06318193               -0.00156337
               3.00064584               -0.00082538               29.02566189                0.01000000               -0.02088986               -0.00864359                0.09267030                0.02891953                0.13391773                0.00579409
               4.00029923                0.00069849               29.02721937                0.01000000               -0.07509347                0.00741659                0.09531191                0.11034879                0.15292816               -0.00635230
               4.99914397                0.00468317               29.02910580                0.01000786               -0.25346763                0.02413103                0.09696948                0.28735548                0.18899970               -0.01674254
               5.99522988                0.01249192               29.03159478                0.18761547               -0.21093795               -0.02988321                0.09943098                0.31703389                0.10882243               -0.00114832
               6.99492521                0.01397530               29.03241451                1.00000000               -0.03147106               -0.03142520                0.10540290                0.00088492                0.01582468               -0.00467611
               7.99460046                0.01545596               29.03303758                0.99999998               -0.03330031               -0.03316000                0.11094292                0.00085442                0.00798291               -0.00050667
               8.99425920                0.01693331               29.03369665                1.00000000               -0.03495225               -0.03482035                0.11650328                0.00084423                0.00790037                0.00094811
               9.99390142                0.01840868               29.03431674                1.00000000               -0.03577898               -0.03653806                0.12206691                0.00099388                0.00590193                0.00535992
               0.00254667                1.00223065               29.02410609                1.00000000               -0.02475068               -0.02410468                0.08053231               -0.00012032                0.00140909                0.00447904
               1.00229916                1.00090574               29.02414035                0.01000000               -0.02532246               -0.02536509                0.08444050                0.00001774                0.00349725               -0.00322320
               2.00204022                0.99957794               29.02421498                0.01000000               -0.08954935               -0.04309176                0.08834897               -0.00468420                0.07652037                0.04542551
               3.00050817                0.99908818               29.02571325                0.01000001               -0.16958867               -0.01055024                0.09282902                0.08357931                0.12759421                0.01570071
               3.99864845                1.00077266               29.02705849                0.01000000               -0.21936821                0.00078722                0.09544427                0.23495038                0.11720442               -0.00041187
               4.99612081                1.00492448               29.02862476                0.01000000               -0.24471458               -0.00857909                0.09745733                0.45711040                0.14246755               -0.01129012
               5.99375415                1.01219309               29.03081657                0.01000001               -0.13343840               -0.18147538                0.09857725                0.42159602                0.08506273               -0.03658629
               6.99345204                1.01366105               29.03155250                0.99999999               -0.03120755               -0.03129609                0.10452063                0.00010972                0.00661533               -0.00454725
               7.99313000                1.01512436               29.03216929                0.99997495               -0.03303787               -0.03303020                0.11009760                0.00000763                0.00122900               -0.00039580
               8.99279128                1.01658510               29.03279457                0.99999999               -0.03470113               -0.03469981                0.11566572               -0.00000750                0.00118016                0.00065418
               9.99243598                1.01804330               29.03340997                1.00000000               -0.03553042               -0.03640053                0.12120893                0.00010863                0.00058892                0.00663822
               0.00387667                2.00199102               29.02399862                0.01000000               -0.02446793               -0.03147274                0.07964459               -0.02091596                0.00190610                0.08068635
               1.00363199                2.00065309               29.02398467                0.01000000               -0.07178843               -0.07057300                0.08355258               -0.03553244                0.05779601                0.07579359
               2.00244091                1.99898293               29.02508846                0.01000001               -0.12546419               -0.07794348                0.09102742                0.02618426                0.09035394                0.07848734
               3.00112271                1.99896362               29.02588915                0.01000000               -0.16394811               -0.04954630                0.09466421                0.22001452                0.07907462                0.03231668
               3.99916194                2.00071423               29.02693162                0.01000000               -0.21284820               -0.04053069                0.09735857                0.42246847                0.08711069                0.01119297
               4.99686575                2.00451159               29.02813722                0.01000001               -0.21183556               -0.08671693                0.09947593                0.58083554                0.08038019               -0.00180500
               5.99492523                2.00886241               29.02932096                0.01000000               -0.24348048               -0.24804095                0.10207368                0.62120897                0.07800206               -0.03864220
               6.99199614                2.01334938               29.03068823                0.01000000               -0.16243351               -0.14639781                0.10364607                0.37286880                0.03340750               -0.00660301
               7.99167656                2.01479535               29.03130071                0.09651211               -0.03280132               -0.03277691                0.10926161                0.00047917               -0.00557267                0.00246281
               8.99134011                2.01623931               29.03188651                0.99999997               -0.03446832               -0.03442327                0.11487391               -0.00000090               -0.00400681               -0.00158424
               9.99098720                2.01768067               29.03253147                1.00000000               -0.03529156               -0.03615746                0.12033359                0.00012503               -0.00120035                0.00656563
               0.00480422                3.00160120               29.02540497                0.01000000               -0.02076187               -0.02833375                0.08759213               -0.00375380                0.01072156                0.15786010
               1.00459660                2.99949428               29.02544982                0.01000001               -0.02754217               -0.14340719                0.09127097                0.03877901                0.02010517                0.13534302
               2.00425338                2.99801907               29.02570019                0.01000000               -0.07097179               -0.13823608                0.09478593                0.19752508                0.04307756                0.06917205
               3.00317716                2.99809726               29.02623431                0.01000000               -0.13517674               -0.11917002                0.09800309                0.38602705                0.06028545                0.04052228
               4.00154984                2.99996204               29.02694926                0.01000000               -0.17939101               -0.10963172                0.10048048                0.56572792                0.06875193                0.02446399
               4.99958934                3.00319014               29.02783586                0.01000000               -0.21046493               -0.14403960                0.10276400                0.69820692                0.07231862                0.01973582
               5.99734054                3.00723227               29.02883971                0.01000001               -0.23064326               -0.17970064                0.10438576                0.71398163                0.06316434                0.02732680
               6.99497648                3.01073310               29.02978108                0.01000001               -0.35454415               -0.21843885                0.10991182                0.74653059                0.03994826                0.02370050
               7.99024966                3.01446882               29.03048839                0.01000002               -0.25352650               -0.16291158                0.12484775                0.60526913               -0.00885892                0.04970696
               8.98990595                3.01589664               29.03094071                0.01000000               -0.03469475               -0.19114948                0.11412716                0.46057300               -0.01319189                0.05914922
               9.98955576                3.01732015               29.03162684                0.49144137               -0.03501853               -0.40607819                0.11946148                0.53530931               -0.00172303                0.04674311
               0.00801542                4.00142435               29.02681911                0.01000003               -0.00257254               -0.05503256                0.09501906                0.09998026               -0.00238677                0.16650682
               1.00798970                3.99778494               29.02655547                0.01000000               -0.01134966               -0.20531654                0.09766681                0.21655942                0.00641588                0.11142868
               2.00778843                3.99621821               29.02645192                0.01000000               -0.05447090               -0.19950739                0.09995013                0.40153705                0.02810918                0.06668193
               3.00690028                3.99658022               29.02663385                0.01000000               -0.12024078               -0.17118894                0.10214461                0.55244341                0.05333475                0.03780620
               4.00538362                3.99852160               29.02713022                0.01000000               -0.16703110               -0.16303118                0.10438424                0.68600185                0.07396473                0.03245236
               5.00355966                4.00163080               29.02789161                0.01000001               -0.18608518               -0.17063391                0.10664848                0.77315101                0.08549103                0.04344170
               6.00166191                4.00526840               29.02881494                0.01000001               -0.19347295               -0.20074500                0.10921846                0.82344412                0.08582266                0.06342942
               6.99969020                4.00898061               29.02977466                0.01001168               -0.15217547               -0.22086488                0.11342930                0.81882591                0.07269684                0.09064462
               7.99861840                4.01153712               29.03062580                0.01000000               -0.09949812               -0.30133009                0.11804559                0.87512054                0.05144048                0.11477728
               8.99770024                4.01241632               29.03125032                0.01000000                0.01139769               -0.35354717                0.12183007                0.62754325                0.02138127                0.13245329
               9.99884636                4.00955911               29.03155601                0.01000004                0.11461188               -0.55928631                0.12389817                0.47455139                0.01451870                0.08910998
               0.01408263                5.00050055               29.02833787                0.01000000                0.00512911               -0.24986314                0.10301127                0.29937704               -0.00537094                0.19103798
               1.01413392                4.99538795               29.02768024                0.01000000               -0.02968937               -0.22391996                0.10440064                0.47124629                0.00336784                0.11420534
               2.01348884                4.99402892               29.02717051                0.01000001               -0.11056387               -0.19490263                0.10531719                0.56741741                0.02657930                0.04619287
               3.01192264                4.99467348               29.02705066                0.01000000               -0.16347749               -0.20392323                0.10645628                0.67644606                0.06170228                0.02676731
               4.01021929                4.99670142               29.02742845                0.01000001               -0.18085396               -0.18637655                0.10837253                0.75712590                0.09664832                0.03219348
               5.00830557                4.99977747               29.02820184                0.01000001               -0.18798384               -0.18352561                0.11093245                0.80291688                0.11948986                0.05601052
               6.00645962                5.00321737               29.02924093                0.01000380               -0.16106446               -0.20274283                0.11419150                0.78599800                0.12846936                0.09259615
               7.00508428                5.00631580               29.03037944                0.01000000               -0.10716315               -0.25763184                0.11745854                0.73382663                0.12309273                0.13368906
               8.00431635                5.00844222               29.03143086                0.01000001               -0.03247243               -0.30297587                0.12081706                0.61088092                0.10053649                0.17063113
               9.00443483                5.00882569               29.03216340                0.01000000                0.02224338               -0.32371897                0.12557867                0.41325156                0.05996481                0.18720520
              10.00476122                5.00613442               29.03234615                0.01000000                0.03263941               -0.23603350                0.12982231                0.20231509                0.03675103                0.16228655
               0.02422815                5.99642708               29.03029121                0.48986481               -0.03419052               -0.22000969                0.11229316                0.35134013               -0.00318291                0.11470961
               1.02388625                5.99330654               29.02905537                0.01000001               -0.21884496               -0.12106856                0.11376805                0.43853557               -0.00931460                0.06612962
               2.01985125                5.99232016               29.02769550                0.01000000               -0.30647693               -0.21029963                0.10928345                0.61884331                0.01157972                0.01807693
               3.01775671                5.99250175               29.02738021                0.01000001               -0.22145523               -0.21516069                0.10953917                0.68280348                0.08493846                0.00681711
               4.01542215                5.99479407               29.02775304                0.01000001               -0.23273302               -0.19135429                0.11157881                0.79511424                0.13315988                0.02079202
               5.01310205                5.99796029               29.02867203                0.01000532               -0.22893041               -0.15358274                0.11470472                0.76971461                0.16793313                0.05901921
               6.01084354                6.00121354               29.02999011                0.01000000               -0.19800807               -0.16837794                0.11880158                0.67211660                0.18631083                0.10899893
               7.00914189                6.00382797               29.03150032                0.01000000               -0.12587070               -0.21798579                0.12322830                0.52912721                0.18482095                0.16841489
               8.00832613                6.00547760               29.03293690                0.01000000               -0.04344127               -0.27071708                0.12803631                0.38031084                0.15741464                0.22752084
               9.00827306                6.00594194               29.03394343                0.01002708               -0.00254631               -0.25951590                0.13228976                0.20886156                0.09602511                0.27001749
              10.00827520                6.00483844               29.03410799                0.01000001                0.00021388               -0.08610150                0.13585027                0.10062396                0.05677800                0.26770284
               0.02735051                6.99610035               29.03076626                0.99999999               -0.03389565               -0.03277414                0.11205986               -0.00059821               -0.00778446                0.03036948
               1.02701156                6.99296658               29.02936796                1.00000000               -0.03400054               -0.03372847                0.11294696               -0.00048721               -0.00858497                0.00793591
               2.02667050                6.98982293               29.02795234                0.01000000               -0.19533761               -0.14179618                0.11402772                0.36865497                0.04098845               -0.00801885
               3.02310480                6.99037027               29.02754710                0.01000001               -0.30037299               -0.30925114                0.11145749                0.73788540                0.11160994               -0.04807869
               4.02066304                6.99287433               29.02796127                0.01001676               -0.29122103               -0.13411009                0.11103294                0.79153142                0.17861537                0.00345807
               5.01728038                6.99670581               29.02919282                0.01000000               -0.33143882               -0.07994008                0.11777452                0.70387621                0.22804449                0.05396735
               6.01403427                6.99984981               29.03092846                0.01000000               -0.29388120               -0.08133075                0.12319832                0.50479568                0.25647447                0.11246373
               7.01140276                7.00195608               29.03304574                0.01000000               -0.21128343               -0.12965871                0.12924589                0.28741306                0.26490844                0.18629934
               8.00980860                7.00302787               29.03518917                0.01000001               -0.10757675               -0.20162768                0.13555730                0.09416933                0.23475332                0.29512338
               9.00925123                7.00363538               29.03681998                0.01000002               -0.04139428               -0.21997873                0.14124687               -0.00216223                0.14474473                0.38430221
              10.00898071                7.00441239               29.03716058                0.01000001               -0.02705129               -0.05025228                0.14512858               -0.02512094                0.08176369                0.43867067
               0.03048373                7.99577160               29.03102651                1.00000000               -0.03298060               -0.03252055                0.10906560               -0.00028403               -0.00090880                0.02197766
               1.03015392                7.99263197               29.02957801                1.00000000               -0.03315306               -0.03309090                0.11041543                0.00014100               -0.00066927                0.00315341
               2.02982067                7.98948424               29.02813389                0.07803539               -0.03454540               -0.03352428                0.11169311               -0.00050264                0.00914539               -0.01574956
               3.02946301                7.98631673               29.02688426                0.01000002               -0.24517180               -0.21888459                0.08122879                0.60839698                0.13804784               -0.08249296
               4.02491723                7.99211187               29.02806392                0.01000000               -0.46294595               -0.04361817                0.11426465                0.82593973                0.25679552               -0.00772925
               5.02020409                7.99636149               29.02965361                0.01000001               -0.46140247                0.03152723                0.11914334                0.56382608                0.28566140                0.04372127
               6.01568918                7.99958693               29.03186516                0.01000000               -0.42460061                0.02861948                0.12671749                0.32828528                0.32709765                0.09809925
               7.01171208                8.00123480               29.03471078                0.01000001               -0.35794813               -0.00393327                0.13459533                0.06552328                0.37832019                0.17187699
               8.00853022                8.00144505               29.03830954                0.01000002               -0.24333934               -0.06787266                0.14413007               -0.18798587                0.36453556                0.30024676
               9.00684530                8.00154237               29.04114569                0.01000000               -0.11557364               -0.15783598                0.15279076               -0.34866710                0.24329350                0.65410912
              10.00621875                8.00383339               29.04241267                0.01000000               -0.06265503               -0.22327001                0.15866419               -0.25131500                0.16549358                0.63982853
               0.03362409                8.99544994               29.03133129                1.00000000               -0.03223447               -0.03188098                0.10669765               -0.00029736                0.00240641                0.01929979
               1.03330174                8.99230476               29.02979549                0.99999998               -0.03241950               -0.03238258                0.10804886                0.00009619                0.00139128                0.00223136
               2.03297570                8.98915245               29.02823982                0.99999999               -0.03283139               -0.03282977                0.10947131                0.00007616               -0.00489223               -0.01154505
               3.03264511                8.98599257               29.02658178                0.01000001               -0.29193078               -0.03267830                0.11095268                0.45989385                0.14818087               -0.03826644
               4.02713708                8.99200197               29.02809394                0.01000000               -0.57816339                0.11112653                0.11178047                0.59090421                0.29907285               -0.01018070
               5.02108185                8.99733636               29.02996133                0.01000000               -0.57052091                0.12672329                0.12015894                0.36181197                0.32247722                0.02745045
               6.01572666                9.00042220               29.03251889                0.01000002               -0.51133705                0.10984649                0.12862483                0.15761494                0.38028116                0.06055910
               7.01085510                9.00187742               29.03603216                0.01000002               -0.49926770                0.09329908                0.13848715               -0.02369458                0.47065079                0.10791017
               8.00574131                9.00167042               29.04083794                0.01000003               -0.54827815                0.09600968                0.15098994               -0.22498230                0.71366327                0.20613965
               8.99988954                9.00047866               29.04966077                0.99999998               -0.31844711               -0.07905933                0.17161899               -0.40706713                0.44534604                0.42750628
               9.99937237                8.99994699               29.04957037                1.00000000               -0.05171757               -0.22048735                0.17337829               -0.36891753               -0.00035900                0.35895872
               0.03676814                9.99513398               29.03153638                1.00000000               -0.03147953               -0.03159592                0.10431658               -0.00056088                0.01340637                0.01435293
               1.03645334                9.99198432               29.02998854                1.00000000               -0.03168785               -0.03204402                0.10567552               -0.00015710                0.01680261                0.00089081
               2.03613438                9.98882764               29.02851001                0.99999999               -0.03209866               -0.03248046                0.10710896               -0.00018978                0.01676943               -0.00360118
               3.03581137                9.98566316               29.02696591                0.15030443               -0.53714228               -0.03294121                0.10849060                0.59196319                0.14732139               -0.00436606
               4.02539153                9.99433440               29.02810585                0.01000000               -0.83956311                0.23324284                0.11230066                0.48708468                0.27111763                0.00026255
               5.01902010                9.99889595               29.02997287                0.01000000               -0.55455574                0.15595948                0.11880898                0.16629887                0.31760948                0.02114201
               6.01430042               10.00178386               29.03259880                0.01000001               -0.45150678                0.13616584                0.12852179                0.06761687                0.39114306                0.03921395
               7.00998997               10.00310078               29.03634030                0.01000657               -0.44355425                0.12233586                0.13958122               -0.00744430                0.52760154                0.06428371
               8.00542933               10.00336524               29.04205859                0.01000002               -0.47812945                0.16948217                0.15449970               -0.18817731                0.69985976                0.14993030
               9.00042738                9.99996118               29.04963211                1.00000000               -0.27628061               -0.05174765                0.17356444               -0.14329613                0.38349157                0.00029528
               9.99990372                9.99942364               29.04954169                1.00000000               -0.05236593               -0.05233508                0.17532372               -0.00061825                0.00033714               -0.00033690
               0.00113900                0.00263086               30.02503024                1.00000000               -0.02489596               -0.02401052                0.08055202                0.00062893               -0.00335975                0.00390222
               1.00089004                0.00126920               30.02511054                1.00000000               -0.02559448               -0.02548379                0.08528070                0.00073490               -0.00361505               -0.00127716
               2.00062711               -0.00009465               30.02518299                0.01000000               -0.01963177               -0.02695717                0.09000925                0.03306295                0.06265367               -0.00156344
               3.00049741               -0.00081419               30.02659074                0.01000003               -0.02719773               -0.00488307                0.09315767                0.02902100                0.13216807                0.00673450
               4.00008316                0.00079944               30.02816965                0.01000000               -0.08404298                0.01185448                0.09448235                0.11666955                0.15007352               -0.00550904
               4.99881655                0.00500240               30.03007190                0.01000001               -0.27236501                0.03014343                0.09568165                0.30515438                0.18567812               -0.01547973
               5.99463586                0.01326271               30.03258143                0.17910261               -0.22411302               -0.02943767                0.09795861                0.33732905                0.10721805               -0.00114811
               6.99433429                0.01479475               30.03346423                1.00000000               -0.03122208               -0.03118630                0.10455525                0.00100273                0.01607872               -0.00471645
               7.99401142                0.01632335               30.03414469                0.99999998               -0.03317590               -0.03301931                0.11051318                0.00091916                0.00795941               -0.00049582
               8.99367077                0.01784902               30.03486141                1.00000000               -0.03494891               -0.03480421                0.11647538                0.00091071                0.00788993                0.00095430
               9.99331244                0.01937308               30.03553919                1.00000000               -0.03583311               -0.03668106                0.12244366                0.00103724                0.00588782                0.00531165
               0.00250695                1.00239076               30.02490817                1.00000000               -0.02468066               -0.02389909                0.07988538               -0.00008205                0.00140927                0.00447948
               1.00226015                1.00101436               30.02498562                0.01000000               -0.02537582               -0.02542378                0.08461391                0.00002382                0.00349775               -0.00322325
               2.00199944                0.99963578               30.02510344                0.01000000               -0.09597851               -0.04372298                0.08934277               -0.00661653                0.07647105                0.04704581
               3.00034058                0.99913698               30.02664389                0.01000001               -0.18289384               -0.00764557                0.09332545                0.08778975                0.12669194                0.01766756
               3.99834156                1.00091798               30.02801147                0.01000000               -0.23520590                0.00444391                0.09500019                0.24848637                0.11442790                0.00185321
               4.99563646                1.00530384               30.02959548                0.01000000               -0.26142933               -0.00538773                0.09645134                0.48419540                0.13858935               -0.00876362
               5.99311297                1.01296833               30.03179545                0.01000001               -0.14112318               -0.18962446                0.09721866                0.44726799                0.08281924               -0.03433696
               6.99281399                1.01448289               30.03259412                0.99999999               -0.03097478               -0.03107090                0.10380900                0.00015665                0.00686505               -0.00459559
               7.99249348                1.01599315               30.03326883                0.99998282               -0.03294920               -0.03293076                0.10976282                0.00003703                0.00124928               -0.00038556
               8.99215501                1.01750097               30.03395180                0.99999999               -0.03473647               -0.03471064                0.11575015               -0.00002814                0.00118614                0.00069641
               9.99179875                1.01900627               30.03462459                1.00000000               -0.03562625               -0.03656877                0.12173066                0.00004431                0.00058447                0.00655332
               0.00389015                2.00215288               30.02479294                0.01000000               -0.02446543               -0.03069356                0.07921871               -0.02209136                0.00190629                0.08505937
               1.00364549                2.00076073               30.02482217                0.01000000               -0.07589928               -0.07228628                0.08394686               -0.03751205                0.05941720                0.07996673
               2.00237216                1.99903090               30.02600156                0.01000001               -0.13372457               -0.07998549                0.09160842                0.02728658                0.09166278                0.08252717
               3.00097100                1.99903290               30.02683815                0.01000000               -0.17430654               -0.04993630                0.09505419                0.23261123                0.07770170                0.03595871
               3.99888603                2.00088832               30.02790545                0.01000000               -0.22604465               -0.04008379                0.09725433                0.44674257                0.08484349                0.01527059
               4.99645011                2.00489465               30.02912980                0.01000001               -0.22419341               -0.08923612                0.09920927                0.61435105                0.07753115                0.00242855
               5.99440216                2.00947022               30.03033734                0.01000000               -0.25687569               -0.26016342                0.10142847                0.65637429                0.07404435               -0.03522426
               6.99131260                2.01417334               30.03172188                0.01000000               -0.17040446               -0.15193876                0.10301697                0.39583383                0.03137623               -0.00347184
               7.99099408                2.01566473               30.03239294                0.10094136               -0.03277521               -0.03603775                0.10920018                0.00394044               -0.00551616                0.01556456
               8.99065709                2.01715480               30.03303707                0.99999997               -0.03456694               -0.03452499                0.11521367               -0.00000787               -0.00396518               -0.00141687
               9.99030274                2.01864170               30.03373794                1.00000000               -0.03543560               -0.03635100                0.12094963                0.00001525               -0.00121663                0.00641015
               0.00484944                3.00177689               30.02627897                0.01000000               -0.02175436               -0.02600302                0.08717986               -0.00331846                0.01094259                0.16692335
               1.00463189                2.99956864               30.02636301                0.01000001               -0.02882216               -0.14842192                0.09132154                0.04178059                0.02003884                0.14338078
               2.00427299                2.99803607               30.02665005                0.01000000               -0.07482559               -0.14360903                0.09514025                0.21056894                0.04258790                0.07471433
               3.00313538                2.99813826               30.02721643                0.01000000               -0.14291631               -0.12362362                0.09834193                0.40928136                0.05904007                0.04567647
               4.00141467                3.00011631               30.02795536                0.01000000               -0.18969004               -0.11352587                0.10080656                0.59841414                0.06668066                0.02966228
               4.99934158                3.00351911               30.02886485                0.01000000               -0.22264471               -0.15004916                0.10300458                0.73729240                0.06865146                0.02503167
               5.99696177                3.00776506               30.02987415                0.01000001               -0.24027113               -0.18784278                0.10475199                0.75354342                0.05877168                0.03260352
               6.99453616                3.01144412               30.03087032                0.01000001               -0.36854760               -0.22850641                0.10197515                0.78355589                0.04130888                0.02952387
               7.98959082                3.01527240               30.03183433                0.01000002               -0.26791376               -0.17302150                0.15994005                0.63638820               -0.03030442                0.06901004
               8.98917788                3.01681047               30.03208524                0.01000000               -0.03827834               -0.20074577                0.11483732                0.48839705               -0.02596779                0.06393352
               9.98882525                3.01827925               30.03282520                0.51643904               -0.03526285               -0.42711731                0.12010321                0.56484543               -0.00164042                0.04910648
               0.00824028                4.00163282               30.02776711                0.01000003               -0.00183556               -0.05451360                0.09451617                0.10722727               -0.00271518                0.17602399
               1.00822192                3.99779229               30.02753203                0.01000000               -0.01131761               -0.21393299                0.09756495                0.23166452                0.00575074                0.11941374
               2.00801392                3.99615871               30.02745270                0.01000000               -0.05727616               -0.20780933                0.10013835                0.42755978                0.02698323                0.07338008
               3.00707640                3.99656043               30.02765758                0.01000000               -0.12702325               -0.17782491                0.10249630                0.58592483                0.05181778                0.04364037
               4.00547346                3.99861780               30.02817602                0.01000000               -0.17645959               -0.16951762                0.10480726                0.72549563                0.07198095                0.03837404
               5.00354720                4.00189366               30.02895960                0.01000001               -0.19627133               -0.17790808                0.10719850                0.81626226                0.08277940                0.04954820
               6.00154803                4.00571336               30.02990560                0.01000001               -0.20354142               -0.20977896                0.10923790                0.86894241                0.08267642                0.07100168
               6.99947638                4.00960321               30.03091024                0.01000444               -0.15962751               -0.23217911                0.11415567                0.85761859                0.06833725                0.09975433
               7.99835548                4.01220430               30.03180186                0.01000000               -0.10290965               -0.31305556                0.11015594                0.91775211                0.05169517                0.11692007
               8.99741818                4.01313989               30.03247796                0.01000000                0.01533075               -0.37253365                0.12164717                0.66375856                0.02065088                0.14054034
               9.99866210                4.01009936               30.03279806                0.01000000                0.12439131               -0.58968260                0.12458534                0.50110576                0.01206707                0.09541205
               0.01467505                5.00068661               30.02936544                0.01000000                0.00642426               -0.26305063                0.10238276                0.31956265               -0.00627072                0.20183379
               1.01473929                4.99528998               30.02872382                0.01000000               -0.03095001               -0.23282925                0.10420302                0.50277511                0.00207387                0.12403097
               2.01405605                4.99387989               30.02822454                0.01000001               -0.11722479               -0.20181627                0.10543048                0.60370227                0.02475008                0.05273785
               3.01239479                4.99458176               30.02811431                0.01000000               -0.17323510               -0.21129531                0.10663943                0.71674791                0.06003894                0.03304500
               4.01059134                4.99672595               30.02851455                0.01000001               -0.19117650               -0.19317482                0.10884474                0.79965548                0.09524169                0.03799706
               5.00857126                4.99996095               30.02931344                0.01000001               -0.19801332               -0.19123334                0.11155009                0.84689830                0.11794939                0.06245044
               6.00663108                5.00356948               30.03038596                0.01001818               -0.16868372               -0.21191959                0.11488883                0.82793109                0.12658316                0.10003331
               7.00519759                5.00680053               30.03155442                0.01000000               -0.11109475               -0.27076660                0.11782150                0.77300072                0.12122481                0.14131085
               8.00440918                5.00901129               30.03263335                0.01000001               -0.03197957               -0.31625916                0.12186273                0.64313276                0.10000662                0.17963495
               9.00455800                5.00935980               30.03342005                0.01000000                0.02596236               -0.34095585                0.12607662                0.43438878                0.06148954                0.19451498
              10.00492843                5.00648560               30.03364964                0.01000003                0.03704326               -0.24920142                0.13100487                0.21257612                0.03799579                0.16917604
               0.02542480                5.99637181               30.03141084                0.45955803               -0.03406495               -0.23189354                0.11143277                0.37582808               -0.00318841                0.12150021
               1.02508415                5.99313570               30.03019217                0.01000001               -0.23143059               -0.12465962                0.11339719                0.46685952               -0.01219399                0.07267468
               2.02079619                5.99212239               30.02878969                0.01000000               -0.32594317               -0.21720851                0.10954704                0.65635723                0.00790984                0.02469490
               3.01856529                5.99233452               30.02848542                0.01000001               -0.23544072               -0.21994075                0.11035146                0.72181511                0.08332830                0.00996739
               4.01608737                5.99475430               30.02886796                0.01000001               -0.24618214               -0.19802554                0.11201326                0.83790430                0.13188156                0.02544693
               5.01364164                5.99806900               30.02982338                0.01000001               -0.24101505               -0.15945392                0.11562237                0.81014201                0.16788443                0.06491483
               6.01126707                6.00147497               30.03118242                0.01000000               -0.20735295               -0.17609587                0.11980912                0.70698637                0.18621025                0.11580674
               7.00949459                6.00418788               30.03273673                0.01000000               -0.13041016               -0.22901866                0.12438136                0.55543175                0.18517689                0.17612332
               8.00865887                6.00587912               30.03422354                0.01000000               -0.04314676               -0.28585202                0.12930603                0.39873767                0.15804244                0.23649299
               9.00863165                6.00632077               30.03527101                0.01000500                0.00015794               -0.27426397                0.13378754                0.21879882                0.09646224                0.27898073
              10.00866203                6.00511533               30.03547279                0.01000000                0.00303786               -0.09185757                0.13767257                0.10529915                0.05727496                0.27637297
               0.02866382                6.99604874               30.03188447                0.99999999               -0.03379195               -0.03251732                0.11145699               -0.00062316               -0.00832500                0.03120477
               1.02832590                6.99279679               30.03049759                1.00000000               -0.03397240               -0.03367755                0.11286582               -0.00051656               -0.00895763                0.00867971
               2.02798437                6.98953572               30.02909524                0.01000000               -0.20633582               -0.14635065                0.11445416                0.39212235                0.03679363               -0.00437829
               3.02419918                6.99018294               30.02862368                0.01000001               -0.31847069               -0.32121722                0.10970359                0.77797129                0.10804024               -0.04992375
               4.02161496                6.99276544               30.02908575                0.01000824               -0.30728726               -0.13782623                0.11335471                0.82795502                0.18112271                0.00566148
               5.01805344                6.99677187               30.03037296                0.01000000               -0.34815141               -0.08217073                0.11875474                0.73926694                0.22955174                0.05958557
               6.01465193                7.00004756               30.03216687                0.01000000               -0.30756810               -0.08462558                0.12444187                0.52976795                0.25853777                0.11822777
               7.01190207                7.00222016               30.03434444                0.01000000               -0.22004429               -0.13615956                0.13057032                0.30048587                0.26734735                0.19317973
               8.01025104                7.00329425               30.03655101                0.01000001               -0.11021559               -0.21286651                0.13699990                0.09694223                0.23719335                0.30325021
               9.00969776                7.00387452               30.03824138                0.01000002               -0.04028726               -0.23317941                0.14288906               -0.00325682                0.14683945                0.39395105
              10.00944530                7.00464844               30.03862783                0.01000000               -0.02524662               -0.05482279                0.14740934               -0.02611199                0.08359173                0.44957959
               0.03191625                7.99572146               30.03211553                1.00000000               -0.03294046               -0.03240240                0.10867503               -0.00025490               -0.00094065                0.02178717
               1.03158685                7.99246215               30.03068303                1.00000000               -0.03318872               -0.03312449                0.11053280                0.00014088               -0.00069920                0.00315712
               2.03125248                7.98919538               30.02925419                0.08538828               -0.03459307               -0.03371812                0.11232094               -0.00046521                0.00216043               -0.01557605
               3.03089499                7.98591018               30.02788080                0.01000002               -0.25974666               -0.23006996                0.10455174                0.63982229                0.13835359               -0.08545006
               4.02605754                7.99199778               30.02917912                0.01000000               -0.48750612               -0.04380894                0.11361131                0.86606879                0.26361893               -0.00416440
               5.02114486                7.99642558               30.03085985                0.01000001               -0.48216988                0.03451207                0.12117247                0.59067223                0.29034265                0.04739581
               6.01641415                7.99978246               30.03313708                0.01000000               -0.44436216                0.03109727                0.12800535                0.34350104                0.33126345                0.10266138
               7.01225762                8.00146468               30.03606380                0.01000001               -0.37353961               -0.00376011                0.13603046                0.06638192                0.38388473                0.17735260
               8.00894335                8.00162179               30.03975649                0.01000002               -0.25226520               -0.07197322                0.14531548               -0.20024104                0.37055661                0.30760039
               9.00721232                8.00165718               30.04268177                0.01001583               -0.11757057               -0.16868656                0.15477042               -0.36663539                0.24694387                0.66715584
              10.00659194                8.00401887               30.04400866                0.01000000               -0.06203731               -0.23430605                0.16067893               -0.26357781                0.16842462                0.65223815
               0.03517734                8.99540070               30.03239737                1.00000000               -0.03225372               -0.03181931                0.10650398               -0.00026602                0.00242868                0.01943466
               1.03485480                8.99213430               30.03087759                0.99999998               -0.03251504               -0.03247815                0.10836779                0.00009604                0.00145484                0.00233205
               2.03452704                8.98886135               30.02933867                0.99999999               -0.03307879               -0.03308066                0.11030295                0.00007826               -0.00476441               -0.01137796
               3.03419323                8.98558155               30.02769796                0.01000002               -0.30530551               -0.03312209                0.11229770                0.48064035                0.14824936               -0.03108631
               4.02842093                8.99188926               30.02922585                0.01000000               -0.60555119                0.11696334                0.11485392                0.62081906                0.30101448               -0.00734814
               5.02208220                8.99746212               30.03117166                0.01000000               -0.59690400                0.13400446                0.12203842                0.37882576                0.32810302                0.02909901
               6.01648285                9.00066951               30.03381477                0.01000002               -0.53459095                0.11604445                0.13063636                0.16453674                0.38677850                0.06345123
               7.01139038                9.00214496               30.03742403                0.01000002               -0.52145621                0.09869560                0.13969052               -0.02719489                0.48012552                0.11108411
               8.00605372                9.00185478               30.04235237                0.01000003               -0.57112064                0.10094730                0.15204482               -0.24049222                0.72810228                0.21061722
               8.99996797                9.00050079               30.05137796                0.99999998               -0.33016821               -0.08370550                0.17182122               -0.42964169                0.45463605                0.43565554
               9.99945036                8.99996232               30.05130445                1.00000000               -0.05176107               -0.22898321                0.17343720               -0.38400826               -0.00036244                0.36495183
               0.03844373                9.99508508               30.03257939                1.00000000               -0.03156198               -0.03156204                0.10432333               -0.00060951                0.01349726                0.01447396
               1.03812811                9.99181259               30.03104766                1.00000000               -0.03184679               -0.03217074                0.10619693               -0.00023477                0.01690524                0.00097392
               2.03780679                9.98853376               30.02958599                0.99999999               -0.03241141               -0.03275911                0.10814529               -0.00026695                0.01685538               -0.00352496
               3.03747988                9.98524774               30.02805824                0.18008335               -0.56067198               -0.03338074                0.11004320                0.61882971                0.14870843               -0.00438221
               4.02659335                9.99433704               30.02924178                0.01000000               -0.87693737                0.24477799                0.11486828                0.51013945                0.27487774                0.00277540
               5.01994113                9.99910567               30.03117347                0.01000000               -0.57856577                0.16435568                0.12129834                0.17420834                0.32351648                0.02195592
               6.01502204               10.00210335               30.03389625                0.01000001               -0.47063426                0.14338373                0.13111842                0.07056534                0.39921389                0.04064995
               7.01052845               10.00343860               30.03774351                0.01000001               -0.46221804                0.12936383                0.14052832               -0.00932400                0.54039568                0.06595394
               8.00577768               10.00364073               30.04360623                0.01000002               -0.50082541                0.17859514                0.15538504               -0.20038073                0.71576968                0.15274543
               9.00051194                9.99998307               30.05136746                1.00000000               -0.28944837               -0.05177178                0.17350739               -0.15567915                0.39203298                0.00029630
               9.99998871                9.99943921               30.05129394                1.00000000               -0.05232301               -0.05231150                0.17512333               -0.00055121                0.00033901               -0.00033869
               0.00100145                0.00279528               31.02583142                1.00000000               -0.02475840               -0.02377455                0.07968351                0.00079028               -0.00335979                0.00390266
               1.00075387                0.00138468               31.02596311                1.00000000               -0.02557726               -0.02550302                0.08523310                0.00086402               -0.00361500               -0.00127721
               2.00048991               -0.00002739               31.02608695                0.01000001               -0.02256625               -0.02723165                0.09078261                0.03306206                0.06160162               -0.00156342
               3.00030255               -0.00079700               31.02752505                0.01000308               -0.03351821               -0.00088793                0.09402562                0.02974793                0.12980761                0.00792863
               3.99981955                0.00090468               31.02910902                0.01000000               -0.09283979                0.01692385                0.09209874                0.12275778                0.14858862               -0.00420882
               4.99844575                0.00532641               31.03101944                0.01000001               -0.29188198                0.03648894                0.09458049                0.32309757                0.18349723               -0.01418552
               5.99398191                0.01404091               31.03355395                0.17054370               -0.23811115               -0.02904753                0.09656191                0.35773810                0.10571798               -0.00115873
               6.99368353                0.01562120               31.03450562                1.00000000               -0.03097157               -0.03097024                0.10374976                0.00108549                0.01641155               -0.00471158
               7.99336247                0.01719775               31.03524784                0.99999998               -0.03305118               -0.03293574                0.11010940                0.00100335                0.00792805               -0.00055864
               8.99302250                0.01877160               31.03602616                1.00000000               -0.03494341               -0.03482279                0.11647135                0.00099289                0.00786204                0.00091774
               9.99266361                0.02034411               31.03676561                1.00000000               -0.03588973               -0.03684978                0.12284827                0.00110039                0.00586981                0.00531557
               0.00241996                1.00255754               31.02570379                1.00000000               -0.02461064               -0.02369343                0.07923813               -0.00004372                0.00140946                0.00448006
               1.00217385                1.00112965               31.02583263                0.01000000               -0.02542922               -0.02548250                0.08478747                0.00002989                0.00349813               -0.00322340
               2.00191137                0.99970029               31.02600184                0.01000000               -0.10199300               -0.04428702                0.09033722               -0.00836319                0.07577523                0.04835735
               3.00013399                0.99919412               31.02757976                0.01000001               -0.19629771               -0.00463767                0.09355997                0.09219672                0.12323568                0.01858766
               3.99798542                1.00107392               31.02895849                0.01000000               -0.25126904                0.00855359                0.09282926                0.26223978                0.11351460                0.00445237
               4.99510861                1.00569130               31.03055379                0.01000000               -0.27867610               -0.00178125                0.09600930                0.51076258                0.13532051               -0.00564891
               5.99241190                1.01375044               31.03276094                0.01000001               -0.14963228               -0.19808418                0.09591485                0.47261648                0.08044979               -0.03165100
               6.99211596                1.01531150               31.03362868                0.99997740               -0.03072940               -0.03087254                0.10308459                0.00012462                0.00717628               -0.00465210
               7.99179731                1.01686839               31.03436455                0.99999999               -0.03283557               -0.03283019                0.10945771                0.00002260                0.00122190               -0.00032331
               8.99145925                1.01842337               31.03510957                0.99999999               -0.03476049               -0.03470288                0.11585366                0.00002624                0.00122366                0.00076909
               9.99110210                1.01997561               31.03584459                1.00000000               -0.03571543               -0.03679260                0.12226469                0.00009971                0.00063966                0.00649294
               0.00385635                2.00232141               31.02558300                0.01000000               -0.02446298               -0.02960221                0.07879276               -0.02288629                0.00190653                0.08931519
               1.00361172                2.00087503               31.02566361                0.01000000               -0.07990844               -0.07388098                0.08434162               -0.03910525                0.06072966                0.08383476
               2.00225818                1.99908687               31.02692063                0.01000001               -0.14194312               -0.08190321                0.09215643                0.02877766                0.09299409                0.08565346
               3.00077285                1.99911025               31.02779023                0.01000000               -0.18455084               -0.05013796                0.09480982                0.24537753                0.07718256                0.03927327
               3.99856716                2.00107575               31.02887671                0.01000000               -0.23941864               -0.03945963                0.09727733                0.47150794                0.08286424                0.01966555
               4.99598448                2.00529079               31.03012141                0.01000001               -0.23765582               -0.09151588                0.09923449                0.64692272                0.07494313                0.00740297
               5.99381404                2.01007923               31.03134953                0.01000000               -0.27082086               -0.27171772                0.10148003                0.69057835                0.07028448               -0.02978581
               6.99056806                2.01500375               31.03274857                0.01000000               -0.17814968               -0.15881398                0.10243212                0.40942167                0.02913591               -0.00699375
               7.99025105                2.01654115               31.03348472                0.23622543               -0.03261282               -0.02141466                0.10878867               -0.01474281               -0.00535816                0.05394605
               8.98991581                2.01807754               31.03419078                0.99999997               -0.03449679               -0.03444772                0.11523541                0.00017911               -0.00398801               -0.00109600
               9.98956111                2.01960826               31.03495046                1.00000000               -0.03546926               -0.03667262                0.12170144                0.00011803               -0.00137184                0.00618280
               0.00485499                3.00196549               31.02714857                0.01000000               -0.02286963               -0.02315299                0.08673578               -0.00259906                0.01111806                0.17573611
               1.00462629                2.99965203               31.02727625                0.01000001               -0.03016394               -0.15313136                0.09127353                0.04520728                0.01995104                0.15069228
               2.00425171                2.99806223               31.02760299                0.01000000               -0.07868181               -0.14877699                0.09540364                0.22418518                0.04183196                0.07934601
               3.00305266                2.99819136               31.02820115                0.01000000               -0.15083372               -0.12775510                0.09868369                0.43314794                0.05737289                0.05032671
               4.00123504                3.00028472               31.02896540                0.01000000               -0.20045364               -0.11729273                0.10113382                0.63118385                0.06455570                0.03489581
               4.99904358                3.00386099               31.02989596                0.01000000               -0.23622655               -0.15588058                0.10358508                0.77662725                0.06654656                0.03051406
               5.99651050                3.00831608               31.03093475                0.01000001               -0.26005526               -0.19513022                0.10623410                0.79124922                0.04974491                0.03744844
               6.99384248                3.01213522               31.03182058                0.01000001               -0.40409244               -0.23560784                0.10541200                0.83583193                0.06606206                0.03843404
               7.98842866                3.01644010               31.03368719                0.01000002               -0.27233790               -0.17323235                0.08971541                0.67163678               -0.01389506                0.05759125
               8.98839572                3.01773442               31.03323746                0.01000002               -0.01928176               -0.20926133                0.11465109                0.50016551               -0.06400998                0.06735775
               9.98804302                3.01924216               31.03402891                0.52886964               -0.03526994               -0.44826750                0.12110523                0.59509359               -0.00222772                0.05145737
               0.00843128                4.00185835               31.02870944                0.01000000               -0.00121516               -0.05359998                0.09388703                0.11467881               -0.00301061                0.18509158
               1.00841913                3.99781241               31.02850677                0.01000000               -0.01143644               -0.22217993                0.09729912                0.24714892                0.00507689                0.12683876
               2.00820255                3.99611133               31.02845469                0.01000000               -0.06029074               -0.21577681                0.10016543                0.45421931                0.02571856                0.07941263
               3.00721331                3.99655515               31.02868378                0.01000000               -0.13406685               -0.18424137                0.10272637                0.61996644                0.05024497                0.04893162
               4.00552121                3.99872989               31.02922636                0.01000000               -0.18638238               -0.17576512                0.10526586                0.76539977                0.07031695                0.04366618
               5.00348567                4.00217318               31.03003558                0.01000001               -0.20782081               -0.18491477                0.10800598                0.85981439                0.08063277                0.05508301
               6.00136480                4.00617662               31.03099970                0.01000001               -0.21624909               -0.21874351                0.11064465                0.91791002                0.08097560                0.07718249
               6.99916068                4.01029159               31.03205777                0.01000152               -0.16401071               -0.24098480                0.11121682                0.91593893                0.06092998                0.11143434
               7.99808458                4.01307650               31.03282892                0.01000000               -0.10218148               -0.34134327                0.11287588                0.98114654                0.04721910                0.09725460
               8.99711706                4.01389232               31.03368326                0.01000000                0.01814559               -0.39057369                0.11807095                0.69095103                0.02795072                0.14915774
               9.99844750                4.01064291               31.03404772                0.01000001                0.13304409               -0.61994758                0.12623888                0.52600623                0.01206167                0.10057459
               0.01524046                5.00089349               31.03038552                0.01000001                0.00758406               -0.27601482                0.10152355                0.34001663               -0.00711668                0.21206996
               1.01531630                4.99520844               31.02976430                0.01000000               -0.03235509               -0.24130674                0.10376157                0.53487920                0.00078444                0.13331112
               2.01459336                4.99374669               31.02927912                0.01000001               -0.12414415               -0.20839808                0.10537808                0.64058725                0.02301048                0.05880140
               3.01283342                4.99450654               31.02918345                0.01000000               -0.18341782               -0.21817092                0.10693289                0.75772107                0.05842986                0.03819817
               4.01092500                4.99676942               31.02960535                0.01000001               -0.20201372               -0.19990426                0.10935911                0.84283788                0.09406502                0.04315386
               5.00879314                5.00016269               31.03043285                0.01000001               -0.20873538               -0.19870582                0.11241357                0.89156984                0.11704109                0.06804737
               6.00675029                5.00394121               31.03153871                0.01000931               -0.17658801               -0.22139273                0.11566804                0.87212105                0.12547418                0.10631933
               7.00526138                5.00731552               31.03273587                0.01000000               -0.11497155               -0.28655838                0.11956464                0.81578213                0.11997226                0.14831763
               8.00445086                5.00961323               31.03386811                0.01000001               -0.03065256               -0.33933458                0.12400286                0.67377683                0.09979322                0.19394152
               9.00464833                5.00992294               31.03468493                0.01000000                0.03055468               -0.35960459                0.12791702                0.45329855                0.06129726                0.20236681
              10.00506195                5.00684321               31.03496624                0.01000368                0.04136249               -0.26276004                0.13248927                0.22050840                0.03912107                0.17589217
               0.02660173                5.99633806               31.03251986                0.42938692               -0.03382102               -0.24368712                0.11016688                0.40068786               -0.00320094                0.12803470
               1.02626352                5.99298627               31.03132331                0.01000001               -0.24427653               -0.12795642                0.11263164                0.49553238               -0.01491850                0.07902088
               2.02171620                5.99194336               31.02988644                0.01000000               -0.34592568               -0.22379147                0.10977326                0.69461903                0.00382410                0.03094432
               3.01934500                5.99219173               31.02958724                0.01000001               -0.24971894               -0.22650618                0.11079576                0.76150635                0.08182124                0.01414236
               4.01672182                5.99473181               31.02999331                0.01000001               -0.25998658               -0.20465123                0.11305556                0.88092754                0.13171387                0.02947531
               5.01414527                5.99819906               31.03098448                0.01001068               -0.25337137               -0.16508184                0.11665833                0.85070585                0.16837083                0.07013123
               6.01165439                6.00174877               31.03238630                0.01000000               -0.21704833               -0.18407523                0.12106966                0.74223059                0.18732440                0.12132525
               7.00980431                6.00456042               31.03398794                0.01000001               -0.13508465               -0.24114556                0.12597158                0.58226135                0.18618384                0.18337771
               8.00895270                6.00628981               31.03552302                0.01000000               -0.04256274               -0.30266551                0.13102313                0.41722298                0.15885136                0.24387609
               9.00895305                6.00670022               31.03661918                0.01000001                0.00322161               -0.29096521                0.13583654                0.22803828                0.09696949                0.28699892
              10.00901713                6.00538771               31.03686144                0.01000000                0.00640793               -0.09875427                0.14022764                0.10963383                0.05758153                0.28339222
               0.02995779                6.99601975               31.03299540                0.99999999               -0.03361460               -0.03218051                0.11060939               -0.00063486               -0.00884030                0.03208137
               1.02962164                6.99264931               31.03162528                1.00000000               -0.03387524               -0.03355796                0.11256492               -0.00055649               -0.00931485                0.00948353
               2.02928028                6.98927086               31.03024142                0.01000000               -0.21732711               -0.15070403                0.11468478                0.41385099                0.03422753               -0.00082219
               3.02527510                6.98997641               31.02974117                0.01000001               -0.33720315               -0.33291409                0.11305025                0.81828443                0.10567010               -0.05061048
               4.02253622                6.99267640               31.03022836                0.01000291               -0.32423997               -0.14216654                0.11577812                0.86866906                0.18216074                0.00885783
               5.01879030                6.99686105               31.03156791                0.01000000               -0.36513374               -0.08441813                0.12032709                0.77455164                0.23171378                0.06393963
               6.01523354                7.00025971               31.03341730                0.01000001               -0.32123642               -0.08782602                0.12573566                0.55438301                0.26102473                0.12341834
               7.01236557                7.00249261               31.03565714                0.01000000               -0.22890116               -0.14290826                0.13202772                0.31331367                0.27030309                0.19957046
               8.01065552                7.00355992               31.03792917                0.01000002               -0.11271877               -0.22470592                0.13858750                0.09908583                0.23985038                0.31114910
               9.01011119                7.00410364               31.03967776                0.01000002               -0.03879305               -0.24756572                0.14471289               -0.00564193                0.14838141                0.40359782
              10.00987966                7.00486813               31.04010877                0.01000000               -0.02315353               -0.05930899                0.14907272               -0.02773463                0.08511794                0.45889747
               0.03332992                7.99569445               31.03320001                1.00000000               -0.03286377               -0.03224849                0.10815681               -0.00021180               -0.00097342                0.02159588
               1.03300128                7.99231511               31.03178867                1.00000000               -0.03319021               -0.03312649                0.11053953                0.00013673               -0.00073047                0.00316032
               2.03266611                7.98892928               31.03038031                0.09178072               -0.03480615               -0.03388849                0.11285591               -0.00009553               -0.00047777               -0.01539695
               3.03230516                7.98553345               31.02897530                0.01000002               -0.27277770               -0.23915047                0.11360764                0.67035085                0.13772839               -0.08303665
               4.02721056                7.99188848               31.03033615                0.01000000               -0.51260811               -0.04420223                0.11741141                0.90623513                0.26915986               -0.00190803
               5.02205299                7.99651070               31.03207706                0.01000001               -0.50500310                0.03718299                0.12305333                0.61842266                0.29400252                0.05068685
               6.01711050                7.99999225               31.03442527                0.01000000               -0.46413155                0.03361734                0.12951521                0.35839407                0.33603054                0.10699605
               7.01277036                8.00170226               31.03743139                0.01000001               -0.38935559               -0.00366075                0.13745470                0.06789434                0.38954243                0.18239435
               8.00932338                8.00179569               31.04121585                0.01000002               -0.26191754               -0.07634485                0.14683685               -0.21297222                0.37725058                0.31495521
               9.00753201                8.00174891               31.04424109                0.01010741               -0.11949596               -0.17987813                0.15545784               -0.38375841                0.25219801                0.67920582
              10.00693346                8.00420153               31.04562625                0.01000000               -0.05985465               -0.24536912                0.16090428               -0.27311427                0.17195664                0.66058175
               0.03671222                8.99537478               31.03346137                1.00000000               -0.03226803               -0.03175118                0.10628417               -0.00021936                0.00244938                0.01955939
               1.03638954                8.99198678               31.03196284                0.99999998               -0.03260909               -0.03257267                0.10867972                0.00009358                0.00151535                0.00243253
               2.03606004                8.98859309               31.03044588                0.99999999               -0.03333094               -0.03333934                0.11114523                0.00007086               -0.00464108               -0.01120806
               3.03572292                8.98519340               31.02882773                0.01000004               -0.31881841               -0.03392465                0.11367275                0.50119268                0.14903417               -0.02825944
               4.02968367                8.99179235               31.03039102                0.01000000               -0.63339695                0.12347834                0.11816782                0.64873058                0.30383401               -0.00556811
               5.02305498                8.99760471               31.03240209                0.01000000               -0.62369013                0.14103754                0.12436462                0.39613377                0.33301049                0.03086762
               6.01720987                9.00093205               31.03513162                0.01007102               -0.55674822                0.12208301                0.13243997                0.17094211                0.39220214                0.06623142
               7.01192002                9.00241939               31.03882597                0.01000002               -0.54302211                0.10393173                0.14088872               -0.02907451                0.48858050                0.11360962
               8.00634942                9.00203303               31.04387884                0.01000004               -0.59449150                0.10583722                0.15324403               -0.25579633                0.74204818                0.21519858
               9.00003019                9.00050608               31.05309720                0.99999998               -0.34186460               -0.08804051                0.17203095               -0.45119845                0.46350101                0.44287627
               9.99951213                8.99996074               31.05303911                1.00000000               -0.05180543               -0.23818244                0.17349345               -0.39832987               -0.00036600                0.37002388
               0.04010153                9.99505942               31.03362285                1.00000000               -0.03166938               -0.03153571                0.10440615               -0.00064480                0.01358230                0.01458729
               1.03978484                9.99166366               31.03211248                1.00000000               -0.03203156               -0.03231183                0.10681389               -0.00031609                0.01700432                0.00105709
               2.03946090                9.98826250               31.03067291                0.99999999               -0.03275470               -0.03305930                0.10929388               -0.00034862                0.01694434               -0.00344713
               3.03912975                9.98485495               31.02916677                0.21057296               -0.58435225               -0.03384495                0.11172844                0.64546017                0.15030742               -0.00440489
               4.02777386                9.99435805               31.03040321                0.01000000               -0.91468907                0.25656938                0.11750164                0.53284378                0.27853479                0.00405887
               5.02083597                9.99933145               31.03239884                0.01000000               -0.60296004                0.17267357                0.12405320                0.18189170                0.32915935                0.02289354
               6.01571466               10.00243391               31.03522117                0.01000001               -0.48740333                0.15018549                0.13320737                0.07295128                0.40482102                0.04238873
               7.01108790               10.00378089               31.03915087                0.01000000               -0.47969417                0.13614979                0.14137924               -0.00928548                0.55094301                0.06652711
               8.00612077               10.00391243               31.04516629                0.01000002               -0.52537860                0.18794068                0.15668846               -0.21250458                0.73084600                0.15556046
               9.00058033                9.99998810               31.05310226                1.00000000               -0.30316198               -0.05179775                0.17345286               -0.16871357                0.40000010                0.00029754
              10.00005753                9.99943788               31.05304416                1.00000000               -0.05227924               -0.05228617                0.17491562               -0.00048150                0.00034076               -0.00034069
               0.00080841                0.00296416               32.02662391                1.00000000               -0.02462068               -0.02353843                0.07881434                0.00095178               -0.00335980                0.00390314
               1.00056221                0.00150462               32.02681521                1.00000000               -0.02555994               -0.02552225                0.08518524                0.00099324               -0.00361488               -0.00127731
               2.00029721                0.00004431               32.02699865                0.01000000               -0.02453554               -0.02750628                0.09155617                0.03357720                0.06034733               -0.00156338
               3.00007149               -0.00076504               32.02847125                0.01000003               -0.03683361                0.00085860                0.09347677                0.02631437                0.14179785                0.00668394
               3.99956054                0.00101631               32.03001162                0.01000000               -0.10149661                0.02230251                0.09151065                0.12847918                0.15128033               -0.00624068
               4.99804156                0.00564999               32.03196351                0.01000001               -0.31482539                0.04388979                0.09605869                0.34034752                0.18111146               -0.01226764
               5.99326403                0.01482555               32.03451267                0.16202451               -0.25364685               -0.02858163                0.09501003                0.37852568                0.10358876               -0.00113782
               6.99296863                0.01645441               32.03553923                1.00000000               -0.03072990               -0.03075062                0.10292632                0.00118958                0.01681020               -0.00472318
               7.99264944                0.01807876               32.03634688                0.99999998               -0.03291918               -0.03289504                0.10966061                0.00106608                0.00787996               -0.00053477
               8.99231024                0.01970056               32.03719083                1.00000000               -0.03492492               -0.03488196                0.11642258                0.00105379                0.00784376                0.00095326
               9.99195094                0.02132144               32.03799616                1.00000000               -0.03593050               -0.03701592                0.12320188                0.00114499                0.00588171                0.00538623
               0.00227747                1.00272878               32.02649294                1.00000000               -0.02454059               -0.02348766                0.07859056               -0.00000530                0.00140961                0.00448073
               1.00203206                1.00124940               32.02668137                0.01000000               -0.02548265               -0.02554128                0.08496118                0.00003600                0.00349851               -0.00322360
               2.00176781                0.99976925               32.02691019                0.01000000               -0.10917121               -0.04507500                0.09133228               -0.00988211                0.07414494                0.04931024
               2.99984864                0.99924355               32.02851509                0.01000001               -0.20649969               -0.00189940                0.08844261                0.09785864                0.14362390                0.02139839
               3.99763782                1.00123934               32.02986805                0.01000000               -0.26541085                0.01292046                0.09358419                0.27484677                0.11583317                0.00895781
               4.99454042                1.00608889               32.03151567                0.01000000               -0.29953706                0.00252758                0.09705551                0.53674936                0.13196333               -0.00254863
               5.99164708                1.01453973               32.03371375                0.01000001               -0.15932535               -0.20624283                0.09453165                0.49873394                0.07713913               -0.02808194
               6.99135391                1.01614690               32.03465581                0.99935631               -0.03050286               -0.03064272                0.10240416                0.00007904                0.00767034               -0.00458688
               7.99103702                1.01774981               32.03545799                0.99986856               -0.03272350               -0.03288789                0.10922935                0.00000475                0.00123827               -0.00044081
               8.99069944                1.01935174               32.03626888                0.99999999               -0.03477586               -0.03477813                0.11600377                0.00014047                0.00119285                0.00068903
               9.99034151                1.02095128               32.03706988                1.00000000               -0.03579380               -0.03701986                0.12277576                0.00020444                0.00060637                0.00667662
               0.00376706                2.00249441               32.02636880                0.01000001               -0.02446061               -0.02818037                0.07836684               -0.02311302                0.00190682                0.09344914
               1.00352245                2.00099380               32.02650900                0.01000000               -0.08308183               -0.07550384                0.08473690               -0.04035831                0.06168352                0.08734369
               2.00210542                1.99914281               32.02784469                0.01000001               -0.14819371               -0.08401564                0.09205626                0.03100503                0.09394365                0.08632084
               3.00055858                1.99919698               32.02873435                0.01000000               -0.19466404               -0.04961533                0.09519706                0.26018532                0.07259578                0.04277359
               3.99821214                2.00127472               32.02985100                0.01000000               -0.25412105               -0.03873847                0.09775435                0.49383575                0.08133956                0.02698155
               4.99547616                2.00570054               32.03111449                0.01000001               -0.25157225               -0.09368307                0.09961523                0.67943530                0.07253440                0.01215933
               5.99318070                2.01070069               32.03236694                0.01000000               -0.28580162               -0.28379370                0.10180064                0.72629883                0.06686478               -0.02296184
               6.98976012                2.01584155               32.03377052                0.01000000               -0.18679995               -0.16216546                0.10202048                0.42356771                0.02602023                0.00013576
               7.98944470                2.01742101               32.03456871                0.24415761               -0.03242686               -0.03348967                0.10839365                0.00112291               -0.00544751               -0.00295305
               8.98911159                2.01900499               32.03534178                0.99999996               -0.03443772               -0.03432941                0.11523912                0.00082787               -0.00388650               -0.00145048
               9.98875594                2.02058104               32.03617197                1.00000000               -0.03556451               -0.03700716                0.12251449                0.00041957               -0.00117620                0.00655470
               0.00481643                3.00216517               32.02801369                0.01000000               -0.02399371               -0.01983542                0.08631858               -0.00166747                0.01121888                0.18427551
               1.00457649                2.99973932               32.02818848                0.01000001               -0.03158455               -0.15763891                0.09114704                0.04897602                0.01992394                0.15706716
               2.00418474                2.99808894               32.02855813                0.01000000               -0.08280287               -0.15359848                0.09559758                0.23788904                0.04063640                0.08332044
               3.00292043                2.99825124               32.02919011                0.01000000               -0.15868820               -0.13201082                0.09904154                0.45633385                0.05558669                0.05468190
               4.00101097                3.00046457               32.02997804                0.01000000               -0.21086376               -0.12117750                0.10142707                0.66399187                0.06230659                0.03955342
               4.99870316                3.00421522               32.03093655                0.01000000               -0.24894654               -0.16210525                0.10418624                0.81548291                0.06508746                0.03585198
               5.99603204                3.00886386               32.03199883                0.01000001               -0.27991024               -0.20238201                0.10648423                0.83265132                0.05329269                0.04319868
               6.99310495                3.01290359               32.03297856                0.01000001               -0.40679999               -0.24624751                0.11575643                0.86608960                0.02052004                0.03911378
               7.98789604                3.01708002               32.03362864                0.01000001               -0.27744929               -0.17262660               -0.00721947                0.69956143               -0.01358301                0.06654638
               8.98755597                3.01866515               32.03437826                0.01000001               -0.03491194               -0.21647093                0.11421455                0.53889607               -0.00754352                0.06788443
               9.98719780                3.02021113               32.03524731                0.55149478               -0.03581641               -0.47037636                0.12235456                0.62552221               -0.00181337                0.05495862
               0.00858540                4.00209770               32.02964485                0.01000000               -0.00071949               -0.05237909                0.09313456                0.12226868               -0.00316264                0.19351929
               1.00857820                3.99784102               32.02947801                0.01000000               -0.01170586               -0.22998317                0.09682196                0.26290186                0.00445602                0.13361908
               2.00835128                3.99607084               32.02945600                0.01000000               -0.06342913               -0.22323857                0.10002143                0.48140527                0.02454417                0.08469700
               3.00730962                3.99655676               32.02971210                0.01000000               -0.14116428               -0.19044903                0.10272926                0.65485284                0.04877693                0.05348667
               4.00552800                3.99885117               32.03028134                0.01000000               -0.19615478               -0.18212411                0.10557150                0.80569756                0.06911261                0.04844766
               5.00338653                4.00245843               32.03111972                0.01000001               -0.21913219               -0.19211120                0.10861088                0.90387211                0.08022782                0.05998872
               6.00114535                4.00665305               32.03211849                0.01000001               -0.22603862               -0.22772954                0.11216032                0.96318301                0.07880287                0.08124230
               6.99886575                4.01091660               32.03313457                0.01000003               -0.17354913               -0.25334401                0.10802294                0.97390491                0.06443492                0.11138888
               7.99767437                4.01396847               32.03405938                0.01000000               -0.10536797               -0.34420004                0.12449082                1.01594606                0.04720257                0.14819899
               8.99675839                4.01467557               32.03483938                0.01000000                0.02500211               -0.40969629                0.11640822                0.71674405                0.02270436                0.15414197
               9.99817441                4.01117351               32.03532284                0.01000000                0.14160183               -0.65107088                0.12834559                0.54731461                0.01644786                0.10576359
               0.01577516                5.00111759               32.03139591                0.01000001                0.00862229               -0.28875385                0.10046913                0.36063171               -0.00785189                0.22149548
               1.01586138                4.99513966               32.03079905                0.01000000               -0.03390297               -0.24929407                0.10303367                0.56737891               -0.00038972                0.14197504
               2.01509710                4.99362417               32.03033210                0.01000001               -0.13121121               -0.21459368                0.10502262                0.67800297                0.02130753                0.06449460
               3.01323716                4.99444226               32.03025297                0.01000000               -0.19369263               -0.22485537                0.10695195                0.79915711                0.05706244                0.04319190
               4.01122325                4.99682209               32.03070173                0.01000001               -0.21292190               -0.20651900                0.10977537                0.88635756                0.09350538                0.04783763
               5.00897872                5.00037300               32.03156171                0.01000001               -0.21928582               -0.20609393                0.11321515                0.93583621                0.11693030                0.07276187
               6.00683753                5.00430927               32.03269932                0.01000303               -0.18555466               -0.23150846                0.11654786                0.91642282                0.12619274                0.11095751
               7.00526763                5.00783671               32.03394572                0.01000000               -0.11907699               -0.29912216                0.12156137                0.85512705                0.12069837                0.15589541
               8.00445599                5.01019602               32.03511341                0.01000001               -0.02909093               -0.36364442                0.12513117                0.70824004                0.09908892                0.19546505
               9.00468581                5.01047122               32.03597839                0.01000000                0.03461131               -0.38038279                0.13018837                0.47339571                0.05960808                0.21034193
              10.00514822                5.00718972               32.03629943                0.01000000                0.04624089               -0.27664312                0.13429493                0.22958518                0.03710218                0.18081611
               0.02775389                5.99632262               32.03361418                0.39926047               -0.03346833               -0.25536808                0.10851962                0.42585623               -0.00320962                0.13419969
               1.02741921                5.99285514               32.03244480                0.01000001               -0.25725744               -0.13092817                0.11149444                0.52442723               -0.01734270                0.08508528
               2.02260874                5.99177897               32.03098515                0.01000000               -0.36621812               -0.22993833                0.10977155                0.73302214                0.00052091                0.03694966
               3.02009484                5.99205965               32.03070133                0.01000001               -0.26421644               -0.23297928                0.11127613                0.80151540                0.08063585                0.01878180
               4.01732441                5.99472079               32.03112907                0.01000001               -0.27393859               -0.21111652                0.11398635                0.92425408                0.13151138                0.03412952
               5.01461607                5.99833656               32.03215655                0.01000369               -0.26571568               -0.17074556                0.11764555                0.89110701                0.16929790                0.07469434
               6.01201010                6.00202288               32.03360381                0.01000000               -0.22672640               -0.19161553                0.12229402                0.77716316                0.18886005                0.12657857
               7.01008154                6.00493416               32.03525617                0.01000001               -0.14027173               -0.25342941                0.12749268                0.61006720                0.18781164                0.18886568
               8.00920466                6.00669559               32.03684400                0.01000000               -0.04244655               -0.31858135                0.13282404                0.43525996                0.15983264                0.25033702
               9.00923261                6.00706792               32.03798774                0.01001033                0.00622323               -0.30733306                0.13763943                0.23725217                0.09723741                0.29372531
              10.00932913                6.00564065               32.03827735                0.01000000                0.00965154               -0.10640657                0.14239872                0.11414410                0.05773757                0.28932122
               0.03122725                6.99601023               32.03409666                0.99999999               -0.03336729               -0.03176074                0.10953092               -0.00063429               -0.00932091                0.03303814
               1.03089358                6.99252110               32.03274888                1.00000000               -0.03371121               -0.03336712                0.11204918               -0.00060490               -0.00964819                0.01039272
               2.03055303                6.98902540               32.03138893                0.01000000               -0.22839688               -0.15479963                0.11471649                0.43545671                0.03264282                0.00253853
               3.02632564                6.98978268               32.03088468                0.01000001               -0.35608016               -0.34483831                0.11634742                0.85866147                0.10400643               -0.04503878
               4.02343143                6.99259976               32.03140131                0.01000003               -0.34134354               -0.14619177                0.11821938                0.90949906                0.18279180                0.01272658
               5.01949877                6.99695809               32.03277950                0.01000000               -0.38241179               -0.08657081                0.12181977                0.80984606                0.23382218                0.06792706
               6.01578319                7.00047696               32.03468158                0.01000001               -0.33512520               -0.09074110                0.12706703                0.57901824                0.26395678                0.12811000
               7.01279627                7.00276812               32.03698499                0.01000000               -0.23778785               -0.14952100                0.13346325                0.32618900                0.27368817                0.20531256
               8.01102743                7.00382439               32.03932276                0.01000002               -0.11552398               -0.23621846                0.14005630                0.10152162                0.24336689                0.31879509
               9.01048579                7.00432456               32.04113564                0.01000002               -0.03708982               -0.26230304                0.14618403               -0.00747720                0.15050241                0.41230680
              10.01028564                7.00506158               32.04160928                0.01000000               -0.02001515               -0.06702430                0.15046514               -0.02971589                0.08580796                0.46641422
               0.03471946                7.99568741               32.03427867                1.00000000               -0.03275266               -0.03205917                0.10751588               -0.00015459               -0.00100524                0.02140567
               1.03439193                7.99218780               32.03289382                0.99999999               -0.03315835               -0.03309803                0.11043930                0.00012941               -0.00076077                0.00316805
               2.03405629                7.98868298               32.03151131                0.09957893               -0.03491098               -0.03404039                0.11329805               -0.00043058                0.00053407               -0.01520267
               3.03369371                7.98516289               32.03015295                0.01000002               -0.28586568               -0.24788973                0.11974690                0.70085536                0.13814598               -0.08089373
               4.02833898                7.99179696               32.03152735                0.01000000               -0.53789609               -0.04444581                0.12179505                0.94670352                0.26867627                0.00081254
               5.02293579                7.99660514               32.03332092                0.01000001               -0.52792767                0.03998004                0.12500600                0.64570714                0.29693270                0.05380622
               6.01778043                8.00020806               32.03572738                0.01000000               -0.48389527                0.03606392                0.13101257                0.37292094                0.34036947                0.11091037
               7.01325789                8.00194374               32.03881290                0.01000002               -0.40508837               -0.00352270                0.13887462                0.06908277                0.39590915                0.18703123
               8.00967866                8.00197122               32.04269323                0.01000002               -0.27060059               -0.08080377                0.14819361               -0.22629278                0.38343026                0.32185863
               9.00784588                8.00182186               32.04579093                0.01000006               -0.12089494               -0.19137036                0.15541706               -0.40395610                0.25769722                0.69364294
              10.00726076                8.00430016               32.04722674                0.01000000               -0.05851149               -0.25583447                0.16003711               -0.28849044                0.17642025                0.67258054
               0.03822339                8.99536904               32.03452305                1.00000000               -0.03227860               -0.03167682                0.10604040               -0.00015799                0.00246759                0.01966690
               1.03790060                8.99185914               32.03305118                0.99999998               -0.03270291               -0.03266689                0.10898713                0.00008734                0.00157285                0.00253272
               2.03756933                8.98834459               32.03156157                0.99999999               -0.03359151               -0.03361097                0.11200371                0.00004209               -0.00452095               -0.01103436
               3.03722877                8.98482488               32.02997142                0.01000000               -0.33230422               -0.03406633                0.11509462                0.52141329                0.15049124               -0.02909236
               4.03092324                8.99171084               32.03158921                0.01000000               -0.66134781                0.12984400                0.12154887                0.67629058                0.30687427               -0.00438038
               5.02400181                8.99775769               32.03365895                0.01000000               -0.65101172                0.14824595                0.12676425                0.41289807                0.33747400                0.03252626
               6.01790301                9.00119824               32.03646357                0.01005788               -0.57935228                0.12819744                0.13379657                0.17629905                0.39844042                0.06855703
               7.01241477                9.00269767               32.04024180                0.01000002               -0.56397738                0.10878050                0.14253925               -0.03228059                0.49594090                0.11574031
               8.00662346                9.00220832               32.04541725                0.01000000               -0.61685240                0.11029157                0.15434595               -0.27179833                0.75507869                0.21980446
               9.00007772                9.00049715               32.05481858                0.99999998               -0.35321227               -0.09214749                0.17224843               -0.47376117                0.47195536                0.45081327
               9.99955922                8.99994490               32.05477432                1.00000000               -0.05185037               -0.24389319                0.17354750               -0.41267760               -0.00036980                0.37611129
               0.04173611                9.99505387               32.03466751                1.00000000               -0.03179811               -0.03151714                0.10456424               -0.00066866                0.01365104                0.01468328
               1.04141813                9.99153446               32.03318394                1.00000000               -0.03223620               -0.03246785                0.10751948               -0.00040252                0.01708795                0.00113866
               2.04109139                9.98801076               32.03177187                0.99999999               -0.03312007               -0.03338338                0.11054125               -0.00043884                0.01703063               -0.00337031
               3.04075573                9.98448156               32.03029281                0.24150508               -0.60797024               -0.03433232                0.11352893                0.67185007                0.15212962               -0.00444073
               4.02893198                9.99439384               32.03159181                0.01000000               -0.95246855                0.26829973                0.12003480                0.55529900                0.28275153                0.00435555
               5.02170636                9.99957006               32.03365454                0.01000003               -0.62827786                0.18123688                0.12679040                0.18936312                0.33499270                0.02375147
               6.01636643               10.00277201               32.03656040                0.01000001               -0.50520832                0.15737739                0.13442078                0.07380634                0.41230681                0.04384609
               7.01160219               10.00411935               32.04057109                0.01000001               -0.49616086                0.14216799                0.14344309               -0.01100556                0.55927317                0.06708577
               8.00644321               10.00417705               32.04674000                0.01000002               -0.54840600                0.19687307                0.15774258               -0.22504734                0.74466412                0.15837639
               9.00063407                9.99997891               32.05483652                1.00000000               -0.31657430               -0.05182457                0.17340173               -0.18210208                0.40733667                0.00029764
              10.00011172                9.99942230               32.05479226                1.00000000               -0.05223495               -0.05225957                0.17469937               -0.00041004                0.00034332               -0.00034195
               0.00055166                0.00313528               33.02740770                1.00000000               -0.02448283               -0.02330210                0.07794439                0.00111340               -0.00335981                0.00390362
               1.00030683                0.00162680               33.02766682                1.00000000               -0.02554251               -0.02554147                0.08513718                0.00112255               -0.00361469               -0.00127740
               2.00004081                0.00011826               33.02791808                0.01505997               -0.00906539               -0.02778096                0.09232985                0.03308387                0.05715168               -0.00156341
               3.00012553               -0.00075100               33.02939458                0.01000002               -0.03439577                0.01099952                0.06519542                0.03974534                0.11924696               -0.00584415
               3.99935290                0.00106701               33.03093923                0.01000000               -0.12792957                0.03466850                0.09964412                0.13124852                0.13902530               -0.00126748
               4.99756693                0.00597675               33.03294061                0.01000000               -0.34374682                0.05125989                0.09701667                0.36097323                0.17223175               -0.01175009
               5.99247796                0.01561599               33.03545415                0.15312905               -0.26907054               -0.02814689                0.09342705                0.39949777                0.09901928               -0.00109136
               6.99218552                0.01729356               33.03656415                0.99995630               -0.03047455               -0.03050978                0.10202208                0.00140299                0.01747227               -0.00472420
               7.99186847                0.01896483               33.03744105                0.99999998               -0.03277108               -0.03270940                0.10915960                0.00110489                0.00785405               -0.00048123
               8.99153010                0.02063458               33.03835461                1.00000000               -0.03489350               -0.03483677                0.11630821                0.00108837                0.00784836                0.00100993
               9.99117060                0.02230438               33.03922965                1.00000000               -0.03595033               -0.03710472                0.12342952                0.00114134                0.00591334                0.00545371
               0.00207128                1.00290226               33.02727560                1.00000000               -0.02447056               -0.02328175                0.07794266                0.00003318                0.00140976                0.00448146
               1.00182657                1.00137139               33.02753185                0.01000000               -0.02553623               -0.02560013                0.08513506                0.00004224                0.00349890               -0.00322384
               2.00156055                0.99984045               33.02782849                0.01000000               -0.08889839               -0.04764587                0.09232790               -0.00707513                0.06651524                0.04930509
               3.00004860                0.99935899               33.02934861                0.01000001               -0.21295221                0.00208532                0.08080958                0.08330907                0.13086919                0.02150905
               3.99730151                1.00141370               33.03083018                0.01000000               -0.30732139                0.02191905                0.09917456                0.27956300                0.10985686                0.00999749
               4.99390217                1.00648934               33.03249490                0.01000000               -0.32434895                0.00681711                0.09771559                0.56365602                0.12224748               -0.00174791
               5.99081453                1.01533452               33.03465157                0.01000001               -0.16885211               -0.21405424                0.09322831                0.52582364                0.07228469               -0.02389405
               6.99052513                1.01698847               33.03567676                0.99837649               -0.03027594               -0.03049240                0.10184692                0.00021949                0.00842021               -0.00451859
               7.99020901                1.01863774               33.03654913                0.99999997               -0.03269598               -0.03266992                0.10896725                0.00000615                0.00125971               -0.00056103
               8.98987121                1.02028621               33.03742965                0.99999999               -0.03483993               -0.03477132                0.11611486                0.00001557                0.00115199                0.00058055
               9.98951221                1.02193333               33.03830010                1.00000000               -0.03590019               -0.03712240                0.12325496                0.00004226                0.00054776                0.00688361
               0.00361407                2.00266965               33.02715033                0.01000001               -0.02445834               -0.02636578                0.07794096               -0.02255991                0.00190713                0.09749228
               1.00336949                2.00111480               33.02735835                0.01000000               -0.08511858               -0.07735119                0.08513271               -0.04252736                0.06167944                0.09046821
               2.00191170                1.99916534               33.02876176                0.01000001               -0.15755153               -0.08615644                0.09283837                0.03390826                0.09327721                0.08904780
               3.00021846                1.99929071               33.02969417                0.01000000               -0.20489486               -0.05258738                0.09754297                0.25179624                0.06811321                0.04893659
               3.99781381                2.00150539               33.03083180                0.01000000               -0.26496172               -0.03841197                0.09730409                0.51277986                0.07647783                0.02835830
               4.99491923                2.00611309               33.03211371                0.01000001               -0.26592468               -0.09582701                0.09994954                0.71259396                0.06798765                0.01483733
               5.99249531                2.01133491               33.03338554                0.01000000               -0.30162642               -0.29530084                0.10145791                0.76452242                0.06209212               -0.01592223
               6.98888670                2.01668371               33.03478898                0.01000000               -0.19622328               -0.17175130                0.10168386                0.45372349                0.02244285                0.00728650
               7.98857085                2.01831144               33.03565259                0.10751625               -0.03259379               -0.01786877                0.10877931               -0.00981364               -0.00562268               -0.06135559
               8.98823482                2.01993915               33.03649556                0.99999996               -0.03468225               -0.03458536                0.11585781                0.00027314               -0.00382922               -0.00196703
               9.98787720                2.02156193               33.03740075                1.00000000               -0.03576206               -0.03714322                0.12311903                0.00010005               -0.00095390                0.00703142
               0.00472977                3.00237495               33.02887494                0.01000000               -0.02494449               -0.01615681                0.08605681               -0.00067680                0.01151644                0.19241748
               1.00448033                2.99982436               33.02909920                0.01000001               -0.03334815               -0.16202912                0.09126794                0.05349899                0.01973860                0.16311360
               2.00406281                2.99811732               33.02951494                0.01000000               -0.08679262               -0.15670267                0.09600124                0.25152629                0.03939505                0.08682710
               3.00274448                2.99830725               33.03018198                0.01000000               -0.16640451               -0.13643422                0.09834755                0.48365985                0.05393606                0.05804416
               4.00073472                3.00064546               33.03099394                0.01000080               -0.22099701               -0.12651182                0.10146510                0.69738038                0.06023105                0.04317181
               4.99832454                3.00457280               33.03197968                0.01000000               -0.26001859               -0.16826454                0.10394989                0.85584461                0.06307188                0.04021532
               5.99553435                3.00942851               33.03306443                0.01000001               -0.28507310               -0.21169627                0.10666632                0.87056604                0.05590891                0.04860592
               6.99262308                3.01355344               33.03413571                0.01000001               -0.43885251               -0.25657511                0.10555312                0.92368290               -0.02846683                0.04083036
               7.98675730                3.01828037               33.03354280                0.01000001               -0.29984474               -0.18778634                0.09185607                0.73970250               -0.02315385                0.06952043
               8.98662618                3.01959450               33.03552175                0.01000000               -0.02443231               -0.22820643                0.11550532                0.54914818                0.05017471                0.06875570
               9.98626865                3.02119047               33.03647600                0.57446286               -0.03575270               -0.49279332                0.12300004                0.65621309               -0.00120513                0.05880488
               0.00870170                4.00234651               33.03057213                0.01000002               -0.00046074               -0.05104345                0.09224609                0.13013889               -0.00336706                0.20121431
               1.00869710                3.99787422               33.03044321                0.01000000               -0.01211789               -0.23716065                0.09617215                0.27883799                0.00418210                0.13958798
               2.00845935                3.99603129               33.03045512                0.01000000               -0.06667875               -0.23049444                0.09942695                0.50952917                0.02383765                0.08946474
               3.00736352                3.99656202               33.03073837                0.01000000               -0.14817456               -0.19630518                0.10248569                0.69022133                0.04767871                0.05774887
               4.00549585                3.99897516               33.03133779                0.01000000               -0.20552274               -0.18835081                0.10556933                0.84687108                0.06822186                0.05297992
               5.00325307                4.00274780               33.03220780                0.01000001               -0.22849288               -0.19958537                0.10884262                0.94677239                0.07987273                0.06471192
               6.00092600                4.00710098               33.03324290                0.01000001               -0.23722843               -0.23767338                0.11179528                1.00801023                0.07627485                0.08546888
               6.99850850                4.01155221               33.03421823                0.01000003               -0.18010829               -0.26208013                0.11295186                1.00464560                0.06861221                0.11183924
               7.99732383                4.01455571               33.03531873                0.01000000               -0.11004077               -0.37712271                0.11615034                1.07327393                0.04805056                0.19902726
               8.99630768                4.01537502               33.03601143                0.01000000                0.02428514               -0.43065424                0.12091469                0.75893253                0.01523316                0.15826270
               9.99780953                4.01170606               33.03661463                0.01000000                0.15018519               -0.68427223                0.12926837                0.57776779                0.02017637                0.11142862
               0.01627714                5.00135408               33.03239491                0.01000001                0.00951717               -0.30126039                0.09896785                0.38143655               -0.00822696                0.22980870
               1.01637231                4.99508115               33.03182497                0.01000000               -0.03557747               -0.25680358                0.10209610                0.60009720               -0.00111944                0.14931143
               2.01556559                4.99350743               33.03137957                0.01000001               -0.13836383               -0.22028795                0.10447842                0.71553629                0.01973264                0.06995773
               3.01360504                4.99438114               33.03132249                0.01000000               -0.20396127               -0.23131869                0.10693002                0.84106459                0.05589299                0.04781748
               4.01148637                4.99687844               33.03180085                0.01000001               -0.22354398               -0.21301672                0.11008308                0.93004664                0.09318199                0.05242061
               5.00913416                5.00058110               33.03269715                0.01000001               -0.22981141               -0.21363205                0.11376608                0.98000088                0.11705313                0.07736907
               6.00689014                5.00467504               33.03386966                0.01000003               -0.19364480               -0.24014510                0.11752592                0.95683575                0.12705183                0.11565651
               7.00526126                5.00831184               33.03516710                0.01000000               -0.12450855               -0.31268756                0.12175618                0.89373615                0.12179723                0.16298026
               8.00439997                5.01073791               33.03637074                0.01000001               -0.03033929               -0.37342538                0.12659304                0.73817625                0.09839306                0.19603284
               9.00465448                5.01098142               33.03728870                0.01000000                0.03809794               -0.39787720                0.13106402                0.49619417                0.05800257                0.21810520
              10.00516193                5.00750502               33.03765214                0.01000001                0.05074509               -0.29208927                0.13617709                0.24151714                0.03470403                0.18545457
               0.02887629                5.99632130               33.03469026                0.36904847               -0.03306023               -0.26690294                0.10660440                0.45117304               -0.00320929                0.13988050
               1.02854569                5.99273815               33.03355320                0.01000001               -0.27031042               -0.13365070                0.11008912                0.55341578               -0.01951173                0.09082371
               2.02347008                5.99162553               33.03208187                0.01000000               -0.38659406               -0.23559805                0.10933346                0.77146226               -0.00278122                0.04263309
               3.02081380                5.99193565               33.03181276                0.01000001               -0.27866233               -0.23785609                0.11102109                0.84135512                0.07957768                0.02413649
               4.01789683                5.99471482               33.03227303                0.01000001               -0.28786602               -0.21728979                0.11450126                0.96751905                0.13189661                0.03867173
               5.01505648                5.99847516               33.03333739                0.01000003               -0.27824304               -0.17629354                0.11861858                0.93177865                0.17047289                0.07914884
               6.01233197                6.00229808               33.03483218                0.01000000               -0.23680669               -0.19883503                0.12328690                0.81201772                0.19046085                0.13192134
               7.01032035                6.00529846               33.03653780                0.01000001               -0.14570991               -0.26348540                0.12861033                0.63630089                0.18939843                0.19415774
               8.00941777                6.00708720               33.03817950                0.01000000               -0.04279483               -0.33256563                0.13386749                0.45456300                0.16082198                0.25677377
               9.00946445                6.00741748               33.03937197                0.01000476                0.00874472               -0.32174143                0.13903028                0.24786603                0.09744954                0.30025862
              10.00959267                6.00586428               33.03970942                0.01000001                0.01282150               -0.11290035                0.14380731                0.11901054                0.05769012                0.29497059
               0.03246692                6.99601602               33.03518602                0.99999999               -0.03305150               -0.03125680                0.10824195               -0.00062743               -0.00976858                0.03409630
               1.03213640                6.99240814               33.03386626                1.00000000               -0.03347910               -0.03309857                0.11131860               -0.00064061               -0.00996149                0.01142494
               2.03179734                6.98879547               33.03253575                0.01000000               -0.23967782               -0.15864700                0.11452463                0.45817358                0.03283034                0.00575640
               3.02734285                6.98962402               33.03206812                0.01000001               -0.37500492               -0.35534024                0.11604025                0.89877017                0.10373571               -0.03846709
               4.02429724                6.99253264               33.03259275                0.01000003               -0.35781886               -0.14989934                0.12024857                0.94752450                0.18271239                0.01758561
               5.02018647                6.99705523               33.03400431                0.01000000               -0.39950255               -0.08838930                0.12283738                0.84504137                0.23591393                0.07190291
               6.01630719                7.00069834               33.03595864                0.01000001               -0.34941558               -0.09348082                0.12838253                0.60404167                0.26714560                0.13287183
               7.01319816                7.00304213               33.03832641                0.01000000               -0.24674889               -0.15561948                0.13479651                0.33953027                0.27720894                0.21099367
               8.01137221                7.00408660               33.04073029                0.01000002               -0.11817202               -0.24744183                0.14134704                0.10503234                0.24643205                0.32604447
               9.01083472                7.00454659               33.04260144                0.01000002               -0.03618364               -0.27393239                0.14713215               -0.00757957                0.15244360                0.42034830
              10.01064854                7.00524702               33.04311807                0.01000000               -0.01861814               -0.06880884                0.15135367               -0.03007891                0.08673539                0.47333425
               0.03607950                7.99569617               33.03535033                1.00000000               -0.03260821               -0.03183697                0.10675984               -0.00007993               -0.00103597                0.02121808
               1.03575342                7.99207617               33.03399745                0.99999999               -0.03309180               -0.03304089                0.11022909                0.00012461               -0.00078133                0.00318734
               2.03541767                7.98845259               33.03264627                0.10495232               -0.03506934               -0.03418125                0.11365828                0.00023584                0.00306635               -0.01497008
               3.03505203                7.98482884               33.03137024                0.01000001               -0.30007747               -0.25761629                0.13996767                0.73132545                0.13854030               -0.08048076
               4.02941612                7.99171683               33.03277205                0.01000000               -0.56302090               -0.04461801                0.12284982                0.98574524                0.26635788                0.00315711
               5.02379162                7.99670737               33.03457718                0.01000001               -0.54951074                0.04331964                0.12600855                0.67276261                0.29891841                0.05733095
               6.01842590                8.00042846               33.03704552                0.01000000               -0.50344596                0.03859215                0.13264169                0.38836704                0.34504181                0.11475584
               7.01372270                8.00218607               33.04020888                0.01000002               -0.42059719               -0.00330628                0.14035197                0.06984477                0.40199368                0.19176827
               8.01001396                8.00213837               33.04417972                0.01000002               -0.27851262               -0.08521257                0.14930099               -0.23726136                0.38932175                0.32879955
               9.00815244                8.00193883               33.04734944                0.01006957               -0.12118602               -0.20349201                0.15615711               -0.41863762                0.26107753                0.70583727
              10.00759024                8.00448810               33.04882699                0.01000000               -0.05622057               -0.26647811                0.16077141               -0.29783720                0.17843110                0.68306130
               0.03970531                8.99537928               33.03558218                1.00000000               -0.03228327               -0.03159973                0.10578192               -0.00008619                0.00248295                0.01975166
               1.03938247                8.99174732               33.03414259                0.99999998               -0.03279606               -0.03276250                0.10928465                0.00006934                0.00163599                0.00263371
               2.03904939                8.98811185               33.03268596                0.99999997               -0.03386817               -0.03390452                0.11290107               -0.00003245               -0.00437139               -0.01084483
               3.03870511                8.98447170               33.03112962                0.01000002               -0.34578856               -0.03527475                0.11664272                0.54143996                0.15267960               -0.03137982
               4.03213362                8.99164028               33.03282200                0.01000000               -0.68875097                0.13615543                0.12465726                0.70504855                0.30994665               -0.00512188
               5.02493009                8.99792162               33.03493738                0.01000000               -0.67688944                0.15539729                0.12835382                0.43027591                0.34127680                0.03485554
               6.01859583                9.00147018               33.03780755                0.01005051               -0.60224690                0.13443618                0.13534796                0.18363579                0.40523719                0.07078458
               7.01288515                9.00297600               33.04167676                0.01000002               -0.58608017                0.11389755                0.14447053               -0.03583880                0.50419167                0.11841056
               8.00687422                9.00238235               33.04696576                0.01000005               -0.63864629                0.11480517                0.15547922               -0.28822901                0.76768760                0.22424961
               9.00011223                9.00047675               33.05654217                0.99999998               -0.36404861               -0.09903318                0.17247276               -0.49712665                0.48009641                0.45855518
               9.99959325                8.99991745               33.05651006                1.00000000               -0.05189776               -0.25464678                0.17359809               -0.42779535               -0.00037307                0.38237618
               0.04334170                9.99506417               33.03571413                1.00000000               -0.03194588               -0.03151058                0.10480938               -0.00068563                0.01368240                0.01475227
               1.04302224                9.99142092               33.03426287                1.00000000               -0.03245288               -0.03263944                0.10830682               -0.00050707                0.01712420                0.00121451
               2.04269264                9.98777450               33.03288374                0.99999999               -0.03349230               -0.03373470                0.11184796               -0.00055326                0.01706935               -0.00329568
               3.04235240                9.98412335               33.03143735                0.28145001               -0.63127388               -0.03483482                0.11537258                0.69800059                0.15390589               -0.00448863
               4.03006717                9.99443994               33.03280391                0.01000000               -0.98925796                0.27996588                0.12184830                0.57795343                0.28710898                0.00355201
               5.02256724                9.99981532               33.03493464                0.01000113               -0.65114649                0.18936968                0.12878475                0.19757667                0.34051400                0.02481957
               6.01704424               10.00311719               33.03790959                0.01000001               -0.52367396                0.16470057                0.13600735                0.07727623                0.42097879                0.04498317
               7.01209376               10.00446402               33.04201973                0.01000657               -0.51478014                0.14880199                0.14603047               -0.01327571                0.56942995                0.06874551
               8.00674863               10.00443447               33.04832114                0.01000002               -0.57094761                0.20521216                0.15876654               -0.23785181                0.75755904                0.16100047
               9.00067480                9.99995817               33.05657029                1.00000000               -0.32978539               -0.05185820                0.17335153               -0.19570743                0.41436393                0.00030368
              10.00015292                9.99939517               33.05653814                1.00000000               -0.05218802               -0.05222869                0.17447656               -0.00033273                0.00034211               -0.00034685
               0.00022298                0.00330643               34.02818279                1.00000000               -0.02434477               -0.02306553                0.07707376                0.00127530               -0.00335972                0.00390407
               0.99997954                0.00174900               34.02851795                1.00000000               -0.02552504               -0.02556076                0.08508882                0.00125198               -0.00361461               -0.00127755
               1.99971248                0.00019223               34.02884524                0.01000001               -0.02721292               -0.02805564                0.09310372                0.02993916                0.02602060               -0.00156308
               2.99943528               -0.00078997               34.02977516                0.01000000               -0.04587326                0.01641138                0.08550530                0.05374768                0.09652667                0.04071929
               3.99879502                0.00120908               34.03200451                0.01000000               -0.12319994                0.03376488                0.09738852                0.14418426                0.14372361               -0.00198140
               4.99697128                0.00630641               34.03390384                0.01000000               -0.35870685                0.05744146                0.09532506                0.37925928                0.15453319               -0.01050545
               5.99162088                0.01640887               34.03638121                0.14391616               -0.28200569               -0.02784118                0.09207080                0.42041734                0.09438542               -0.00110050
               6.99133117                0.01813470               34.03757967                0.99927840               -0.03024166               -0.03029964                0.10121599                0.00156441                0.01829974               -0.00467130
               7.99101605                0.01985298               34.03853007                1.00000000               -0.03262755               -0.03259215                0.10868315                0.00112802                0.00790259               -0.00053501
               8.99067861                0.02157069               34.03951700                1.00000000               -0.03484574               -0.03482946                0.11616020                0.00112107                0.00786511                0.00095958
               9.99031913                0.02328960               34.04046475                1.00000000               -0.03594812               -0.03717541                0.12359744                0.00113228                0.00590794                0.00547449
               0.00179316                1.00307577               34.02805179                0.99999999               -0.02440057               -0.02307565                0.07729427                0.00007178                0.00140991                0.00448209
               1.00154916                1.00149340               34.02838407                0.01000000               -0.02558996               -0.02565913                0.08530926                0.00004881                0.00349924               -0.00322414
               2.00128136                0.99991167               34.02875674                0.01000000               -0.10424137               -0.04774576                0.09332438               -0.00983008                0.05543438                0.04982256
               2.99946433                0.99937414               34.03013128                0.01000001               -0.22963476                0.00661562                0.09532204                0.10252900                0.08539386                0.04743480
               3.99668867                1.00154672               34.03185154                0.01000000               -0.31501788                0.02345263                0.09745721                0.30169118                0.10052063                0.00320530
               4.99316397                1.00688082               34.03346998                0.01000000               -0.33888790                0.01030471                0.09670693                0.59473131                0.10823010               -0.00111990
               5.98991091                1.01613046               34.03557832                0.01000001               -0.17696082               -0.22197435                0.09223385                0.55386349                0.06704426               -0.01981831
               6.98962476                1.01783170               34.03669275                0.99745230               -0.03007899               -0.03031825                0.10137061                0.00036811                0.00918435               -0.00456481
               7.98930933                1.01952706               34.03763733                1.00000000               -0.03266211               -0.03263778                0.10879042                0.00001516                0.00123274               -0.00047100
               8.98897151                1.02122240               34.03859117                0.99999999               -0.03488932               -0.03485722                0.11625360               -0.00004919                0.00119704                0.00062371
               9.98861154                1.02291785               34.03953498                1.00000000               -0.03599694               -0.03719151                0.12370395               -0.00008689                0.00060364                0.00684920
               0.00338918                2.00284492               34.02792761                0.01001935               -0.02445601               -0.02420243                0.07751490               -0.02065527                0.00190765                0.10156852
               1.00314462                2.00123582               34.02821165                0.01000000               -0.08770190               -0.07883305                0.08552932               -0.04127512                0.06219795                0.09347987
               2.00163514                1.99923731               34.02970146                0.01000001               -0.16469064               -0.08897753                0.10085030                0.03575029                0.08406647                0.09017093
               2.99985080                1.99934234               34.03068521                0.01000000               -0.21564908               -0.05031022                0.09133011                0.27483233                0.06995737                0.05887301
               3.99732216                2.00167813               34.03179708                0.01000000               -0.27843180               -0.03623574                0.09697253                0.54496946                0.07024448                0.02405375
               4.99428217                2.00651250               34.03311348                0.01000001               -0.27874413               -0.09776887                0.09943597                0.75106929                0.06282277                0.01692811
               5.99174727                2.01196939               34.03439610                0.01000000               -0.31701183               -0.30759250                0.10093958                0.80495529                0.05545061               -0.00960002
               6.98794193                2.01752833               34.03580420                0.01000000               -0.20608097               -0.17703764                0.10147028                0.48316636                0.01912647                0.00416641
               7.98762566                2.01920022               34.03674430                0.10578689               -0.03275449               -0.03613880                0.10913510                0.00414051               -0.00555573               -0.01977385
               8.98728684                2.02087355               34.03765893                0.99999996               -0.03495816               -0.03489992                0.11652113                0.00001500               -0.00395683               -0.00175548
               9.98692649                2.02254577               34.03863435                1.00000000               -0.03603494               -0.03722499                0.12373511               -0.00009442               -0.00113803                0.00687668
               0.00459825                3.00259173               34.02973482                0.01000005               -0.02669887               -0.01214472                0.08527298                0.00183702                0.01271117                0.19955008
               1.00433126                2.99991673               34.03001384                0.01000001               -0.03541980               -0.16644090                0.09206073                0.05873171                0.02162714                0.16848808
               2.00388985                2.99813212               34.03047815                0.01000000               -0.09055503               -0.16208989                0.09385858                0.26744697                0.04301177                0.08987120
               3.00252016                2.99836793               34.03115706                0.01000000               -0.17359804               -0.13855556                0.09809774                0.51098039                0.05395851                0.06132365
               4.00041789                3.00082201               34.03200734                0.01000196               -0.23130301               -0.12871356                0.10067590                0.73291782                0.06009399                0.04807104
               4.99789410                3.00492545               34.03301555                0.01000000               -0.27118522               -0.17386495                0.10386937                0.89766531                0.06028828                0.04422989
               5.99499419                3.00997861               34.03413216                0.01000001               -0.29184270               -0.22060947                0.10572475                0.91393229                0.04506292                0.05325966
               6.99205725                3.01429095               34.03508962                0.01000001               -0.44736309               -0.27031663                0.10334339                0.95229530               -0.00361721                0.05119445
               7.98604693                3.01880428               34.03546576                0.01000001               -0.32154896               -0.20395686                0.16969611                0.77249895               -0.01231782                0.05547227
               8.98562627                3.02052440               34.03668836                0.01000000               -0.03908606               -0.23998316                0.11687771                0.59246921                0.00866506                0.07304838
               9.98526521                3.02217335               34.03770731                0.59606304               -0.03610616               -0.51599157                0.12370865                0.68714689               -0.00179551                0.06177141
               0.00877590                4.00260202               34.03148977                0.01000001                0.00029578               -0.04980454                0.09087419                0.13811007               -0.00344931                0.20736501
               1.00877886                3.99790700               34.03140146                0.01000000               -0.01215105               -0.24504178                0.09531225                0.29582817                0.00372131                0.14459968
               2.00853288                3.99599551               34.03144454                0.01000000               -0.06991677               -0.23677751                0.09860783                0.53843030                0.02249725                0.09472327
               3.00738052                3.99657123               34.03176182                0.01000004               -0.15549381               -0.20218594                0.10204569                0.72609592                0.04722788                0.06389620
               4.00542300                3.99910386               34.03239272                0.01000000               -0.21508250               -0.19433754                0.10584607                0.88791576                0.06735131                0.05825050
               5.00307887                4.00303520               34.03329657                0.01000001               -0.23812915               -0.20673290                0.10906146                0.99051067                0.07791608                0.07011186
               6.00066042                4.00755720               34.03435440                0.01000001               -0.24583525               -0.24727445                0.11176540                1.05006120                0.07414984                0.09190641
               6.99816217                4.01212200               34.03539361                0.01000003               -0.19091177               -0.27570990                0.11785216                1.03545733                0.06075831                0.12429789
               7.99684218                4.01512109               34.03638238                0.01000000               -0.11975034               -0.37741843                0.11410279                1.11036092                0.04320170                0.17575105
               8.99576716                4.01607388               34.03725767                0.01000000                0.02646727               -0.45258058                0.12675889                0.80215206                0.02098945                0.16707603
               9.99737153                4.01222594               34.03790821                0.01000000                0.16043692               -0.71846630                0.13008804                0.60771576                0.01914953                0.11741508
               0.01675049                5.00159563               34.03337527                0.01004216                0.01038432               -0.31364525                0.09718508                0.40142235               -0.00889542                0.23693345
               1.01685433                4.99501590               34.03284097                0.01000000               -0.03781268               -0.26383414                0.10098294                0.63297172               -0.00234769                0.15632157
               2.01599424                4.99339657               34.03242167                0.01000001               -0.14602988               -0.22600325                0.10414746                0.75344947                0.01813899                0.07544311
               3.01393374                4.99432422               34.03239157                0.01000000               -0.21410029               -0.23872362                0.10705556                0.88266998                0.05460991                0.05252811
               4.01171223                4.99693526               34.03290339                0.01000001               -0.23413813               -0.22007621                0.11067772                0.97406425                0.09256809                0.05727204
               5.00925097                5.00079079               34.03383703                0.01000001               -0.24018064               -0.22114153                0.11449817                1.02426893                0.11648001                0.08281403
               6.00690862                5.00503312               34.03504984                0.01000003               -0.20242349               -0.24924317                0.11856379                0.99722253                0.12608653                0.12210247
               7.00520250                5.00877675               34.03638084                0.01000000               -0.13031783               -0.32319954                0.12213141                0.92914082                0.12089854                0.16951165
               8.00430226                5.01125591               34.03764527                0.01000001               -0.03190240               -0.38247914                0.12694811                0.77203934                0.09810955                0.21010034
               9.00456445                5.01147279               34.03859967                0.01000000                0.04065726               -0.41567682                0.13193905                0.52163151                0.05762259                0.22580145
              10.00511541                5.00780402               34.03902297                0.01000001                0.05509510               -0.30759032                0.13797267                0.25494848                0.03547559                0.19215465
               0.02996382                5.99632912               34.03574626                0.33887613               -0.03264607               -0.27817764                0.10455610                0.47616563               -0.00320551                0.14525051
               1.02963736                5.99263032               34.03464658                0.01000001               -0.28351333               -0.13552801                0.10851948                0.58183101               -0.02154617                0.09608956
               2.02429355                5.99147545               34.03317182                0.01000000               -0.40710625               -0.24102226                0.10880418                0.80899905               -0.00636867                0.04771231
               3.02149523                5.99179675               34.03292176                0.01000001               -0.29279183               -0.24341766                0.11192008                0.88182553                0.07851995                0.02671236
               4.01843771                5.99470233               34.03341909                0.01000001               -0.30144230               -0.22414032                0.11512020                1.01264374                0.13250989                0.04340185
               5.01546639                5.99861237               34.03452892                0.01000003               -0.29094031               -0.18172139                0.11976210                0.97350949                0.17146354                0.08376729
               6.01261891                6.00257233               34.03606955                0.01000000               -0.24720968               -0.20560375                0.12440029                0.84705105                0.19143920                0.13767227
               7.01052219                6.00565801               34.03782837                0.01000001               -0.15159874               -0.27299177                0.12958831                0.66327319                0.19042906                0.20136039
               8.00958693                6.00747150               34.03952135                0.01000000               -0.04352553               -0.34554299                0.13491735                0.47405616                0.16164339                0.26402932
               9.00965168                6.00776035               34.04076835                0.01000526                0.01105465               -0.33593649                0.14028453                0.25925294                0.09806095                0.30819868
              10.00980803                6.00607413               34.04115349                0.01000001                0.01563449               -0.11966646                0.14515750                0.12496270                0.05793579                0.30140294
               0.03367140                6.99603208               34.03626150                0.99999999               -0.03267748               -0.03067543                0.10676180               -0.00064106               -0.01018861                0.03519051
               1.03334462                6.99230534               34.03497526                0.99999999               -0.03318068               -0.03275495                0.11037935               -0.00064767               -0.01026862                0.01251320
               2.03300778                6.98857612               34.03367942                0.01000000               -0.25006301               -0.16210386                0.11406144                0.48009066                0.03059448                0.00888279
               3.02834336                6.98945586               34.03320549                0.01000001               -0.39291488               -0.36524938                0.11211577                0.93599192                0.10364813               -0.02278686
               4.02514948                6.99245245               34.03380628                0.01000095               -0.37461004               -0.15357406                0.12177944                0.98609893                0.18638599                0.01922393
               5.02085116                6.99715636               34.03523625                0.01000000               -0.41727408               -0.08968427                0.12387299                0.88214501                0.23741965                0.07576494
               6.01680400                7.00092105               34.03724923                0.01000001               -0.36411823               -0.09590330                0.12985846                0.62956027                0.27014837                0.13799191
               7.01356880                7.00331691               34.03968092                0.01000000               -0.25614790               -0.16146266                0.13619510                0.35326866                0.28025321                0.21720034
               8.01168105                7.00434505               34.04214970                0.01000002               -0.12109560               -0.25798829                0.14258201                0.10873743                0.24909747                0.33389690
               9.01114688                7.00475406               34.04407828                0.01000002               -0.03469802               -0.28812365                0.14844101               -0.00829435                0.15379150                0.42835675
              10.01098708                7.00541069               34.04463635                0.01000001               -0.01597989               -0.07523677                0.15284023               -0.03102437                0.08738912                0.48058617
               0.03740448                7.99571561               34.03641387                1.00000000               -0.03241213               -0.03159068                0.10592251                0.00000328               -0.00105554                0.02102493
               1.03708036                7.99197522               34.03509841                0.99999999               -0.03298210               -0.03294710                0.10987862                0.00013439               -0.00078775                0.00322456
               2.03674484                7.98823337               34.03378448                0.12498805               -0.03708096               -0.03429473                0.11393943                0.00018131                0.02343019               -0.01469476
               3.03633874                7.98449177               34.03295230                0.01000001               -0.31428228               -0.26628452                0.16274076                0.76002198                0.14780565               -0.09395775
               4.03045919                7.99163085               34.03398435                0.01000000               -0.58490260               -0.04379528                0.11870708                1.02459291                0.25464130                0.00747295
               5.02464069                7.99681869               34.03584109                0.01000001               -0.57048175                0.04704870                0.12786281                0.70070275                0.30347025                0.06069325
               6.01904956                8.00065427               34.03838022                0.01000000               -0.52385655                0.04144060                0.13424945                0.40372183                0.34992117                0.11887737
               7.01416356                8.00242876               34.04161994                0.01000002               -0.43625102               -0.00309409                0.14199113                0.07145325                0.40754575                0.19688948
               8.01032454                8.00231174               34.04567925                0.01000002               -0.28717017               -0.08965807                0.15066033               -0.25000605                0.39447893                0.33586044
               9.00842016                8.00199787               34.04891407                0.01000001               -0.12251368               -0.21533275                0.15686475               -0.43769380                0.26472676                0.71756114
              10.00787427                8.00456940               34.05044217                0.01000000               -0.05458898               -0.27647123                0.16137956               -0.31140324                0.18110575                0.69134140
               0.04115224                8.99540027               34.03663869                1.00000000               -0.03226903               -0.03152976                0.10554350                0.00000323                0.00249361                0.01981729
               1.04082955                8.99164640               34.03523688                0.99999998               -0.03286868               -0.03285196                0.10954834                0.00003064                0.00172165                0.00274403
               2.04049486                8.98789023               34.03381959                0.99999997               -0.03416129               -0.03420455                0.11380916               -0.00013844               -0.00408786               -0.01062640
               3.04014632                8.98413017               34.03230427                0.01000001               -0.35902210               -0.03577159                0.11837583                0.56306270                0.15535451               -0.05127207
               4.03331442                8.99157655               34.03408235                0.01000000               -0.71522611                0.14351028                0.12552797                0.73424181                0.31332887               -0.00248327
               5.02584180                8.99809733               34.03622603                0.01000000               -0.70230241                0.16266156                0.12972841                0.44717914                0.34479911                0.03784608
               6.01926837                9.00174986               34.03917053                0.01004914               -0.62507042                0.14066619                0.13736985                0.19045277                0.41110758                0.07317390
               7.01334039                9.00325503               34.04313121                0.01000002               -0.60782836                0.11897817                0.14630913               -0.03911424                0.51220808                0.12141813
               8.00711181                9.00255189               34.04852684                0.01000001               -0.66025210                0.11872789                0.15702264               -0.30441699                0.77975563                0.22869122
               9.00013535                9.00044740               34.05826803                0.99999998               -0.37479178               -0.10345699                0.17269434               -0.51932163                0.48780328                0.46626919
               9.99961597                8.99988127               34.05824628                1.00000000               -0.05193780               -0.26051027                0.17363930               -0.44118364               -0.00038564                0.38804380
               0.04491229                9.99508501               34.03676370                1.00000000               -0.03212773               -0.03152550                0.10517268               -0.00067786                0.01365955                0.01479882
               1.04459101                9.99131818               34.03535007                1.00000000               -0.03269969               -0.03282150                0.10918828               -0.00064007                0.01706995                0.00129408
               2.04425830                9.98754928               34.03400883                0.99999999               -0.03386669               -0.03409493                0.11318072               -0.00074909                0.01696939               -0.00323717
               3.04391368                9.98377633               34.03260026                0.30430119               -0.65407136               -0.03538377                0.11711527                0.72432462                0.15495320               -0.00450419
               4.03117687                9.99450106               34.03402878                0.01000003               -1.02513598                0.29245104                0.12338699                0.60102401                0.29075639                0.00188674
               5.02341096               10.00007192               34.03623023                0.01000000               -0.67379759                0.19745850                0.13055643                0.20524277                0.34570320                0.02674386
               6.01770092               10.00346759               34.03928054                0.01000001               -0.54158590                0.17177318                0.13833647                0.08007436                0.42754327                0.04622835
               7.01257924               10.00480832               34.04349170                0.01000000               -0.53285434                0.15532860                0.14812622               -0.01517968                0.57942828                0.07032833
               8.00704383               10.00468630               34.04991533                0.01000002               -0.59374469                0.21344037                0.16053155               -0.25077678                0.76952949                0.16350658
               9.00070435                9.99992873               34.05830355                1.00000000               -0.34304856               -0.05186677                0.17330955               -0.20945526                0.42081458                0.00031637
              10.00018286                9.99935919               34.05828179                1.00000000               -0.05214883               -0.05220752                0.17425737               -0.00026518                0.00035675               -0.00035646
              -0.00018584                0.00347537               35.02894918                1.00000000               -0.02420660               -0.02282886                0.07620333                0.00143780               -0.00336009                0.00390426
               0.99957209                0.00186900               35.02936859                1.00000000               -0.02550721               -0.02558007                0.08504001                0.00138222               -0.00361496               -0.00127750
               1.99930401                0.00026400               35.02978015                0.01000000               -0.03376478               -0.02833109                0.09387646                0.03590849                0.04153831               -0.00156337
               2.99889680               -0.00064886               35.03110469                0.01000001               -0.06026632                0.00465061                0.12178818                0.02995449                0.10017614                0.01992864
               3.99809869                0.00133331               35.03288700                0.01000000               -0.13079511                0.03519138                0.09242636                0.15161537                0.12343542               -0.00045752
               4.99628089                0.00663436               35.03484711                0.01000000               -0.37044245                0.06229387                0.09226952                0.39923369                0.14981817               -0.00994833
               5.99068984                0.01719977               35.03729557                0.13438755               -0.29391172               -0.02765031                0.09104643                0.44126041                0.09013682               -0.00108393
               6.99040266                0.01897397               35.03858847                0.99860913               -0.03003228               -0.03013313                0.10054524                0.00170632                0.01924781               -0.00471175
               7.99008919                0.02073961               35.03961472                1.00000000               -0.03249654               -0.03255179                0.10828372                0.00117732                0.00792252               -0.00051907
               8.98975273                0.02250542               35.04067782                1.00000000               -0.03479648               -0.03486662                0.11604222                0.00116685                0.00788637                0.00096368
               9.98939326                0.02427339               35.04170160                1.00000000               -0.03594657               -0.03726827                0.12379283                0.00113793                0.00591321                0.00543497
               0.00143491                1.00324708               35.02882149                1.00000000               -0.02433053               -0.02286925                0.07664529                0.00011121                0.00141014                0.00448218
               1.00119160                1.00161320               35.02923804                0.01000000               -0.02564382               -0.02571846                0.08548355                0.00005579                0.00349980               -0.00322420
               2.00092203                0.99998069               35.02969497                0.01000000               -0.12649595               -0.05083215                0.09432248               -0.02000462                0.06049900                0.05661089
               2.99866168                0.99939764               35.03125505                0.01000001               -0.24744019                0.00456271                0.10935399                0.11648648                0.09297746                0.02299390
               3.99597323                1.00168523               35.03277932                0.01000000               -0.31608405                0.02486774                0.09441691                0.32756954                0.09063201                0.00719857
               4.99234000                1.00725730               35.03442904                0.01000000               -0.35202944                0.01358561                0.09497225                0.62669045                0.10129621                0.00056047
               5.98893264                1.01692327               35.03649625                0.01000001               -0.18450988               -0.23053530                0.09153284                0.58195550                0.06204298               -0.01560766
               6.98864980                1.01867264               35.03770417                0.99653720               -0.02986976               -0.03019001                0.10091993                0.00045953                0.01006404               -0.00461903
               7.98833524                1.02041409               35.03872494                1.00000000               -0.03261500               -0.03260376                0.10867889               -0.00000416                0.00125090               -0.00045284
               8.98799750                1.02215675               35.03975472                0.99999999               -0.03492882               -0.03492823                0.11642652               -0.00002362                0.00119674                0.00065663
               9.98763667                1.02390071               35.04077418                1.00000000               -0.03608377               -0.03731267                0.12415082               -0.00008712                0.00059533                0.00676689
               0.00308415                2.00301799               35.02870063                0.01000000               -0.02445433               -0.02216471                0.07708708               -0.01678283                0.00190733                0.10503103
               1.00283961                2.00135463               35.02906893                0.01000000               -0.09823350               -0.08044387                0.08592721               -0.03963463                0.06898750                0.09677877
               2.00111948                1.99924735               35.03077876                0.01000001               -0.16588106               -0.09045127                0.11602399                0.04727785                0.16282575                0.12436108
               2.99952198                1.99944239               35.03152078                0.01000000               -0.21645308               -0.04702663                0.08794993                0.31080448                0.07760663                0.05201730
               3.99679042                2.00183067               35.03277125                0.01000000               -0.29726613               -0.03369947                0.09883784                0.57842840                0.07504925                0.02881898
               4.99357666                2.00690608               35.03410243                0.01000001               -0.29384038               -0.09914917                0.09923028                0.79119396                0.05853106                0.02068961
               5.99091361                2.01258906               35.03540433                0.01000000               -0.33278169               -0.31939312                0.10121926                0.84464967                0.04878191               -0.00397520
               6.98692103                2.01837017               35.03681838                0.01000000               -0.21543057               -0.18423623                0.10129854                0.50328979                0.01558760                0.00890596
               7.98660500                2.02008753               35.03783529                0.11092807               -0.03276965               -0.03311812                0.10909683                0.00068211               -0.00554825               -0.00087093
               8.98626563                2.02180685               35.03882599                0.99999998               -0.03506982               -0.03500101                0.11685274                0.00000185               -0.00396292               -0.00160840
               9.98590360                2.02352714               35.03987545                1.00000000               -0.03620330               -0.03743344                0.12447675               -0.00006189               -0.00118072                0.00670629
               0.00442596                3.00280379               35.03058040                0.01000005               -0.02564189               -0.00823117                0.08330425                0.00631342                0.01571085                0.20698583
               1.00416954                3.00000432               35.03094041                0.01000001               -0.03230664               -0.17077775                0.09097586                0.06725086                0.02348521                0.16840492
               2.00377983                2.99817166               35.03139211                0.01000000               -0.09375426               -0.16325602                0.09062587                0.29411194                0.03563801                0.09390854
               3.00229446                2.99845711               35.03214393                0.01000000               -0.18508601               -0.14184774                0.09976883                0.53387465                0.06172871                0.07910490
               4.00007811                3.00101124               35.03300746                0.01000340               -0.24444872               -0.12932770                0.10145480                0.76674613                0.05990527                0.05317893
               4.99740548                3.00527432               35.03405707                0.01000000               -0.28582869               -0.17887602                0.10485143                0.93986096                0.05647829                0.04953444
               5.99436153                3.01053541               35.03517893                0.01000001               -0.30941756               -0.22838163                0.10637103                0.95559690                0.03921489                0.05924226
               6.99121713                3.01498792               35.03620258                0.01000001               -0.47246658               -0.28116088                0.11213540                0.99954861                0.00058368                0.05881997
               7.98491220                3.01975173               35.03693673                0.01000001               -0.33295995               -0.20981560                0.13656389                0.80938109               -0.03197407                0.08014879
               8.98455793                3.02145673               35.03785930                0.01000000               -0.03586745               -0.25008074                0.11730601                0.61681655               -0.00992443                0.07909117
               9.98419485                3.02315204               35.03895017                0.62508367               -0.03630787               -0.53942161                0.12479591                0.71892392               -0.00172617                0.06468922
               0.00880935                4.00285336               35.03238961                0.01000000                0.00074014               -0.04837670                0.08868462                0.14566441               -0.00289713                0.21249005
               1.00881675                3.99793908               35.03234945                0.01000000               -0.01302099               -0.25209329                0.09413520                0.31191417                0.00188146                0.14930563
               2.00854893                3.99598223               35.03242727                0.01000000               -0.07284261               -0.24413223                0.09909684                0.56321544                0.02147989                0.10225913
               3.00735990                3.99660544               35.03277928                0.01000060               -0.16204004               -0.20926719                0.10266184                0.75914686                0.04566065                0.07001106
               4.00530813                3.99924411               35.03345471                0.01000000               -0.22550937               -0.20068639                0.10699025                0.92686387                0.06661172                0.06519562
               5.00284971                4.00332856               35.03438903                0.01000001               -0.24980898               -0.21346460                0.11015379                1.03445731                0.07487602                0.07598520
               6.00031195                4.00802143               35.03547821                0.01000001               -0.25770174               -0.25667351                0.11345729                1.09624612                0.07039108                0.09989151
               6.99769568                4.01274695               35.03657527                0.01000003               -0.19940730               -0.28603037                0.11885268                1.08682291                0.05498256                0.13415766
               7.99632380                4.01589122               35.03760079                0.01000000               -0.12470134               -0.39753886                0.12295760                1.16447050                0.04232465                0.17563447
               8.99520165                4.01680524               35.03854660                0.01000000                0.02838270               -0.47349792                0.12880693                0.83593923                0.02090775                0.17682194
               9.99689146                4.01273871               35.03921639                0.01000000                0.16898078               -0.75246073                0.13209220                0.63484640                0.01613797                0.12413568
               0.01716782                5.00183626               35.03433861                0.01000000                0.01111329               -0.32566393                0.09469554                0.42272975               -0.01108790                0.24463221
               1.01727896                4.99496246               35.03384463                0.01000000               -0.03950228               -0.27067107                0.09960698                0.66626061               -0.00435435                0.16405656
               2.01637778                4.99328902               35.03346252                0.01000001               -0.15317217               -0.23301048                0.10388227                0.79139550                0.01631002                0.08075060
               3.01421551                4.99427177               35.03346360                0.01000000               -0.22427563               -0.24747320                0.10785433                0.92427629                0.05323343                0.05854731
               4.01189227                4.99699751               35.03401441                0.01000001               -0.24491017               -0.22820720                0.11178091                1.01825002                0.09117488                0.06245934
               5.00931731                5.00100503               35.03498711                0.01000001               -0.25121039               -0.22886359                0.11582681                1.06950047                0.11489379                0.08892416
               6.00686806                5.00540193               35.03624094                0.01000003               -0.21167542               -0.25846489                0.11994490                1.04058168                0.12364672                0.12946426
               7.00508380                5.00926731               35.03760973                0.01000000               -0.13623646               -0.33606831                0.12399151                0.96902347                0.11811213                0.17783257
               8.00414333                5.01180095               35.03890970                0.01000001               -0.03272861               -0.40139296                0.12830658                0.80531635                0.09700563                0.21993451
               9.00442923                5.01198677               35.03992748                0.01000000                0.04407569               -0.43511992                0.13405177                0.54468789                0.05887328                0.23344572
              10.00502484                5.00810283               35.04041160                0.01000000                0.05956131               -0.32298781                0.13994623                0.26608705                0.03675330                0.19957012
               0.03101154                5.99634009               35.03678138                0.30908399               -0.03223386               -0.28920150                0.10243228                0.50194736               -0.00321832                0.15004706
               1.03068920                5.99252566               35.03572359                0.01000001               -0.29720053               -0.13779404                0.10684004                0.61080432               -0.02319255                0.10080738
               2.02506753                5.99132202               35.03425795                0.01000000               -0.42761363               -0.24642720                0.10851498                0.84657650               -0.00817027                0.05265114
               3.02213693                5.99165597               35.03405116                0.01000001               -0.30638316               -0.25670147                0.11233362                0.92156926                0.07733889                0.02864503
               4.01893987                5.99467997               35.03457544                0.01000001               -0.31508176               -0.23228203                0.11665860                1.05986231                0.13168726                0.04921455
               5.01583530                5.99875128               35.03573263                0.01000003               -0.30392833               -0.18733351                0.12096863                1.01733834                0.17110048                0.08907203
               6.01286130                6.00285213               35.03732018                0.01000000               -0.25790822               -0.21272105                0.12595277                0.88358634                0.19128104                0.14405397
               7.01067713                6.00602559               35.03912956                0.01000001               -0.15753176               -0.28363687                0.13102739                0.69150913                0.19063175                0.20931436
               8.00971067                6.00786336               35.04087784                0.01000000               -0.04418004               -0.35971560                0.13642065                0.49453605                0.16219307                0.27321772
               9.00979353                6.00810284               35.04217766                0.01001151                0.01352117               -0.35093846                0.14182084                0.27051262                0.09848845                0.31653570
              10.00998109                6.00627895               35.04261257                0.01000001                0.01875594               -0.12663819                0.14691749                0.13037788                0.05836453                0.30828106
               0.03483563                6.99605223               35.03732126                0.99999999               -0.03225260               -0.03003053                0.10510579               -0.00067633               -0.01053823                0.03622523
               1.03451311                6.99220658               35.03607385                0.99999999               -0.03283195               -0.03233050                0.10921569               -0.00069512               -0.01055101                0.01354524
               2.03417899                6.98836047               35.03481698                0.01000000               -0.26120765               -0.16517493                0.11341490                0.49480008                0.02681429                0.01168584
               3.02928895                6.98913774               35.03431043                0.01000001               -0.40923963               -0.39025319                0.11855987                0.98313710                0.10415378                0.00310697
               4.02599420                6.99235187               35.03502834                0.01000391               -0.38985200               -0.15448726                0.11949485                1.04004565                0.18811205                0.02101220
               5.02149191                6.99725836               35.03648177                0.01000000               -0.43643596               -0.09099154                0.12577947                0.92127511                0.23777372                0.08027812
               6.01726548                7.00114751               35.03855581                0.01000001               -0.37945772               -0.09837114                0.13150800                0.65601944                0.27221188                0.14338372
               7.01390276                7.00359457               35.04105031                0.01000000               -0.26543414               -0.16760084                0.13782609                0.36782852                0.28252133                0.22391489
               8.01195680                7.00460664               35.04358193                0.01000002               -0.12394332               -0.26924642                0.14410120                0.11360856                0.25139754                0.34199798
               9.01142389                7.00496800               35.04557026                0.01000002               -0.03383104               -0.30012672                0.14985510               -0.00730222                0.15535351                0.43648322
              10.01128018                7.00557006               35.04617487                0.01000001               -0.01437143               -0.07869740                0.15449432               -0.03104094                0.08793454                0.48743482
               0.03868932                7.99573948               35.03746878                1.00000000               -0.03222590               -0.03132153                0.10501095                0.00011585               -0.00111857                0.02083594
               1.03836706                7.99187905               35.03619503                0.99999999               -0.03284705               -0.03280222                0.10944029                0.00009743               -0.00073543                0.00323874
               2.03803237                7.98801852               35.03492506                0.23271747               -0.02793898               -0.03427516                0.11383931               -0.01534472                0.04799110               -0.01426831
               3.03780828                7.98385091               35.03462505                0.01000001               -0.32061063               -0.26697208                0.10208277                0.79160960                0.14017350               -0.07412830
               4.03162016                7.99159022               35.03514619                0.01000000               -0.61715615               -0.04028397                0.12486154                1.07823885                0.23559628                0.00834337
               5.02546515                7.99693145               35.03713443                0.01000001               -0.59873423                0.05155200                0.12919936                0.72702332                0.30937031                0.06429091
               6.01964548                8.00088471               35.03973051                0.01000000               -0.54452875                0.04429107                0.13620403                0.41947165                0.35323695                0.12298492
               7.01457458                8.00267357               35.04304870                0.01000002               -0.45180355               -0.00309863                0.14383663                0.07319866                0.41234948                0.20200843
               8.01060941                8.00247843               35.04719293                0.01000002               -0.29452586               -0.09432739                0.15198120               -0.25987736                0.39889220                0.34298665
               9.00868406                8.00210031               35.05048673                0.01000001               -0.12266270               -0.22776751                0.15828710               -0.45242343                0.26719452                0.73009970
              10.00815615                8.00470500               35.05205459                0.01000000               -0.05279092               -0.28656759                0.16273082               -0.32208706                0.18269512                0.70193257
               0.04255881                8.99542580               35.03769305                1.00000000               -0.03228033               -0.03146695                0.10534254                0.00011488                0.00246460                0.01985595
               1.04223600                8.99155053               35.03633355                0.99999998               -0.03292858               -0.03293169                0.10981485                0.00003139                0.00184424                0.00288016
               2.04190024                8.98767497               35.03496214                0.99999996               -0.03432797               -0.03436181                0.11445473               -0.00013848               -0.00356759               -0.01040372
               3.04154945                8.98379829               35.03349714                0.01000000               -0.37109023               -0.02048155                0.11940463                0.57472268                0.15664764               -0.07511295
               4.03447843                8.99154619               35.03533256                0.01000000               -0.74057766                0.14972992                0.12398078                0.75616330                0.31707310                0.00389101
               5.02673789                8.99828940               35.03753195                0.01000000               -0.72828181                0.17051700                0.13185796                0.46257640                0.34834467                0.03948671
               6.01991280                9.00203334               35.04055494                0.01005272               -0.64824407                0.14685126                0.13958417                0.19656763                0.41610255                0.07561080
               7.01377301                9.00353260               35.04460294                0.01000002               -0.62901396                0.12380183                0.14807792               -0.04201449                0.51895983                0.12428496
               8.00733252                9.00272009               35.05010621                0.01000001               -0.68120793                0.12245904                0.15927038               -0.32009873                0.78939935                0.23301900
               9.00014885                9.00041265               35.05999605                0.99999998               -0.38517382               -0.11034225                0.17290467               -0.54203994                0.49479399                0.47381383
               9.99962904                8.99983871               35.05998285                0.99999999               -0.05198118               -0.26939901                0.17366702               -0.45502264               -0.00039827                0.39399074
               0.04644214                9.99511014               35.03781759                1.00000000               -0.03236281               -0.03156591                0.10568801               -0.00063934                0.01362603                0.01481747
               1.04611851                9.99122041               35.03644663                1.00000000               -0.03301484               -0.03301202                0.11017335               -0.00069177                0.01694372                0.00142055
               2.04578184                9.98733129               35.03514735                0.99999998               -0.03435008               -0.03436797                0.11466447               -0.00079621                0.01666969               -0.00328740
               3.04543151                9.98344128               35.03377965                0.34034727               -0.67647582               -0.03570180                0.11910202                0.75088309                0.15563525               -0.00508976
               4.03225233                9.99458482               35.03527165                0.01000000               -1.06009866                0.30386334                0.12577984                0.62241516                0.29353594                0.00235622
               5.02422954               10.00034179               35.03754577                0.01000000               -0.69593490                0.20523962                0.13271352                0.21101007                0.35035236                0.02843407
               6.01833363               10.00382174               35.04067632                0.01000001               -0.55910011                0.17884015                0.14109398                0.08247391                0.43316405                0.04731808
               7.01304753               10.00514961               35.04498225                0.01000000               -0.55031254                0.16170091                0.14984359               -0.01725387                0.58784404                0.07185613
               8.00732738               10.00492761               35.05153177                0.01000002               -0.61614465                0.22075232                0.16309910               -0.26332135                0.77926717                0.16616746
               9.00072464                9.99989346               35.06003648                0.99999999               -0.35618972               -0.05191926                0.17328659               -0.22295061                0.42622728                0.00032901
              10.00020358                9.99931702               35.06002329                1.00000000               -0.05210585               -0.05216882                0.17404864               -0.00018950                0.00037139               -0.00036606
              -0.00068305                0.00363989               36.02970686                1.00000000               -0.02406850               -0.02259274                0.07533481                0.00159923               -0.00336247                0.00390322
               0.99907626                0.00198456               36.03021875                1.00000000               -0.02548957               -0.02559905                0.08499137                0.00151182               -0.00361717               -0.00127757
               1.99880716                0.00033131               36.03072277                0.01000000               -0.03721570               -0.02860399                0.09464900                0.03288303                0.04509446               -0.00155812
               2.99833195               -0.00069213               36.03221092                0.01000001               -0.06429271                0.01100562                0.10844609                0.04495699                0.09833263                0.01001395
               3.99752130                0.00141529               36.03385303                0.01000000               -0.13864352                0.03911625                0.09524509                0.16238788                0.11857467               -0.00331728
               4.99555908                0.00694359               36.03574923                0.01000000               -0.39195205                0.06931204                0.09160892                0.41991570                0.14431779               -0.00767748
               5.98968226                0.01798583               36.03820214                0.12481100               -0.30810548               -0.02762816                0.09041889                0.46271016                0.08736428               -0.00110600
               6.98939697                0.01980905               36.03959058                0.99795107               -0.02985578               -0.02996452                0.09986575                0.00185371                0.02009254               -0.00473530
               7.98908515                0.02162215               36.04069574                1.00000000               -0.03237538               -0.03247202                0.10791191                0.00122161                0.00794066               -0.00052362
               8.98874946                0.02343617               36.04183784                1.00000000               -0.03476542               -0.03488057                0.11597057                0.00122394                0.00789512                0.00096479
               9.98838984                0.02525313               36.04294060                1.00000000               -0.03596239               -0.03738018                0.12402707                0.00116509                0.00590736                0.00541229
               0.00098827                1.00341396               36.02958470                1.00000000               -0.02425976               -0.02266324                0.07599719                0.00014973                0.00141130                0.00448102
               1.00074567                1.00172857               36.03009375                0.04574005               -0.02569670               -0.02577691                0.08565498                0.00006411                0.00350152               -0.00322340
               2.00047433                1.00004527               36.03064319                0.01000000               -0.12530687               -0.01519615                0.09531610                0.06610044                0.06163206                0.07108403
               2.99823953                0.99941793               36.03231836                0.01000001               -0.25735054                0.00929635                0.10336628                0.14198403                0.10276601                0.01379336
               3.99532732                1.00180645               36.03373988                0.01000000               -0.33832825                0.03055421                0.09599802                0.34694822                0.08785801                0.00883463
               4.99147297                1.00763671               36.03536942                0.01000000               -0.37253441                0.01773366                0.09533959                0.65818603                0.09486712                0.00518262
               5.98787663                1.01770954               36.03740897                0.01000001               -0.19378111               -0.23893106                0.09114522                0.60986971                0.05746015               -0.01084935
               6.98759735                1.01950940               36.03871115                0.99559645               -0.02964151               -0.03005028                0.10045779                0.00068187                0.01083088               -0.00463746
               7.98728380                1.02129743               36.03981091                1.00000000               -0.03255678               -0.03255632                0.10850894               -0.00000524                0.00126351               -0.00043436
               8.98694621                1.02308736               36.04091971                0.99999999               -0.03496411               -0.03496875                0.11656603               -0.00000694                0.00120139                0.00067207
               9.98658452                1.02487933               36.04201800                1.00000000               -0.03616876               -0.03746123                0.12461375               -0.00009751                0.00058982                0.00672228
               0.00269072                2.00318663               36.02946936                0.01000001               -0.02444882               -0.01857501                0.07666029               -0.01155089                0.00191356                0.10734235
               1.00244623                2.00146903               36.02993020                0.01000000               -0.01254557               -0.08621301                0.08631883                0.00421735                0.08346081                0.09808789
               2.00243981                2.00002739               36.03202194                0.01000001               -0.15178903               -0.08417471                0.07607399                0.04747643                0.15621348                0.11247904
               2.99941045                1.99949380               36.03244421                0.01000000               -0.30991631               -0.03631998                0.10489224                0.29494213                0.06212188                0.05025087
               3.99624148                2.00202637               36.03377384                0.01000000               -0.32953737               -0.03021650                0.10108874                0.60900030                0.07418454                0.03366179
               4.99281971                2.00729826               36.03509809                0.01000001               -0.31172608               -0.10035850                0.10087594                0.82800289                0.05314565                0.02668938
               5.99000696                2.01320721               36.03642049                0.01000000               -0.34984919               -0.33099841                0.10216302                0.88330597                0.04225513                0.00415600
               6.98582272                2.01920804               36.03783017                0.01000000               -0.22499390               -0.18994735                0.10104526                0.52387974                0.01143890                0.01455643
               7.98550709                2.02097102               36.03892624                0.12372477               -0.03276506               -0.03278351                0.10910175               -0.00021682               -0.00552082                0.00736388
               8.98516742                2.02273679               36.03999599                0.99993315               -0.03515696               -0.03508785                0.11716026                0.00005043               -0.00396606               -0.00156557
               9.98480395                2.02450391               36.04112389                1.00000000               -0.03634751               -0.03765698                0.12519470               -0.00006691               -0.00120270                0.00663499
               0.00419245                3.00304246               36.03140091                0.01000002               -0.02031985               -0.00465041                0.08072676                0.00156263                0.01510140                0.21245792
               1.00398925                3.00000431               36.03183336                0.01000001               -0.03966803               -0.17400655                0.08684425                0.08259531                0.01977575                0.17144953
               2.00339909                2.99836178               36.03229067                0.01000000               -0.09249287               -0.20285487                0.09815857                0.23900269                0.03415555                0.08205597
               3.00213939                2.99869153               36.03315243                0.01000000               -0.18481124               -0.14210094                0.10006058                0.53480910                0.06017158                0.08343105
               3.99970286                3.00120212               36.03403644                0.01000461               -0.26436003               -0.13127775                0.10508913                0.79210079                0.05503604                0.05707945
               4.99685219                3.00562954               36.03511258                0.01000000               -0.30349450               -0.18367001                0.10678369                0.98103223                0.05161524                0.05525057
               5.99363297                3.01108958               36.03625958                0.01000001               -0.32705355               -0.23570947                0.10884776                0.99779739                0.03453609                0.06548449
               6.99031112                3.01571046               36.03733233                0.01000001               -0.49411270               -0.29050204                0.11335627                1.04343490                0.00356966                0.06874680
               7.98375072                3.02064176               36.03819704                0.01000001               -0.34483948               -0.21551088                0.11342216                0.84427024               -0.03387965                0.08425984
               8.98341433                3.02238560               36.03903448                0.01000000               -0.03508858               -0.25973201                0.11776083                0.64433615               -0.01808583                0.08447787
               9.98304895                3.02412619               36.04020323                0.65549748               -0.03653839               -0.56283391                0.12577949                0.75159706               -0.00174367                0.06842739
               0.00879827                4.00309362               36.03326347                0.01000000               -0.00194514               -0.04729747                0.08590886                0.15573948               -0.00338028                0.21824424
               1.00877882                3.99798889               36.03328416                0.01000000               -0.01328126               -0.25407088                0.09300002                0.32653805                0.00151760                0.15355377
               2.00853265                3.99597029               36.03342648                0.01000000               -0.07562642               -0.25904383                0.09922879                0.59826309                0.01988984                0.10808747
               3.00726629                3.99665178               36.03381505                0.01000179               -0.16935804               -0.22341257                0.10504476                0.78688222                0.04296214                0.07303190
               4.00514549                3.99940082               36.03453253                0.01000000               -0.23566998               -0.20691996                0.10865539                0.96412178                0.06329348                0.06936247
               5.00255290                4.00362486               36.03549964                0.01000001               -0.26317467               -0.22019378                0.11213851                1.07811597                0.07086095                0.08138478
               5.99988200                4.00849302               36.03662354                0.01000001               -0.27068286               -0.26545701                0.11550089                1.14495499                0.06683545                0.10645426
               6.99713924                4.01339800               36.03777066                0.01000635               -0.20823258               -0.29656735                0.11940941                1.13763279                0.05188598                0.14111186
               7.99571734                4.01666081               36.03884154                0.01000000               -0.12847634               -0.41321039                0.12463411                1.21590274                0.03914162                0.17629080
               8.99456971                4.01754215               36.03983381                0.01000000                0.03186835               -0.49374773                0.12837839                0.87060574                0.01848281                0.18564528
               9.99635471                4.01324723               36.04055005                0.01000000                0.17849992               -0.78634705                0.13415056                0.66217217                0.01422459                0.13124950
               0.01751668                5.00209651               36.03526918                0.01000000                0.01266508               -0.33731043                0.09220925                0.44347601               -0.01095272                0.25175735
               1.01764334                4.99492290               36.03483311                0.01000000               -0.04076098               -0.27858238                0.09818151                0.70012487               -0.00455446                0.16970028
               2.01670147                4.99318090               36.03449932                0.01000001               -0.15984107               -0.23981427                0.10370727                0.82851508                0.01544804                0.08431798
               3.01444651                4.99422328               36.03454865                0.01000000               -0.23446243               -0.25644790                0.10860257                0.96705238                0.05166126                0.06222132
               4.01201222                4.99706372               36.03513901                0.01000001               -0.25620997               -0.23640619                0.11320931                1.06234448                0.08896110                0.06723191
               5.00932231                5.00122567               36.03615357                0.01000001               -0.26266409               -0.23628522                0.11742164                1.11537347                0.11236728                0.09426415
               6.00675893                5.00578044               36.03744874                0.01000003               -0.22131631               -0.26772351                0.12166933                1.08595239                0.12095998                0.13601678
               7.00489599                5.00977911               36.03886067                0.01000000               -0.14171539               -0.34971439                0.12607845                1.01175216                0.11579956                0.18516667
               8.00392463                5.01237755               36.04021140                0.01000001               -0.03279831               -0.41985902                0.13090008                0.83984484                0.09570702                0.22769898
               9.00424002                5.01251065               36.04128071                0.01000000                0.04788032               -0.45469364                0.13619220                0.56693571                0.05828939                0.24059605
              10.00488223                5.00839925               36.04182189                0.01000255                0.06422108               -0.33853766                0.14200521                0.27639940                0.03663602                0.20621234
               0.03201503                5.99634741               36.03779491                0.28018373               -0.03181001               -0.30136626                0.10019560                0.52892173               -0.00324708                0.15488210
               1.03169693                5.99241725               36.03678338                0.01000001               -0.31062306               -0.14090458                0.10504130                0.64105714               -0.02426877                0.10490611
               2.02580257                5.99117401               36.03534212                0.01000000               -0.44862031               -0.25190853                0.10790724                0.88557980               -0.00972971                0.05725610
               3.02272452                5.99152282               36.03516843                0.01000001               -0.32062896               -0.26395809                0.11270887                0.96336258                0.07671849                0.03843950
               4.01938999                5.99467269               36.03575227                0.01000001               -0.32904370               -0.23808899                0.11748934                1.10522561                0.13048364                0.05263647
               5.01614365                5.99889916               36.03694829                0.01000003               -0.31711958               -0.19327718                0.12230948                1.06113501                0.16952546                0.09465839
               6.01304760                6.00313855               36.03858861                0.01000000               -0.26832420               -0.22010208                0.12767614                0.92126599                0.19049219                0.15026435
               7.01077717                6.00640371               36.04044892                0.01000001               -0.16324487               -0.29515189                0.13293908                0.72110951                0.19010827                0.21674162
               8.00978270                6.00826363               36.04224977                0.01000000               -0.04452201               -0.37538120                0.13825902                0.51544923                0.16215337                0.28114202
               9.00988673                6.00844828               36.04360476                0.01000001                0.01613966               -0.36680008                0.14375639                0.28169211                0.09865343                0.32422730
              10.01010549                6.00647648               36.04409184                0.01005417                0.02187686               -0.13409393                0.14923959                0.13553555                0.05839943                0.31462956
               0.03595544                6.99606919               36.03836361                0.99999999               -0.03175646               -0.02934381                0.10324359               -0.00070955               -0.01084872                0.03708310
               1.03563788                6.99210480               36.03715957                0.99999999               -0.03239786               -0.03184763                0.10784696               -0.00070090               -0.01070283                0.01447611
               2.03530749                6.98814273               36.03594772                0.01000000               -0.27113990               -0.16855810                0.11257991                0.51556908                0.03131911                0.01369426
               3.03021508                6.98894412               36.03557669                0.01000001               -0.42835469               -0.38501637                0.11759292                1.01778827                0.10086328               -0.02336708
               4.02674039                6.99230194               36.03619618                0.01000802               -0.40679585               -0.15895973                0.11801729                1.08438766                0.18102508                0.03125264
               5.02207916                6.99736012               36.03775184                0.01000000               -0.45303466               -0.09224157                0.12712172                0.95882900                0.23935599                0.08446849
               6.01767970                7.00137839               36.03987939                0.01000001               -0.39430319               -0.10118577                0.13331708                0.68341906                0.27295115                0.14883016
               7.01419310                7.00387607               36.04243744                0.01000000               -0.27453254               -0.17437111                0.13967433                0.38312476                0.28417421                0.23061077
               8.01218905                7.00486993               36.04503172                0.01000002               -0.12660437               -0.28082168                0.14591240                0.11901151                0.25275861                0.34981184
               9.01166101                7.00517465               36.04707538                0.01000002               -0.03262509               -0.31371029                0.15158745               -0.00684450                0.15615916                0.44419866
              10.01153655                7.00571737               36.04772624                0.01000001               -0.01244661               -0.08381995                0.15646189               -0.03137929                0.08847824                0.49437093
               0.03992961                7.99576053               36.03851409                1.00000000               -0.03202403               -0.03103059                0.10400680                0.00023037               -0.00109969                0.02065477
               1.03960937                7.99178029               36.03728721                0.99999999               -0.03274842               -0.03262056                0.10891114                0.00008902               -0.00080750                0.00327216
               2.03927464                7.98780285               36.03606126                0.24757510               -0.03441437               -0.03414342                0.11358974               -0.00026802                0.00725395               -0.01403178
               3.03892108                7.98382249               36.03499396                0.01000001               -0.33064513               -0.27354032                0.06827423                0.81922143                0.13674054               -0.06308640
               4.03266174                7.99149350               36.03648158                0.01000000               -0.63386513               -0.03865150                0.12593739                1.10562584                0.26747809                0.01144080
               5.02624378                7.99705433               36.03842507                0.01000001               -0.62308536                0.05578040                0.13070076                0.75642356                0.30596930                0.06724406
               6.02020003                8.00111483               36.04110430                0.01000000               -0.56478244                0.04689375                0.13815208                0.43508480                0.35668567                0.12704140
               7.01494813                8.00291629               36.04449667                0.01000002               -0.46678367               -0.00344456                0.14579046                0.07537905                0.41614683                0.20703874
               8.01086436                8.00264719               36.04871887                0.01000002               -0.30228690               -0.09982472                0.15359924               -0.27122938                0.40310986                0.35076129
               9.00890239                8.00217407               36.05207981                0.01000000               -0.12359488               -0.24003599                0.16010895               -0.46767653                0.26923888                0.73991475
              10.00839246                8.00480008               36.05369679                0.01000000               -0.05099322               -0.29624975                0.16496527               -0.33250566                0.18387861                0.70863158
               0.04392053                8.99544858               36.03874554                1.00000000               -0.03231820               -0.03141203                0.10516193                0.00023699                0.00248791                0.01989960
               1.04359734                8.99145239               36.03743317                0.99999998               -0.03303010               -0.03299328                0.11008787                0.00010215                0.00186329                0.00296022
               2.04325992                8.98745986               36.03610869                0.99999996               -0.03442443               -0.03448703                0.11499766                0.00024735               -0.00348867               -0.01006039
               3.04290886                8.98347331               36.03469236                0.01000000               -0.38194244               -0.03564928                0.12002115                0.60250278                0.15603599               -0.03396697
               4.03562108                8.99152891               36.03656197                0.01000000               -0.76612762                0.15882503                0.12378789                0.78110768                0.31837679                0.00007069
               5.02758630                8.99847573               36.03886319                0.01000000               -0.75508232                0.17793109                0.13390864                0.47784580                0.35212971                0.04091769
               6.02051943                9.00231627               36.04196222                0.01006295               -0.67089921                0.15281893                0.14175067                0.20295689                0.41994730                0.07782432
               7.01416832                9.00380718               36.04609277                0.01000002               -0.65063745                0.12852615                0.15030947               -0.04551484                0.52566075                0.12678827
               8.00750668                9.00287343               36.05171225                0.01010947               -0.70068623                0.12556691                0.16094906               -0.33613314                0.79766969                0.23817917
               9.00015459                9.00037393               36.06172612                0.99999998               -0.39361295               -0.11598067                0.17311297               -0.56230373                0.50065485                0.48052396
               9.99963442                8.99979238               36.06171962                0.99999999               -0.05201733               -0.27645489                0.17368522               -0.46694462               -0.00040175                0.39858242
               0.04792671                9.99513229               36.03887746                1.00000000               -0.03265926               -0.03162843                0.10632615               -0.00056751                0.01361843                0.01485322
               1.04760012                9.99112043               36.03755354                1.00000000               -0.03340224               -0.03319640                0.11126086               -0.00068153                0.01694692                0.00148256
               2.04725867                9.98711311               36.03630212                0.99999998               -0.03490170               -0.03467585                0.11628538               -0.00067144                0.01669132               -0.00308294
               3.04690209                9.98310951               36.03498230                0.36739744               -0.69886002               -0.03637998                0.12131361                0.77716791                0.15676748               -0.00491943
               4.03328147                9.99467000               36.03654438                0.01000000               -1.09443761                0.31410877                0.12849626                0.64121137                0.29604159                0.00553782
               5.02501334               10.00061295               36.03888450                0.01000000               -0.71768766                0.21372194                0.13529865                0.21776369                0.35366282                0.02826245
               6.01892772               10.00417121               36.04210242                0.01000001               -0.57663337                0.18549391                0.14379226                0.08452202                0.43727951                0.04842041
               7.01348067               10.00548682               36.04648858                0.01000000               -0.56763850                0.16796349                0.15216891               -0.01939903                0.59583003                0.07303097
               8.00757495               10.00515853               36.05317731                0.01000002               -0.63716484                0.22850966                0.16457406               -0.27479122                0.78533729                0.16916763
               9.00073737                9.99985446               36.06176928                0.99999999               -0.36791398               -0.05194684                0.17327198               -0.23609974                0.43025775                0.00033489
              10.00021667                9.99927098               36.06176276                1.00000000               -0.05207052               -0.05213970                0.17384280               -0.00012335                0.00037017               -0.00037095
              -0.00127687                0.00379777               37.03045587                1.00000000               -0.02392952               -0.02235575                0.07447688                0.00175949               -0.00337092                0.00390846
               0.99848384                0.00209346               37.03106842                0.99999999               -0.02547012               -0.02561740                0.08494406                0.00164111               -0.00362423               -0.00128118
               1.99821373                0.00039199               37.03167313                0.01000000               -0.03753244               -0.02887916                0.09541308                0.03378634                0.04567959               -0.00155252
               2.99773319               -0.00066347               37.03327361                0.01000001               -0.06409284                0.01036925                0.10638135                0.04377706                0.11455038                0.00572395
               3.99693187                0.00149327               37.03479190                0.01000000               -0.14575218                0.04478395                0.09526404                0.16994050                0.11465146               -0.00539290
               4.99481814                0.00724043               37.03667929                0.01000000               -0.41680465                0.07716636                0.09613989                0.43854597                0.13632957               -0.00492032
               5.98859578                0.01876398               37.03910394                0.11558164               -0.32536191               -0.02760484                0.08983697                0.48431733                0.08256549               -0.00120780
               6.98831090                0.02063811               37.04058578                0.99728769               -0.02975206               -0.02978166                0.09915327                0.00209893                0.02066695               -0.00474472
               7.98800074                0.02249880               37.04177296                1.00000000               -0.03225663               -0.03238921                0.10752131                0.00126592                0.00796013               -0.00051988
               8.98766577                0.02436099               37.04299723                1.00000000               -0.03474234               -0.03489402                0.11591182                0.00126913                0.00791288                0.00096527
               9.98730589                0.02622684               37.04418214                1.00000000               -0.03598818               -0.03749713                0.12428923                0.00118362                0.00591278                0.00540610
               0.00044503                1.00357421               37.03034143                1.00000000               -0.02419006               -0.02245711                0.07534858                0.00018774                0.00141044                0.00448341
               1.00020313                1.00183728               37.03095114                0.06176525               -0.02574904               -0.02583399                0.08581890                0.00006974                0.00350691               -0.00323040
               1.99993005                1.00010320               37.03160130                0.01000000               -0.12914089               -0.02712663                0.09631334                0.05594777                0.05889382                0.03671420
               2.99762032                0.99944023               37.03332238                0.01000001               -0.26253629                0.01384008                0.09538980                0.15586242                0.12324464                0.02250467
               3.99467933                1.00194111               37.03469928                0.01000000               -0.35260333                0.03570357                0.09910708                0.36301103                0.08509593                0.01416198
               4.99056825                1.00801210               37.03633583                0.01000000               -0.39696084                0.02281370                0.09885048                0.68608010                0.08515974                0.00916806
               5.98674011                1.01848793               37.03831915                0.01000001               -0.20518825               -0.24712020                0.09080042                0.63795278                0.05102993               -0.00545341
               6.98646448                1.02034030               37.03971333                0.99463861               -0.02940761               -0.02989972                0.09996733                0.00100632                0.01133172               -0.00463237
               7.98615196                1.02217491               37.04089512                1.00000000               -0.03250209               -0.03250590                0.10833135               -0.00001105                0.00127101               -0.00043031
               8.98581444                1.02401205               37.04208604                0.99999999               -0.03500433               -0.03501133                0.11670749               -0.00000723                0.00120569                0.00066763
               9.98545187                1.02585187               37.04326646                1.00000000               -0.03625704               -0.03761154                0.12508025               -0.00012474                0.00058912                0.00671803
               0.00220074                2.00334862               37.03023384                0.01000000               -0.02444974               -0.01576849                0.07623642               -0.00628192                0.00191309                0.10844126
               1.00195624                2.00157678               37.03079531                0.01000000               -0.02354977               -0.08789662                0.08668981               -0.00135015                0.04910524                0.09663952
               2.00172974                1.99984946               37.03230024                0.01000001               -0.14718588               -0.08474811                0.05302005                0.06251833                0.07565120                0.08037876
               2.99901252                1.99961334               37.03361862                0.01000000               -0.30547587               -0.03426721                0.10686039                0.32448458                0.06438641                0.04869161
               3.99562022                2.00220735               37.03479302                0.01000000               -0.35097975               -0.02734882                0.10431785                0.63113636                0.05663439                0.03998715
               4.99199293                2.00769671               37.03611995                0.01000001               -0.32967954               -0.10171591                0.10326746                0.86303127                0.04509961                0.03183827
               5.98902663                2.01382158               37.03744759                0.01000000               -0.36744355               -0.34229473                0.10323362                0.92179031                0.03346857                0.01273968
               6.98464406                2.02004012               37.03883929                0.01000000               -0.23489341               -0.19589700                0.10078465                0.54568453                0.00643981                0.02062881
               7.98432876                2.02184868               37.04001733                0.12978253               -0.03276952               -0.03266421                0.10913592                0.00005713               -0.00552392                0.00287211
               8.98398866                2.02366076               37.04116919                0.99999999               -0.03525078               -0.03517920                0.11748769                0.00007571               -0.00397350               -0.00158057
               9.98362375                2.02547461               37.04237935                1.00000000               -0.03649161               -0.03787228                0.12587191               -0.00008377               -0.00120433                0.00664360
               0.00386309                3.00325884               37.03219494                0.01000000               -0.01877931                0.00006755                0.07869501                0.00703215                0.00975437                0.21555506
               1.00367530                3.00007935               37.03267729                0.01000001               -0.03596134               -0.17831912                0.08472724                0.09386247                0.01965125                0.17695079
               2.00314386                2.99840824               37.03335529                0.01000000               -0.09615875               -0.19570629                0.09854909                0.26808126                0.03637838                0.10429202
               3.00175212                2.99875488               37.03414515                0.01000000               -0.19625886               -0.14717408                0.10115386                0.55432371                0.04269700                0.06688968
               3.99921868                3.00139414               37.03510924                0.01000677               -0.27687386               -0.13392787                0.10756084                0.82460407                0.04680410                0.05840513
               4.99621464                3.00597778               37.03619274                0.01000000               -0.31930905               -0.18907207                0.10894691                1.02154450                0.04370098                0.05961704
               5.99283250                3.01164204               37.03735588                0.01000001               -0.34317872               -0.24301084                0.11016808                1.03977928                0.02968305                0.07156738
               6.98935107                3.01642236               37.03846971                0.01000001               -0.51500228               -0.29996331                0.11272703                1.08754680               -0.00650768                0.07676985
               7.98253246                3.02152163               37.03920517                0.01000001               -0.35805209               -0.22230056                0.10243455                0.88004173               -0.03889574                0.09118987
               8.98219003                3.02330846               37.04021452                0.01000001               -0.03549811               -0.26944197                0.11824876                0.67234656               -0.01363264                0.08912452
               9.98182250                3.02509443               37.04146576                0.67915210               -0.03675313               -0.58647901                0.12667145                0.78458241               -0.00174457                0.07244480
               0.00870035                4.00334997               37.03410779                0.01000001               -0.00162659               -0.04594403                0.08354496                0.16393275               -0.00395395                0.22498767
               1.00868409                3.99801040               37.03420945                0.01000000               -0.01422602               -0.26110553                0.09190382                0.34338970                0.00160905                0.15769424
               2.00841583                3.99593533               37.03441185                0.01000000               -0.07854968               -0.26742523                0.09933888                0.62433983                0.01824902                0.10340580
               3.00711310                3.99666985               37.03488017                0.01000338               -0.17632123               -0.22960327                0.10610072                0.82251900                0.04036886                0.07354228
               4.00488941                3.99952879               37.03562782                0.01000000               -0.24685901               -0.21358646                0.11026487                1.00466509                0.05735322                0.06959704
               5.00217592                4.00391526               37.03663180                0.01000001               -0.27558859               -0.22680573                0.11389185                1.12364291                0.06585238                0.08507831
               5.99937764                4.00896136               37.03778823                0.01000001               -0.28302553               -0.27424163                0.11700249                1.19366191                0.06226629                0.11202655
               6.99651540                4.01404085               37.03896346                0.01001307               -0.21670736               -0.30649853                0.11945400                1.18636862                0.04908889                0.14645801
               7.99504349                4.01740267               37.04009347                0.01000000               -0.13263052               -0.42874623                0.12430218                1.26680235                0.03615895                0.18912164
               8.99386279                4.01827192               37.04111417                0.01000000                0.03499911               -0.51403622                0.12811562                0.90684305                0.01556439                0.19357189
               9.99574347                4.01374503               37.04189940                0.01000000                0.18806788               -0.82045737                0.13558951                0.68994568                0.01326651                0.13846326
               0.01782090                5.00233996               37.03618279                0.01000000                0.01368278               -0.35033407                0.09020912                0.46519325               -0.01033899                0.25785937
               1.01795773                4.99485724               37.03580826                0.01000000               -0.04248518               -0.28565368                0.09682057                0.73461512               -0.00406523                0.17313360
               2.01697120                4.99305973               37.03553666                0.01000001               -0.16743428               -0.24582963                0.10326310                0.86888171                0.01495993                0.08667326
               3.01460905                4.99416282               37.03563565                0.01000000               -0.24523116               -0.26365631                0.10900734                1.01053684                0.04987169                0.06383380
               4.01206658                4.99712241               37.03627859                0.01000001               -0.26770579               -0.24266285                0.11423396                1.10795576                0.08659678                0.06957085
               5.00925493                5.00144166               37.03733555                0.01000001               -0.27432115               -0.24345423                0.11881917                1.16241730                0.10936472                0.09812571
               6.00658015                5.00615721               37.03867433                0.01000226               -0.23088998               -0.27672968                0.12326467                1.13218012                0.11836336                0.14140559
               7.00463713                5.01029239               37.04013130                0.01000000               -0.14713590               -0.36286030                0.12772983                1.05461152                0.11364282                0.19140173
               8.00363744                5.01294670               37.04152770                0.01000001               -0.03263011               -0.43683952                0.13228514                0.87448770                0.09360664                0.23414699
               9.00398453                5.01302774               37.04265132                0.01000000                0.05188774               -0.47396084                0.13747126                0.59001530                0.05678990                0.24802418
              10.00467519                5.00868528               37.04325170                0.01000002                0.06906623               -0.35389191                0.14368450                0.28732621                0.03557342                0.21258669
               0.03296966                5.99634329               37.03878529                0.25269259               -0.03130392               -0.31326237                0.09772050                0.55569497               -0.00332470                0.15875160
               1.03265662                5.99229732               37.03782441                0.01000001               -0.32408817               -0.14324857                0.10302238                0.67163288               -0.02513517                0.10812946
               2.02648789                5.99101874               37.03641610                0.01000000               -0.46977297               -0.25722593                0.10695050                0.92582322               -0.01036574                0.05995334
               3.02326116                5.99139673               37.03630534                0.01000001               -0.33591063               -0.26589767                0.11262294                1.00527538                0.07596703                0.03808825
               4.01976968                5.99467553               37.03692522                0.01000001               -0.34358467               -0.24374001                0.11760456                1.15112138                0.12866146                0.05475805
               5.01638946                5.99904618               37.03817882                0.01000211               -0.32995814               -0.19853595                0.12359055                1.10460624                0.16877232                0.09866178
               6.01317052                6.00342677               37.03987371                0.01000000               -0.27856617               -0.22743892                0.12924982                0.95981058                0.18962725                0.15578029
               7.01081814                6.00678365               37.04178834                0.01000001               -0.16863130               -0.30666745                0.13478355                0.75179494                0.18939624                0.22323049
               8.00979789                6.00866588               37.04364302                0.01000000               -0.04468095               -0.39064677                0.14018097                0.53728266                0.16164582                0.28855382
               9.00992452                6.00879271               37.04505278                0.01000824                0.01885143               -0.38254053                0.14585481                0.29346703                0.09846804                0.33134082
              10.01017492                6.00666719               37.04559736                0.01000000                0.02503979               -0.14163698                0.15175595                0.14109090                0.05836656                0.32050758
               0.03702675                6.99607471               37.03938613                0.99999999               -0.03118052               -0.02863250                0.10114123               -0.00067347               -0.01107479                0.03772401
               1.03671494                6.99199227               37.03823079                0.99999999               -0.03192445               -0.03132183                0.10632028               -0.00061921               -0.01083513                0.01518936
               2.03638826                6.98791521               37.03706858                0.01000000               -0.28285898               -0.17209089                0.11160141                0.54177043                0.02700290                0.01529820
               3.03105776                6.98884486               37.03666229                0.01000001               -0.44743529               -0.39616115                0.11080208                1.05970043                0.09806143               -0.03046113
               4.02743955                6.99224761               37.03738868                0.01001335               -0.42309714               -0.16111394                0.11952628                1.11975045                0.18481681                0.03082237
               5.02259582                6.99747094               37.03902420                0.01000000               -0.47003272               -0.09405988                0.12790640                0.99665885                0.24013446                0.08926260
               6.01803890                7.00160843               37.04122215                0.01000001               -0.40809526               -0.10420258                0.13496612                0.71125860                0.27401808                0.15376920
               7.01443391                7.00415904               37.04384380                0.01000000               -0.28324341               -0.18123142                0.14153642                0.39950676                0.28535186                0.23693200
               8.01237403                7.00513377               37.04650018                0.01000002               -0.12906790               -0.29263743                0.14779045                0.12542316                0.25397996                0.35733113
               9.01185256                7.00537693               37.04860201                0.01000002               -0.03129989               -0.32724229                0.15354430               -0.00574097                0.15672850                0.45194257
              10.01174803                7.00585254               37.04930411                0.01000001               -0.01045244               -0.08914700                0.15861238               -0.03119631                0.08887995                0.50055109
               0.04112107                7.99577064               37.03954891                1.00000000               -0.03173415               -0.03071477                0.10289432                0.00035189               -0.00109519                0.02051616
               1.04080373                7.99167089               37.03837325                0.99999999               -0.03251819               -0.03244308                0.10827377                0.00007306               -0.00084592                0.00328799
               2.04047071                7.98757692               37.03719686                0.26061481               -0.03404783               -0.03411537                0.11354309               -0.00071815               -0.00223438               -0.01391682
               3.04012277                7.98347351               37.03599054                0.01000001               -0.34660487               -0.28571264                0.10589744                0.85177279                0.14034959               -0.07330899
               4.03353861                7.99145325               37.03766494                0.01000551               -0.65804751               -0.03814003                0.12066746                1.14635330                0.27630057                0.01487632
               5.02696182                7.99716498               37.03974845                0.01000001               -0.64155069                0.05886898                0.13227464                0.78369398                0.30999465                0.07015800
               6.02070759                8.00134272               37.04249355                0.01000000               -0.58394418                0.04916347                0.13993072                0.45186496                0.35923512                0.13068131
               7.01528294                8.00315902               37.04596451                0.01000002               -0.48095667               -0.00412898                0.14755009                0.07863502                0.42047811                0.21268037
               8.01108846                8.00281313               37.05026492                0.01000002               -0.30960052               -0.10542654                0.15556561               -0.28163157                0.40646316                0.35816794
               9.00909093                8.00224786               37.05368891                0.01000001               -0.12443441               -0.25216338                0.16176199               -0.48134305                0.27197886                0.75000853
              10.00859977                8.00488425               37.05535389                0.01000000               -0.04911541               -0.30540772                0.16674485               -0.34206152                0.18558471                0.71540892
               0.04523330                8.99546042               37.03979629                1.00000000               -0.03231786               -0.03136380                0.10497212                0.00036275                0.00250418                0.01994622
               1.04491012                8.99134341               37.03853531                0.99999998               -0.03310136               -0.03307783                0.11035092                0.00007766                0.00188990                0.00303113
               2.04457127                8.98723291               37.03726209                0.99999997               -0.03466179               -0.03470749                0.11573699                0.00017018               -0.00344425               -0.00991038
               3.04421689                8.98313061               37.03589756                0.01000000               -0.39480671               -0.03552495                0.12117200                0.62268646                0.15541879               -0.02455935
               4.03667514                8.99148481               37.03780831                0.01000000               -0.79183257                0.16387544                0.12616821                0.81250317                0.31886545                0.00303527
               5.02838024                8.99864832               37.04021012                0.01000000               -0.77964901                0.18497183                0.13556660                0.49449064                0.35631406                0.04185391
               6.02108216                9.00259170               37.04338996                0.01007856               -0.69220199                0.15835091                0.14348625                0.20978414                0.42482601                0.07959074
               7.01453620                9.00407646               37.04760913                0.01000002               -0.67148020                0.13297998                0.15280612               -0.04800789                0.53209951                0.13002746
               8.00765256                9.00302523               37.05332519                0.01000001               -0.71908112                0.12838484                0.16063873               -0.35389201                0.81047865                0.24433211
               9.00015457                9.00033366               37.06345831                0.99999998               -0.40092717               -0.12170067                0.17332960               -0.58137137                0.50637748                0.48665985
               9.99963401                8.99974439               37.06345655                0.99999999               -0.05205609               -0.28304644                0.17369969               -0.47771506               -0.00040590                0.40254635
               0.04936234                9.99514337               37.03994411                1.00000000               -0.03295514               -0.03170480                0.10700570               -0.00049998                0.01366851                0.01489565
               1.04903279                9.99100933               37.03867185                1.00000000               -0.03377175               -0.03340790                0.11241370               -0.00076307                0.01705308                0.00153616
               2.04868691                9.98688277               37.03747306                0.99999998               -0.03540946               -0.03501343                0.11790330               -0.00075297                0.01687850               -0.00298211
               3.04832460                9.98276301               37.03620593                0.41641663               -0.72079732               -0.03676051                0.12337036                0.80317075                0.15803455               -0.00493912
               4.03427096                9.99473076               37.03784157                0.01003096               -1.12899278                0.32459540                0.13079632                0.66465260                0.29859715                0.00804788
               5.02574475               10.00086442               37.04025175                0.01000676               -0.73979084                0.22160958                0.13816122                0.22539949                0.35679546                0.02820636
               6.01947514               10.00450973               37.04355216                0.01000001               -0.59277512                0.19180367                0.14557101                0.08700826                0.44260140                0.04934083
               7.01388924               10.00581862               37.04802563                0.01000000               -0.58608631                0.17421606                0.15558673               -0.02114053                0.60210462                0.07362627
               8.00775342               10.00538083               37.05482325                0.01000002               -0.65724468                0.23555958                0.16306688               -0.29015252                0.79831727                0.17280637
               9.00074435                9.99981385               37.06350192                0.99999999               -0.37646955               -0.05198153                0.17325857               -0.24889771                0.43435628                0.00033472
              10.00022403                9.99922333               37.06350015                1.00000000               -0.05203233               -0.05210599                0.17362892               -0.00005085                0.00037272               -0.00037220
              -0.00197557                0.00394694               38.03119640                1.00000000               -0.02379126               -0.02212735                0.07364530                0.00191977               -0.00340946                0.00393169
               0.99778652                0.00219351               38.03191763                0.99999999               -0.02544359               -0.02564286                0.08489062                0.00179218               -0.00365672               -0.00130065
               1.99751556                0.00044394               38.03263103                0.01632673               -0.01411687               -0.02914899                0.09612457                0.03310667                0.04558208               -0.00153810
               2.99750418               -0.00067518               38.03433855                0.01000001               -0.05534552                0.01981923                0.06964512                0.06266261                0.08983901               -0.01481339
               3.99640865                0.00149268               38.03575831                0.01000000               -0.17652764                0.05958965                0.10734021                0.17107804                0.09003712                0.00114815
               4.99397363                0.00753211               38.03767203                0.01000000               -0.44907861                0.08473041                0.09802022                0.46019433                0.11917966               -0.00372292
               5.98742708                0.01953125               38.03999888                0.10682945               -0.34161676               -0.02744184                0.08901707                0.50561305                0.07396859               -0.00133564
               6.98714130                0.02145906               38.04157364                0.99661210               -0.02970895               -0.02958100                0.09838227                0.00248034                0.02108042               -0.00473311
               7.98683290                0.02336742               38.04284617                1.00000000               -0.03213796               -0.03229678                0.10711243                0.00130113                0.00800818               -0.00050659
               8.98649854                0.02527785               38.04415608                1.00000000               -0.03473131               -0.03491041                0.11587504                0.00130500                0.00794889                0.00096604
               9.98613827                0.02719262               38.04542639                1.00000000               -0.03602623               -0.03761347                0.12456322                0.00119561                0.00592685                0.00540526
              -0.00020293                1.00372567               38.03109167                1.00000000               -0.02411199               -0.02224962                0.07471075                0.00022151                0.00144100                0.00450171
               0.99955595                1.00193708               38.03181012                0.07815835               -0.02580463               -0.02589231                0.08599165                0.00010950                0.00353294               -0.00326019
               1.99928097                1.00015245               38.03256946                0.01000000               -0.09747532               -0.02814798                0.09735887                0.05999471                0.05024047                0.02691662
               2.99760644                0.99952301               38.03422616                0.01000001               -0.26325925                0.01600214                0.08583098                0.13186741                0.10634677                0.01496557
               3.99401579                1.00208857               38.03572202                0.01000000               -0.40250754                0.04617412                0.10805340                0.36602947                0.06973254                0.01626706
               4.98955629                1.00837941               38.03734643                0.01000000               -0.42480277                0.02730048                0.10072133                0.71308777                0.06649233                0.01002196
               5.98551973                1.01925683               38.03922498                0.01000001               -0.21541379               -0.25529891                0.09024446                0.66568798                0.04181270                0.00054953
               6.98524801                1.02116325               38.04071050                0.99368122               -0.02916091               -0.02974089                0.09946100                0.00140555                0.01164862               -0.00461604
               7.98493651                1.02304445               38.04197754                1.00000000               -0.03245126               -0.03245018                0.10815512               -0.00003490                0.00128187               -0.00041862
               8.98459899                1.02492875               38.04325385                0.99999999               -0.03505243               -0.03505793                0.11686470               -0.00002875                0.00121154                0.00065188
               9.98423547                1.02681648               38.04451961                0.99999998               -0.03635218               -0.03775714                0.12554374               -0.00016280                0.00058806                0.00671680
               0.00160604                2.00350195               38.03099408                0.01000001               -0.02441093               -0.01230267                0.07584216               -0.00134103                0.00195651                0.10890474
               1.00136193                2.00167566               38.03166399                0.01000000               -0.02382590               -0.09039463                0.08703409                0.00225040                0.03934214                0.09518054
               2.00112952                1.99988098               38.03308234                0.01000001               -0.15782643               -0.09082154                0.08396187                0.06735164                0.07990861                0.08736392
               2.99820540                1.99964486               38.03458141                0.01000000               -0.31283413               -0.03776210                0.10062833                0.30840629                0.05919468                0.04773208
               3.99487284                2.00241616               38.03586020                0.01000000               -0.35691372               -0.02765749                0.10599677                0.65044080                0.04477215                0.03862206
               4.99106713                2.00807812               38.03716344                0.01000001               -0.34579214               -0.10346868                0.10496034                0.89661947                0.03180916                0.03354200
               5.98795700                2.01442527               38.03848516                0.01000000               -0.38426733               -0.35382719                0.10366488                0.96080329                0.02214295                0.02131737
               6.98338178                2.02086424               38.03984586                0.01000000               -0.24451483               -0.20207847                0.10056228                0.56884090                0.00061572                0.02569208
               7.98306670                2.02271842               38.04110896                0.13345028               -0.03279264               -0.03275220                0.10921030                0.00019641               -0.00557051               -0.00013799
               8.98272593                2.02457670               38.04234574                0.99999999               -0.03535759               -0.03528189                0.11783014                0.00005793               -0.00401402               -0.00162846
               9.98235955                2.02643748               38.04364132                1.00000000               -0.03663802               -0.03807277                0.12651490               -0.00011637               -0.00121929                0.00665324
               0.00342282                3.00347961               38.03297481                0.01000127               -0.02008947                0.00517838                0.07797608                0.01044842                0.00581411                0.21851275
               1.00322193                3.00012918               38.03352790                0.01000001               -0.03820076               -0.18319233                0.08587409                0.10007054                0.01378419                0.17739350
               2.00265881                2.99833601               38.03426165                0.01000000               -0.09912720               -0.20119709                0.09259940                0.28679836                0.02970804                0.11078706
               3.00123938                2.99876777               38.03517551                0.01000000               -0.20337278               -0.15063710                0.10276477                0.59258525                0.03904801                0.06660060
               3.99859135                3.00153542               38.03618765                0.01000877               -0.28799073               -0.13963777                0.10838364                0.86051785                0.03807694                0.05578899
               4.99547957                3.00631004               38.03729152                0.01000000               -0.33208392               -0.19472446                0.11006077                1.06436346                0.03487832                0.06202668
               5.99194967                3.01218029               38.03846294                0.01000001               -0.35739421               -0.25050833                0.11078692                1.08251517                0.02189216                0.07676043
               6.98833168                3.01712168               38.03958687                0.01000001               -0.53608412               -0.30993365                0.11173961                1.13215559               -0.01737637                0.08491867
               7.98122799                3.02238941               38.04024573                0.01000001               -0.37252978               -0.22988548                0.10594939                0.91622699               -0.04429001                0.09720821
               8.98088109                3.02422311               38.04139946                0.01000000               -0.03582057               -0.27999530                0.11875879                0.70073780               -0.01072575                0.09348074
               9.98051158                3.02605503               38.04273666                0.70295287               -0.03695097               -0.61034597                0.12749655                0.81769294               -0.00175164                0.07660514
               0.00851587                4.00360552               38.03493436                0.01000805               -0.00089247               -0.04517065                0.08209244                0.17243719               -0.00431623                0.22994634
               1.00850694                3.99801181               38.03512224                0.01000000               -0.01444794               -0.26792890                0.09080835                0.36188764                0.00152159                0.16113108
               2.00822691                3.99585703               38.03541326                0.01000000               -0.08246211               -0.27129463                0.09916992                0.65673854                0.01708787                0.10528380
               3.00685770                3.99663212               38.03593707                0.01000509               -0.18429890               -0.23464908                0.10584540                0.86145026                0.03631924                0.07203555
               4.00454093                3.99962340               38.03673782                0.01000000               -0.25740820               -0.21888435                0.11116872                1.05022085                0.05251356                0.06937518
               5.00170954                4.00418363               38.03777748                0.01000001               -0.28726365               -0.23344412                0.11494588                1.17130037                0.06031047                0.08739002
               5.99879566                4.00941510               38.03896359                0.01000001               -0.29468823               -0.28286075                0.11787978                1.24313604                0.05673809                0.11693778
               6.99581577                4.01466557               38.04015974                0.01000001               -0.22529238               -0.31697105                0.11996456                1.23446973                0.04417829                0.15311441
               7.99428981                4.01812071               38.04132758                0.01001727               -0.13703524               -0.44392349                0.12360621                1.31799848                0.03207530                0.20174757
               8.99307507                4.01897679               38.04239612                0.01000000                0.03798833               -0.53452961                0.12874783                0.94402904                0.01276943                0.20273066
               9.99504958                4.01423056               38.04326184                0.01005856                0.19745096               -0.85509997                0.13630408                0.71944492                0.01220229                0.14683291
               0.01805897                5.00257620               38.03707336                0.01000000                0.01491921               -0.36432054                0.08801574                0.48716169               -0.01021229                0.26342258
               1.01820816                4.99477061               38.03676953                0.01000000               -0.04428484               -0.29272536                0.09542238                0.76951989               -0.00394288                0.17600924
               2.01717327                4.99291012               38.03656458                0.01000001               -0.17530714               -0.25079369                0.10252049                0.90957989                0.01457042                0.08678644
               3.01470202                4.99407479               38.03672880                0.01000000               -0.25645058               -0.26870853                0.10909780                1.05623259                0.04845790                0.06362683
               4.01204426                4.99715774               38.03742369                0.01000001               -0.27940711               -0.24828189                0.11477396                1.15575873                0.08406145                0.07030884
               5.00911387                5.00164115               38.03852995                0.01000001               -0.28569054               -0.24999443                0.11986834                1.21132069                0.10662226                0.10090232
               6.00633045                5.00652307               38.03991403                0.01000562               -0.23992011               -0.28543874                0.12448806                1.17880349                0.11565338                0.14623418
               7.00431547                5.01078226               38.04141527                0.01000000               -0.15268553               -0.37548716                0.12888758                1.09839348                0.11155830                0.19738355
               8.00327674                5.01351094               38.04285710                0.01000001               -0.03318267               -0.45292437                0.13357572                0.91058145                0.09115811                0.24163954
               9.00365182                5.01353252               38.04403013                0.01000000                0.05581021               -0.49261916                0.13868843                0.61343871                0.05497708                0.25598095
              10.00439294                5.00895303               38.04469558                0.01000001                0.07411228               -0.36981701                0.14528131                0.29875585                0.03475473                0.21887368
               0.03387029                5.99631910               38.03974932                0.22668210               -0.03068690               -0.32580773                0.09499143                0.58310295               -0.00343785                0.16182090
               1.03356342                5.99215731               38.03884383                0.01000001               -0.33779805               -0.14554263                0.10080331                0.70263108               -0.02566697                0.11039315
               2.02711433                5.99084116               38.03748113                0.01000000               -0.49143406               -0.26210914                0.10613363                0.96717062               -0.01160884                0.06140004
               3.02373474                5.99125795               38.03742089                0.01000001               -0.35122945               -0.27125438                0.11184389                1.04853965                0.07534001                0.03728833
               4.02008974                5.99465777               38.03810436                0.01000001               -0.35820610               -0.24895311                0.11828560                1.19781738                0.12870004                0.05493526
               5.01657062                5.99918374               38.03942010                0.01000632               -0.34295583               -0.20327034                0.12468686                1.14915361                0.16838078                0.10172511
               6.01323062                6.00370633               38.04117360                0.01000000               -0.28874216               -0.23445695                0.13063739                0.99910530                0.18903852                0.16048521
               7.01079577                6.00715583               38.04314459                0.01000001               -0.17397216               -0.31718578                0.13630317                0.78312634                0.18859016                0.22924300
               8.00975118                6.00906222               38.04505338                0.01000000               -0.04470107               -0.40581404                0.14184477                0.56011394                0.16096460                0.29555882
               9.00990175                6.00912441               38.04652186                0.01003084                0.02162487               -0.39775735                0.14763977                0.30559134                0.09809852                0.33804125
              10.01018368                6.00683422               38.04712696                0.01000000                0.02819243               -0.14905834                0.15374223                0.14683075                0.05828562                0.32547325
               0.03804462                6.99606005               38.04038644                0.99892886               -0.03058973               -0.02792052                0.09900892               -0.00059216               -0.01118719                0.03822463
               1.03773873                6.99185975               38.03928598                1.00000000               -0.03142907               -0.03078859                0.10474651               -0.00055100               -0.01091708                0.01574738
               2.03741604                6.98766794               38.03817975                0.01000000               -0.29412606               -0.17550817                0.11060663                0.56441422                0.02516156                0.01636921
               3.03185620                6.98864970               38.03779273                0.01000001               -0.46706120               -0.40684517                0.11405707                1.10179926                0.09737126               -0.03647579
               4.02807482                6.99217867               38.03858670                0.01000001               -0.44039100               -0.16431858                0.12087258                1.16330720                0.18693787                0.03103283
               5.02304838                6.99757575               38.04030997                0.01000000               -0.48671760               -0.09560836                0.12919115                1.03498502                0.24205235                0.09222182
               6.01834047                7.00183393               38.04257871                0.01000001               -0.42131387               -0.10728400                0.13636867                0.74004224                0.27537575                0.15833353
               7.01462211                7.00443854               38.04526817                0.01000000               -0.29150147               -0.18756303                0.14324626                0.41756413                0.28667340                0.24272564
               8.01251044                7.00539466               38.04798753                0.01000002               -0.13152285               -0.30383423                0.14964344                0.13284370                0.25491944                0.36450727
               9.01199165                7.00557737               38.05014627                0.01000002               -0.03002494               -0.34032350                0.15512528               -0.00357774                0.15697273                0.45917291
              10.01190994                7.00597186               38.05089849                0.01000001               -0.00817127               -0.09391996                0.15989104               -0.03102531                0.08870196                0.50605839
               0.04225903                7.99576069               38.04057197                1.00000000               -0.03145216               -0.03038716                0.10175745                0.00048140               -0.00106685                0.02046722
               1.04194451                7.99154153               38.03945269                0.99999999               -0.03231801               -0.03226705                0.10764120                0.00004590               -0.00086787                0.00332323
               2.04161267                7.98733100               38.03833213                0.27124469               -0.03422590               -0.03412431                0.11349067               -0.00038721               -0.00579430               -0.01385148
               3.04125999                7.98312104               38.03711191                0.01000001               -0.35914165               -0.29414844                0.11395940                0.88276013                0.13915445               -0.07081729
               4.03442983                7.99137139               38.03889493                0.01000004               -0.68224646               -0.03828445                0.12440256                1.18807678                0.28477639                0.01542594
               5.02761506                7.99727157               38.04107057                0.01000001               -0.66305825                0.06168823                0.13328020                0.81359050                0.31373914                0.07312931
               6.02116867                8.00156065               38.04390291                0.01000000               -0.60143650                0.05077712                0.14172417                0.47047341                0.36254915                0.13388830
               7.01558633                8.00340457               38.04744767                0.01000001               -0.49497231               -0.00459671                0.14925710                0.08389273                0.42456683                0.21792387
               8.01126922                8.00298554               38.05183019                0.01000002               -0.31666679               -0.10964602                0.15706664               -0.28649972                0.41002774                0.36407559
               9.00925299                8.00231794               38.05531505                0.01000000               -0.12475160               -0.26416304                0.16387211               -0.49352906                0.27388106                0.75893559
              10.00877419                8.00495582               38.05703168                0.01000000               -0.04788017               -0.31374079                0.16892181               -0.35021731                0.18710754                0.72156581
               0.04649257                8.99545230               38.04084498                1.00000000               -0.03232291               -0.03130643                0.10475240                0.00048980                0.00251334                0.02000798
               1.04616934                8.99121441               38.03964019                0.99999998               -0.03318916               -0.03317331                0.11063923                0.00004397                0.00190678                0.00309935
               2.04582879                8.98698545               38.03842343                0.99999996               -0.03491659               -0.03497341                0.11655255                0.00009074               -0.00340940               -0.00980102
               3.04547101                8.98276673               38.03711580                0.01000000               -0.40714796               -0.03635233                0.12251176                0.64309056                0.15556331               -0.02096143
               4.03768583                8.99141299               38.03908533                0.01000000               -0.81700345                0.16965233                0.12891321                0.84102706                0.32175407                0.00480692
               5.02913094                8.99880951               38.04157452                0.01000000               -0.80344447                0.19111270                0.13744963                0.51300429                0.36058857                0.04408474
               6.02161694                9.00284947               38.04483194                0.01000002               -0.71279331                0.16364842                0.14516417                0.21871437                0.43118389                0.08084971
               7.01487507                9.00434661               38.04914889                0.01000002               -0.68749338                0.13608860                0.15451219               -0.04911961                0.53713736                0.13383397
               8.00786707                9.00320174               38.05492502                0.01000000               -0.73621433                0.13165022                0.16158096               -0.36283582                0.81982686                0.24724948
               9.00015079                9.00029411               38.06519272                0.99999997               -0.41186203               -0.12719994                0.17355612               -0.60050409                0.51297021                0.49216938
               9.99962983                8.99969705               38.06519361                0.99999999               -0.05209574               -0.28897382                0.17371156               -0.48703268               -0.00040999                0.40559960
               0.05074460                9.99513457               38.04101757                1.00000000               -0.03323664               -0.03177370                0.10767283               -0.00044665                0.01372035                0.01492672
               1.05041223                9.99087807               38.03980182                1.00000000               -0.03412180               -0.03363452                0.11358320               -0.00086253                0.01714803                0.00157543
               2.05006216                9.98663153               38.03866018                0.99999997               -0.03589842               -0.03539246                0.11954477               -0.00086571                0.01699477               -0.00291925
               3.04969427                9.98239400               38.03744971                0.46204214               -0.74272857               -0.03727319                0.12546129                0.82897128                0.15903782               -0.00498500
               4.03520759                9.99476444               38.03916030                0.01000001               -1.16278056                0.33514555                0.13300690                0.68716789                0.30097653                0.00939084
               5.02643865               10.00109382               38.04164773                0.01000001               -0.76008680                0.22843127                0.14063148                0.23423025                0.36022705                0.02898467
               6.02000586               10.00483362               38.04501384                0.01000001               -0.60934915                0.19841424                0.14740116                0.09051760                0.45068777                0.04963174
               7.01425167               10.00612634               38.04960031                0.01000000               -0.59704272                0.17797279                0.15811559               -0.02309405                0.60693411                0.07596833
               8.00806500               10.00561854               38.05643865                0.01000002               -0.67520351                0.24168020                0.16391071               -0.29782674                0.80750531                0.17343227
               9.00074760                9.99977394               38.06523445                0.99999999               -0.39186675               -0.05201748                0.17324895               -0.26242857                0.44008057                0.00033564
              10.00022767                9.99917634               38.06523534                1.00000000               -0.05199334               -0.05207061                0.17340436                0.00002412                0.00037450               -0.00037424
              -0.00278752                0.00408586               39.03192878                1.00000000               -0.02364124               -0.02193048                0.07278412                0.00210634               -0.00349593                0.00385559
               0.99697607                0.00228246               39.03276623                0.99999999               -0.02540134               -0.02567430                0.08476894                0.00191925               -0.00374088               -0.00141155
               1.99670445                0.00048438               39.03359562                0.01000000               -0.02866892               -0.02941500                0.09674184                0.03056706                0.00787649               -0.00148346
               2.99640269               -0.00073495               39.03466651                0.01000001               -0.06526580                0.02316269                0.09871613                0.07442268                0.05024050                0.04158164
               3.99539913                0.00158882               39.03693871                0.01000000               -0.17207574                0.05757504                0.10447477                0.18306317                0.08742800                0.00078949
               4.99296117                0.00781717               39.03863969                0.01000000               -0.46127982                0.09039559                0.09378813                0.47820824                0.09174319               -0.00182198
               5.98617354                0.02028506               39.04088429                0.09845401               -0.35379750               -0.02724185                0.08808718                0.52650443                0.06604711               -0.00150351
               6.98588522                0.02226974               39.04255343                0.99490837               -0.02975381               -0.02939823                0.09768582                0.00301155                0.02149716               -0.00463865
               7.98557846                0.02422593               39.04391520                1.00000000               -0.03203441               -0.03221825                0.10676475                0.00132881                0.00813665               -0.00044860
               8.98524453                0.02618476               39.04531473                1.00000000               -0.03473251               -0.03493335                0.11587257                0.00133622                0.00801966                0.00095986
               9.98488381                0.02814851               39.04667340                1.00000000               -0.03607216               -0.03772418                0.12483774                0.00120751                0.00593655                0.00539836
              -0.00096306                1.00386656               39.03183565                0.99665031               -0.02409438               -0.02211408                0.07428157                0.00029442                0.00154715                0.00444508
               0.99879600                1.00202572               39.03267097                0.09548609               -0.02590582               -0.02599244                0.08632253                0.00012160                0.00363377               -0.00343281
               1.99851883                1.00019023               39.03354847                0.01000000               -0.11006547               -0.02899147                0.09845909                0.05885008                0.03615831                0.02216054
               2.99659469                0.99949667               39.03503899                0.01000001               -0.27825605                0.01767885                0.10861190                0.14951094                0.03535049                0.04054815
               3.99295371                1.00216457               39.03686035                0.01000000               -0.40997775                0.04626656                0.10666093                0.38794776                0.05111912                0.00458514
               4.98839514                1.00872112               39.03835025                0.01000000               -0.43707038                0.03026457                0.09846571                0.74455214                0.04275061                0.01153350
               5.98421230                1.02001264               39.04012404                0.01000001               -0.22251170               -0.26375487                0.08958488                0.69340801                0.03240999                0.00659777
               6.98394490                1.02197575               39.04170255                0.99256803               -0.02890296               -0.02960754                0.09903321                0.00192301                0.01192902               -0.00455995
               7.98363424                1.02390375               39.04305822                1.00000000               -0.03241473               -0.03241005                0.10802891               -0.00006577                0.00132385               -0.00038264
               8.98329661                1.02583543               39.04442333                0.99999999               -0.03510531               -0.03510850                0.11703576               -0.00004992                0.00122581                0.00062513
               9.98293213                1.02777127               39.04577733                0.99999998               -0.03644735               -0.03789431                0.12599243               -0.00019625                0.00057803                0.00670751
               0.00090005                2.00364358               39.03175068                0.01000000               -0.02452208               -0.00888712                0.07586780                0.00371491                0.00202396                0.10929489
               1.00065483                2.00176261               39.03253599                0.01000000               -0.02447767               -0.09283686                0.08778833                0.00645520                0.03471775                0.09404649
               2.00041049                1.99990455               39.03397948                0.01000001               -0.16181340               -0.09485830                0.09203495                0.07138000                0.07691582                0.08473663
               2.99741856                1.99961862               39.03563119                0.01000000               -0.32384268               -0.03827172                0.10578709                0.33109972                0.06563089                0.05181212
               3.99393364                2.00251415               39.03691296                0.01000000               -0.37072065               -0.02661427                0.10660671                0.68571735                0.02992996                0.02698902
               4.99000415                2.00842246               39.03821916                0.01000001               -0.35732860               -0.10584270                0.10444428                0.93687974                0.01918999                0.03538614
               5.98678707                2.01500996               39.03952089                0.01000000               -0.39857859               -0.36569149                0.10314211                1.00089099                0.01006316                0.03002097
               6.98203257                2.02167759               39.04085053                0.01000000               -0.25347961               -0.20844530                0.10041961                0.59218121               -0.00539838                0.03075997
               7.98171748                2.02357773               39.04220153                0.13641982               -0.03282788               -0.03282932                0.10931890                0.00024176               -0.00566007               -0.00140321
               8.98137602                2.02548259               39.04352579                0.99999999               -0.03546403               -0.03538639                0.11817710                0.00004361               -0.00408397               -0.00168721
               9.98100820                2.02739063               39.04490964                1.00000000               -0.03678206               -0.03826282                0.12713488               -0.00014933               -0.00124629                0.00665418
               0.00287318                3.00368881               39.03375446                0.01000467               -0.02090455                0.01033829                0.07795573                0.01492840                0.00362764                0.22015830
               1.00266414                3.00016898               39.03439478                0.01000001               -0.03913843               -0.18856084                0.08721546                0.10925243                0.01143299                0.17765113
               2.00209041                2.99829306               39.03520727                0.01000000               -0.10285291               -0.20832337                0.09567287                0.30472642                0.02883069                0.11487374
               3.00060708                2.99873124               39.03620044                0.01000000               -0.21130973               -0.15306741                0.10370938                0.62177911                0.03554285                0.06258049
               3.99786422                3.00163229               39.03727691                0.01001066               -0.29850784               -0.14169496                0.10873376                0.90193293                0.03242448                0.05456293
               4.99463692                3.00660427               39.03839396                0.01000000               -0.34446131               -0.19989132                0.11030808                1.11093677                0.02572551                0.06358825
               5.99097499                3.01269881               39.03957162                0.01000001               -0.37080822               -0.25804682                0.11087198                1.12728231                0.01351488                0.08222703
               6.98722076                3.01780685               39.04070450                0.01000001               -0.55704602               -0.32014195                0.11197827                1.17753813               -0.02803945                0.09348463
               7.97983407                3.02324717               39.04132416                0.01000001               -0.38680856               -0.23757427                0.10894050                0.95259958               -0.04970585                0.10339229
               8.97948459                3.02512770               39.04258970                0.01003858               -0.03605006               -0.28933617                0.11928697                0.72833786               -0.00958651                0.09803523
               9.97911307                3.02700601               39.04401569                0.72779082               -0.03715148               -0.63339309                0.12828761                0.85022628               -0.00175993                0.08031810
               0.00823829                4.00385035               39.03574964                0.01000222               -0.00026583               -0.04476795                0.08115240                0.18166235               -0.00487738                0.23318117
               1.00823563                3.99799139               39.03602562                0.01000000               -0.01477626               -0.27565733                0.09019764                0.38056280                0.00062863                0.16290900
               2.00794276                3.99573808               39.03639525                0.01000000               -0.08603573               -0.27827367                0.09840094                0.68894015                0.01578151                0.10581941
               3.00651491                3.99655728               39.03699708                0.01000671               -0.19217461               -0.23898527                0.10603209                0.90270953                0.03419555                0.07150300
               4.00409927                3.99968026               39.03785120                0.01000000               -0.26792787               -0.22351179                0.11160304                1.09748980                0.04811636                0.06878917
               5.00115636                4.00442463               39.03893071                0.01000001               -0.29845665               -0.23935911                0.11554717                1.22144426                0.05508824                0.08970278
               5.99813014                4.00984903               39.04014582                0.01000001               -0.30606859               -0.29134673                0.11853734                1.29415124                0.05082166                0.12205354
               6.99503498                4.01527475               39.04136275                0.01000097               -0.23407586               -0.32758186                0.12085835                1.28408434                0.03882475                0.16053287
               7.99344862                4.01882625               39.04256560                0.01000001               -0.14255302               -0.45967392                0.12440340                1.37163908                0.02841402                0.21346090
               8.99218392                4.01969587               39.04368913                0.01000000                0.04037338               -0.55530374                0.13006343                0.98287620                0.01016481                0.21238013
               9.99425609                4.01472277               39.04462549                0.01000000                0.20721624               -0.89041926                0.13791109                0.74900552                0.01086903                0.15384562
               0.01822433                5.00279346               39.03794311                0.01000000                0.01633240               -0.37918551                0.08609508                0.50991729               -0.00998446                0.26726993
               1.01838766                4.99465583               39.03771671                0.01000000               -0.04605002               -0.30013295                0.09409558                0.80549849               -0.00364824                0.17766135
               2.01730333                4.99272759               39.03758707                0.01000001               -0.18342823               -0.25532548                0.10189009                0.95158000                0.01427251                0.08709046
               3.01471909                4.99395153               39.03781761                0.01000000               -0.26783378               -0.27393548                0.10897376                1.10321419                0.04722573                0.06308104
               4.01194666                4.99716205               39.03857407                0.01000001               -0.29110294               -0.25345163                0.11531221                1.20553752                0.08213965                0.07071918
               5.00889703                5.00181709               39.03973291                0.01000001               -0.29693770               -0.25619835                0.12074491                1.26206512                0.10396405                0.10334956
               6.00600790                5.00687188               39.04116409                0.01001183               -0.24859053               -0.29386199                0.12551925                1.22673928                0.11269396                0.15091317
               7.00392522                5.01125521               39.04270905                0.01000000               -0.15810842               -0.38795723                0.12996871                1.14284938                0.10867038                0.20458188
               8.00284573                5.01405369               39.04419921                0.01000001               -0.03398156               -0.46898075                0.13479433                0.94788534                0.08910667                0.24894741
               9.00324559                5.01402162               39.04542509                0.01000000                0.05968234               -0.51292374                0.14043623                0.63864664                0.05376552                0.26378036
              10.00403938                5.00919763               39.04615733                0.01000001                0.07937894               -0.38745058                0.14707335                0.31131767                0.03415075                0.22553211
               0.03471188                5.99626664               39.04068512                0.20219161               -0.03004131               -0.33884523                0.09216520                0.61118976               -0.00352429                0.16405842
               1.03441146                5.99198873               39.03984048                0.01000001               -0.35166096               -0.14787363                0.09857433                0.73402835               -0.02575359                0.11172287
               2.02767866                5.99063157               39.03853877                0.01000000               -0.51333664               -0.26679913                0.10548735                1.00856177               -0.01186747                0.06191221
               3.02414473                5.99107857               39.03854222                0.01000001               -0.36670963               -0.27636035                0.11227419                1.09293967                0.07523774                0.03648614
               4.02034447                5.99461122               39.03929094                0.01000001               -0.37284497               -0.25421796                0.11912038                1.24682577                0.12869309                0.05528652
               5.01668783                5.99930067               39.04067256                0.01001157               -0.35588340               -0.20760861                0.12584090                1.19541935                0.16816011                0.10410219
               6.01322680                6.00397179               39.04248645                0.01000000               -0.29888344               -0.24130440                0.13202518                1.03976197                0.18845347                0.16490111
               7.01071016                6.00751560               39.04451441                0.01000001               -0.17934421               -0.32723705                0.13773324                0.81540942                0.18791164                0.23535377
               8.00963991                6.00944663               39.04647992                0.01000000               -0.04486249               -0.42032892                0.14344491                0.58351867                0.16011878                0.30245297
               9.00981291                6.00943739               39.04800558                0.01005945                0.02452560               -0.41272125                0.14881598                0.31812907                0.09728725                0.34447916
              10.01013043                6.00697375               39.04867220                0.01000003                0.03175120               -0.15643211                0.15464042                0.15254907                0.05785549                0.32976464
               0.03900393                6.99601655               39.04136631                0.99686839               -0.03006417               -0.02725960                0.09704857               -0.00049778               -0.01130589                0.03870699
               1.03870329                6.99169836               39.04032572                0.99984520               -0.03095973               -0.03028005                0.10324727               -0.00050958               -0.01099147                0.01626842
               2.03838474                6.98739161               39.03928071                0.01000000               -0.30525276               -0.17876776                0.10957655                0.58714546                0.02453247                0.01690771
               3.03259823                6.98842433               39.03894343                0.01000001               -0.48618314               -0.41722402                0.11554063                1.14422071                0.09731770               -0.03811103
               4.02866107                6.99207769               39.03980613                0.01000183               -0.45766888               -0.16740387                0.12277393                1.20858001                0.18896830                0.03152710
               5.02344486                6.99766492               39.04160803                0.01000000               -0.50364335               -0.09688267                0.13061417                1.07544430                0.24449495                0.09441432
               6.01858821                7.00204579               39.04394952                0.01000001               -0.43431444               -0.11022666                0.13795646                0.77001151                0.27719970                0.16234921
               7.01475857                7.00471047               39.04670872                0.01000000               -0.29969432               -0.19394136                0.14496554                0.43690768                0.28821913                0.24833197
               8.01259432                7.00564711               39.04949305                0.01000001               -0.13387570               -0.31447391                0.15134172                0.14192254                0.25565947                0.37130276
               9.01208105                7.00576720               39.05170451                0.01000002               -0.02883414               -0.35286322                0.15690132               -0.00119911                0.15678872                0.46561277
              10.01201764                7.00606899               39.05250193                0.01000001               -0.00634159               -0.09766549                0.16155408               -0.03090938                0.08792068                0.51051646
               0.04333830                7.99572144               39.04158406                1.00000000               -0.03120857               -0.03007871                0.10069690                0.00063011               -0.00106333                0.02044797
               1.04302622                7.99138313               39.04052607                0.99999999               -0.03213520               -0.03210463                0.10706387                0.00006489               -0.00088772                0.00338747
               2.04269560                7.98705622               39.03946667                0.27927477               -0.03415802               -0.03413878                0.11343500               -0.00031529               -0.00774880               -0.01376669
               3.04234306                7.98273409               39.03826972                0.01000001               -0.37100609               -0.30253738                0.11695492                0.91374744                0.13934377               -0.07039449
               4.03527548                7.99126315               39.04015299                0.01000001               -0.70572182               -0.03810601                0.12694989                1.23096782                0.28830677                0.01705073
               5.02822862                7.99736301               39.04241405                0.01000001               -0.68470024                0.06439719                0.13535050                0.84523250                0.31769055                0.07508614
               6.02158147                8.00176726               39.04532804                0.01000000               -0.61908109                0.05259850                0.14349488                0.49085114                0.36594776                0.13699653
               7.01584700                8.00363678               39.04894965                0.01000001               -0.50799182               -0.00549859                0.15121912                0.09085988                0.42771221                0.22215534
               8.01142164                8.00315715               39.05340625                0.01000002               -0.32399735               -0.11426744                0.15853438               -0.29228495                0.41437814                0.36993042
               9.00936705                8.00238013               39.05696635                0.01005393               -0.12564890               -0.27547748                0.16539527               -0.50361899                0.27663684                0.76695679
              10.00890866                8.00502044               39.05873233                0.01000000               -0.04583936               -0.32081330                0.17020235               -0.35564920                0.18835710                0.72471082
               0.04769315                8.99541498               39.04189134                1.00000000               -0.03233383               -0.03123586                0.10451857                0.00062699                0.00253207                0.02004671
               1.04736981                8.99105627               39.04074809                0.99999998               -0.03328379               -0.03327711                0.11095856                0.00003875                0.00193454                0.00315485
               2.04702748                8.98670883               39.03959314                0.99999996               -0.03517814               -0.03526681                0.11742430                0.00003098               -0.00335140               -0.00970451
               3.04666625                8.98237358               39.03834780                0.01000205               -0.41879871               -0.03692985                0.12391600                0.66344623                0.15598768               -0.01891705
               4.03865150                8.99131557               39.04038658                0.01000000               -0.84104275                0.17527455                0.13127038                0.86981386                0.32455101                0.00607624
               5.02984540                8.99895286               39.04295911                0.01000000               -0.82600183                0.19673461                0.13967379                0.53246558                0.36399190                0.04531180
               6.02213147                9.00309776               39.04629324                0.01000002               -0.73297661                0.16856561                0.14765251                0.23012399                0.43506015                0.08245216
               7.01518586                9.00460050               39.05069937                0.01000002               -0.70630982                0.13991883                0.15623872               -0.04899425                0.54223826                0.13657980
               8.00800527                9.00336176               39.05655681                0.01000001               -0.75202403                0.13325299                0.16460710               -0.37475532                0.82356058                0.24975191
               9.00014538                9.00025765               39.06692944                0.99999997               -0.41906261               -0.13215182                0.17379293               -0.61634091                0.51819123                0.49665678
               9.99962402                8.99965272               39.06693078                0.99999999               -0.05213664               -0.29440257                0.17372026               -0.49443851               -0.00041416                0.40763507
               0.05206826                9.99509673               39.04209757                1.00000000               -0.03351227               -0.03182500                0.10830807               -0.00040254                0.01374915                0.01493483
               1.05173314                9.99071759               39.04094352                1.00000000               -0.03446779               -0.03386757                0.11474551               -0.00095984                0.01720382                0.00159365
               2.05137891                9.98635088               39.03986395                0.99999997               -0.03639504               -0.03579506                0.12121191               -0.00096215                0.01704253               -0.00288132
               3.05100524                9.98199549               39.03871515                0.49520634               -0.76432153               -0.03780906                0.12764831                0.85478659                0.15976275               -0.00499969
               4.03609248                9.99476864               39.04050171                0.01000003               -1.19547466                0.34530633                0.13525247                0.70920810                0.30336421                0.01011257
               5.02709575               10.00129770               39.04306438                0.01000000               -0.77780810                0.23448457                0.14304393                0.24353139                0.36246975                0.02964813
               6.02053631               10.00513857               39.04650019                0.01000001               -0.62463148                0.20408062                0.15067524                0.09735712                0.45427865                0.04988854
               7.01460312               10.00643515               39.05118794                0.01000000               -0.61334665                0.18346536                0.15977808               -0.02409249                0.61310188                0.07842441
               8.00826938               10.00582221               39.05810147                0.01000002               -0.69269215                0.24604548                0.16782855               -0.30849201                0.80796685                0.17409142
               9.00074927                9.99973709               39.06696690                0.99999999               -0.40198194               -0.05205584                0.17324233               -0.27410222                0.44354056                0.00033633
              10.00022974                9.99913239               39.06696824                1.00000000               -0.05195308               -0.05203291                0.17316965                0.00010271                0.00037644               -0.00037613
              -0.00372039                0.00421031               40.03265208                1.00000000               -0.02347456               -0.02176479                0.07187794                0.00232414               -0.00356695                0.00385247
               0.99604486                0.00235580               40.03361301                0.99999999               -0.02533956               -0.02571356                0.08456443                0.00200613               -0.00380305               -0.00145310
               1.99577282                0.00050856               40.03456587                0.01000001               -0.04394763               -0.02967684                0.09726574                0.03911421                0.03546229               -0.00146092
               2.99516591               -0.00058852               40.03631287                0.01000001               -0.07943929               -0.00421854                0.17256826                0.04139744                0.08208489                0.00982532
               3.99418403                0.00166518               40.03784781                0.01000000               -0.16514950                0.05408423                0.09427745                0.18744116                0.06582882               -0.00421669
               4.99186292                0.00807454               40.03954779                0.01000002               -0.46748705                0.09560716                0.08898029                0.49629260                0.08833658               -0.00071625
               5.98483429                0.02102166               40.04176062                0.09053999               -0.36612993               -0.02694782                0.08698451                0.54781003                0.06060208               -0.00171753
               6.98454032                0.02306804               40.04352736                0.99166459               -0.02999796               -0.02930985                0.09731714                0.00374691                0.02197730               -0.00448974
               7.98423433                0.02507241               40.04498147                1.00000000               -0.03197942               -0.03219375                0.10660391                0.00137809                0.00830333               -0.00036767
               8.98390073                0.02707985               40.04647353                1.00000000               -0.03473353               -0.03496595                0.11589693                0.00138239                0.00810123                0.00094699
               9.98353966                0.02909273               40.04792314                1.00000000               -0.03610722               -0.03783360                0.12511273                0.00122493                0.00594065                0.00539205
              -0.00184264                1.00399267               40.03257730                0.99238471               -0.02415654               -0.02206392                0.07411919                0.00041458                0.00162431                0.00445457
               0.99791580                1.00209866               40.03353657                0.11352589               -0.02606229               -0.02615075                0.08684160                0.00008785                0.00369815               -0.00351398
               1.99763612                1.00021180               40.03453864                0.01000000               -0.14571120               -0.02958293                0.09960448                0.05352311                0.04846423                0.01886111
               2.99500157                0.99936930               40.03639840                0.01000001               -0.29546027                0.00540871                0.14725067                0.17064342                0.07630314                0.00470478
               3.99172691                1.00220603               40.03785524                0.01000000               -0.39269833                0.04370966                0.09885127                0.41803787                0.04107317                0.00967163
               4.98714761                1.00903061               40.03931575                0.01000000               -0.44556360                0.03337961                0.09607460                0.77631180                0.03311635                0.01524651
               5.98281564                1.02075218               40.04101668                0.01000001               -0.22975965               -0.27217745                0.08877268                0.72184643                0.02444333                0.01235593
               6.98255241                1.02277494               40.04269116                0.99208038               -0.02867155               -0.02952753                0.09875469                0.00255720                0.01222456               -0.00445046
               7.98224221                1.02475047               40.04413812                1.00000000               -0.03240088               -0.03239954                0.10798593               -0.00004233                0.00136350               -0.00032348
               8.98190440                1.02673019               40.04559457                0.99999999               -0.03515905               -0.03516309                0.11721772               -0.00003364                0.00123813                0.00059548
               9.98153903                1.02871439               40.04703945                0.99999998               -0.03653689               -0.03802650                0.12642333               -0.00021620                0.00056929                0.00669606
               0.00007590                2.00376904               40.03251144                0.01000000               -0.02484145               -0.00544219                0.07642336                0.00924365                0.00209191                0.10923862
               0.99982749                2.00183278               40.03341976                0.01000000               -0.02516285               -0.09530430                0.08907863                0.01149216                0.03151659                0.09264587
               1.99957265                1.99991691               40.03492304                0.01000001               -0.16214705               -0.09970372                0.09600768                0.07402551                0.07381197                0.08196152
               2.99658455                1.99951966               40.03669716                0.01000000               -0.33445878               -0.03579074                0.10897556                0.37507505                0.05957394                0.02911399
               3.99288347                2.00253938               40.03799233                0.01000000               -0.38707737               -0.02587921                0.10879867                0.72709454                0.02326877                0.03117497
               4.98884300                2.00874214               40.03925232                0.01000001               -0.36782911               -0.10801850                0.10326719                0.97952468                0.00980824                0.04084159
               5.98552689                2.01557811               40.04054800                0.01000000               -0.41249134               -0.37761458                0.10276170                1.04145737                0.00024943                0.03940355
               6.98059317                2.02247749               40.04185425                0.01000000               -0.26243242               -0.21478950                0.10022392                0.61561275               -0.01119652                0.03604267
               7.98027824                2.02442442               40.04329533                0.13949700               -0.03285168               -0.03286418                0.10938861                0.00027793               -0.00578875               -0.00169899
               8.97993614                2.02637659               40.04470928                0.99999997               -0.03556568               -0.03548530                0.11852318                0.00006027               -0.00416823               -0.00173593
               9.97956693                2.02833220               40.04618402                1.00000000               -0.03692133               -0.03844223                0.12772467               -0.00017055               -0.00126671                0.00664758
               0.00221474                3.00388382               40.03453392                0.01000001               -0.02169676                0.01557270                0.07803058                0.02039823                0.00233515                0.22093871
               1.00199777                3.00019258               40.03527221                0.01000001               -0.03924911               -0.19423616                0.08815406                0.11901581                0.00981670                0.17640593
               2.00142975                2.99821772               40.03617511                0.01000000               -0.10585833               -0.21616412                0.09741161                0.32296677                0.02741353                0.11426096
               2.99988060                2.99865348               40.03724970                0.01000000               -0.21917157               -0.15373231                0.10513470                0.64859189                0.03247566                0.05802333
               3.99704632                3.00168844               40.03836233                0.01001179               -0.30906181               -0.14186761                0.10880177                0.94514593                0.02534231                0.05316676
               4.99369937                3.00687024               40.03949768                0.01000000               -0.35684472               -0.20517044                0.11068037                1.15925613                0.01817981                0.06799864
               5.98990943                3.01319989               40.04068038                0.01000001               -0.38405035               -0.26572018                0.11114903                1.17310383                0.00565977                0.08870433
               6.98601836                3.01847915               40.04182644                0.01000001               -0.57803782               -0.33029092                0.11259890                1.22363106               -0.03748709                0.10271633
               7.97834867                3.02409319               40.04242454                0.01000001               -0.40102688               -0.24547753                0.11038741                0.98974008               -0.05521977                0.10995330
               8.97799782                3.02602048               40.04378520                0.01000000               -0.03621415               -0.29937926                0.11980607                0.75673470               -0.00940734                0.10301982
               9.97762439                3.02794555               40.04530241                0.75309433               -0.03734324               -0.65831820                0.12903260                0.88387253               -0.00176896                0.08510232
               0.00786635                4.00408049               40.03655741                0.01000000                0.00075492               -0.04488518                0.08050927                0.19162416               -0.00515064                0.23505934
               1.00787390                3.99794806               40.03692619                0.01000000               -0.01476392               -0.28418021                0.09003062                0.40032975                0.00031536                0.16310026
               2.00757108                3.99559362               40.03738128                0.01000000               -0.08941202               -0.28546563                0.09880989                0.72125073                0.01496372                0.10517364
               3.00608566                3.99644501               40.03805771                0.01000852               -0.20007255               -0.24311058                0.10645123                0.94436653                0.03199083                0.06996245
               4.00356963                3.99970203               40.03896989                0.01000000               -0.27844950               -0.22780314                0.11222936                1.14595708                0.04422339                0.06896569
               5.00051667                4.00463873               40.04008842                0.01000001               -0.30947859               -0.24519726                0.11621716                1.27327279                0.04981225                0.09252373
               5.99738005                4.01026371               40.04133434                0.01000001               -0.31720899               -0.29995929                0.11935949                1.34658545                0.04511986                0.12778077
               6.99417249                4.01587167               40.04257691                0.01000977               -0.24241707               -0.33784571                0.12190390                1.33432790                0.03350929                0.16838292
               7.99253171                4.01951487               40.04381565                0.01000001               -0.14770102               -0.47588124                0.12569864                1.42557439                0.02503025                0.22503191
               8.99121847                4.02038900               40.04499739                0.01000000                0.04312653               -0.57644027                0.13126318                1.02110809                0.01054179                0.21965644
               9.99339424                4.01516584               40.04602006                0.01000001                0.21757695               -0.92642975                0.13917696                0.77703814                0.01279385                0.15945642
               0.01831208                5.00298612               40.03879526                0.01000000                0.01791535               -0.39517085                0.08433126                0.53342169               -0.00983961                0.26957579
               1.01849123                4.99450897               40.03865144                0.01000000               -0.04771280               -0.30826553                0.09298986                0.84215405               -0.00327057                0.17786175
               2.01735782                4.99250841               40.03860238                0.01000001               -0.19158490               -0.26039291                0.10146210                0.99432289                0.01430840                0.08666061
               3.01465953                4.99379127               40.03890828                0.01000000               -0.27930356               -0.27915823                0.10930029                1.15128162                0.04645466                0.06243722
               4.01177175                4.99713238               40.03972993                0.01000001               -0.30281959               -0.25852955                0.11609621                1.25693309                0.08032504                0.07114704
               5.00860314                5.00196630               40.04094485                0.01000001               -0.30817796               -0.26240292                0.12181978                1.31449761                0.10134368                0.10591633
               6.00560819                5.00720070               40.04242442                0.01001766               -0.25746922               -0.30223962                0.12670081                1.27668647                0.10946848                0.15577426
               7.00345376                5.01172224               40.04401464                0.01000000               -0.16326784               -0.40042221                0.13131907                1.18814529                0.10506136                0.21221124
               8.00234283                5.01457557               40.04555299                0.01000001               -0.03423690               -0.48487123                0.13598485                0.98500533                0.08682779                0.25736983
               9.00276902                5.01449168               40.04683885                0.01000000                0.06343250               -0.53272179                0.14179534                0.66390632                0.05254687                0.27120474
              10.00361148                5.00941695               40.04763705                0.01000001                0.08424657               -0.40404663                0.14859793                0.32319234                0.03292736                0.23095867
               0.03548908                5.99617707               40.04159262                0.17930259               -0.02943835               -0.35254381                0.08944373                0.63994791               -0.00358580                0.16545927
               1.03519469                5.99178275               40.04081532                0.01000001               -0.36569199               -0.15047230                0.09641579                0.76609780               -0.02533320                0.11213209
               2.02817524                5.99038577               40.03959088                0.01000000               -0.53536844               -0.27151075                0.10493705                1.05051262               -0.01142349                0.06174902
               3.02448733                5.99086185               40.03966637                0.01000001               -0.38209898               -0.28156483                0.11258800                1.13816361                0.07545459                0.03596360
               4.02053326                5.99453143               40.04048677                0.01000001               -0.38745124               -0.25926091                0.12008675                1.29733323                0.12891954                0.05568195
               5.01673830                5.99939067               40.04193692                0.01001786               -0.36877082               -0.21218798                0.12720808                1.24396174                0.16795707                0.10627857
               6.01315784                6.00421892               40.04381411                0.01000000               -0.30888808               -0.24806855                0.13369679                1.08240675                0.18772222                0.16919814
               7.01056054                6.00786323               40.04589926                0.01000001               -0.18477300               -0.33761516                0.13942460                0.84938696                0.18708165                0.24170962
               8.00946238                6.00981745               40.04792228                0.01000000               -0.04526640               -0.43405899                0.14495908                0.60781686                0.15902720                0.30962740
               9.00965521                6.00973457               40.04949818                0.01000002                0.02725771               -0.42814101                0.15008307                0.33084907                0.09600493                0.35199013
              10.01000754                6.00708490               40.05021977                0.01000285                0.03523252               -0.16474423                0.15585866                0.15813529                0.05659005                0.33579939
               0.03989968                6.99593524               40.04232741                0.99487672               -0.02951850               -0.02662254                0.09502692               -0.00033866               -0.01154004                0.03925305
               1.03960449                6.99149953               40.04135092                0.99714978               -0.03053500               -0.02979208                0.10193556               -0.00037998               -0.01121966                0.01678252
               2.03928898                6.98707819               40.04037128                0.01000000               -0.31636787               -0.18212676                0.10900501                0.60996246                0.02444418                0.01685746
               3.03327714                6.98815997               40.04010354                0.01000001               -0.50496930               -0.42765277                0.11602898                1.18710909                0.09806860               -0.03953892
               4.02918959                6.99194716               40.04104218                0.01001073               -0.47411207               -0.16997350                0.12407112                1.25404731                0.19069700                0.03229207
               5.02379489                6.99772254               40.04292225                0.01000000               -0.52029144               -0.09842309                0.13238799                1.11738480                0.24695394                0.09595897
               6.01878376                7.00223933               40.04533784                0.01000001               -0.44759645               -0.11310273                0.13996350                0.80207889                0.27893675                0.16622127
               7.01484296                7.00496994               40.04816748                0.01000000               -0.30779642               -0.20031049                0.14678771                0.45784363                0.28958801                0.25395889
               8.01262783                7.00589439               40.05101436                0.01000001               -0.13622122               -0.32485327                0.15297484                0.15183130                0.25666085                0.37824719
               9.01211854                7.00592886               40.05328430                0.01000002               -0.02771607               -0.36512077                0.15869557                0.00160612                0.15732458                0.47248969
              10.01207351                7.00612207               40.05412957                0.01000001               -0.00450273               -0.10318593                0.16409054               -0.03058649                0.08769747                0.51650875
               0.04435373                7.99564462               40.04258591                1.00000000               -0.03095905               -0.02977560                0.09962966                0.00072979               -0.00113557                0.02040098
               1.04404414                7.99118691               40.04159396                0.99999999               -0.03198459               -0.03197298                0.10659429                0.00001718               -0.00097766                0.00349607
               2.04371404                7.98674323               40.04060083                0.28561717               -0.03418014               -0.03420589                0.11360764               -0.00025204               -0.00885704               -0.01359630
               3.04336054                7.98230879               40.03945101                0.01000001               -0.38312014               -0.31085073                0.11902021                0.94544630                0.13980489               -0.07028476
               4.03605164                7.99113196               40.04143393                0.01000000               -0.72833578               -0.03806852                0.12864437                1.27446787                0.29141394                0.01821316
               5.02879382                7.99742221               40.04377758                0.01000001               -0.70498083                0.06714428                0.13725811                0.87670587                0.32114243                0.07650912
               6.02195202                8.00195686               40.04677281                0.01000000               -0.63657322                0.05435168                0.14565930                0.51144648                0.36943340                0.14019719
               7.01606236                8.00385702               40.05047205                0.01000001               -0.52059672               -0.00650105                0.15337057                0.09884111                0.43092589                0.22673828
               8.01154009                8.00332038               40.05500087                0.01000002               -0.33013552               -0.11964137                0.16024948               -0.29722418                0.41784572                0.37599696
               9.00945965                8.00243215               40.05862296                0.01000006               -0.12653532               -0.28510786                0.16634121               -0.51385462                0.27933797                0.77561348
              10.00900938                8.00502118               40.06043573                0.01000000               -0.04502679               -0.32541143                0.17034965               -0.36382941                0.19026809                0.73026449
               0.04882970                8.99533973               40.04293536                1.00000000               -0.03234707               -0.03119083                0.10432235                0.00073137                0.00257101                0.02004535
               1.04850623                8.99086007               40.04185936                0.99999998               -0.03338212               -0.03339053                0.11130545                0.00000629                0.00198197                0.00320588
               2.04816206                8.98639408               40.04077191                0.99997588               -0.03544500               -0.03554765                0.11833480                0.00001140               -0.00328760               -0.00959059
               3.04779733                8.98194296               40.03959412                0.01001108               -0.42982612               -0.03747480                0.12540320                0.68414698                0.15657977               -0.01769926
               4.03956553                8.99118579               40.04171074                0.01000000               -0.86466063                0.18022317                0.13349271                0.89982409                0.32588124                0.00713480
               5.03050411                8.99906543               40.04436800                0.01000000               -0.84938273                0.20270270                0.14205400                0.55181630                0.36688178                0.04606359
               6.02257788                9.00332637               40.04778499                0.01000002               -0.75239234                0.17303191                0.15069365                0.23951651                0.43767765                0.08431795
               7.01545627                9.00483992               40.05227367                0.01000002               -0.72348289                0.14303333                0.15880792               -0.04873702                0.54683572                0.13924609
               8.00810822                9.00350156               40.05821716                0.01007563               -0.76578123                0.13453412                0.16651001               -0.38539601                0.82894763                0.25356913
               9.00014064                9.00022670               40.06866858                0.99999997               -0.42446827               -0.13632072                0.17404034               -0.62978617                0.52222284                0.50112363
               9.99961886                8.99961384               40.06866802                0.99999999               -0.05217877               -0.29636366                0.17372581               -0.50012863               -0.00041836                0.40965972
               0.05332768                9.99502081               40.04318373                1.00000000               -0.03377622               -0.03189255                0.10888145               -0.00037196                0.01375197                0.01493443
               1.05298992                9.99051910               40.04209673                1.00000000               -0.03481531               -0.03409697                0.11586884               -0.00105686                0.01723017                0.00158512
               2.05263138                9.98603228               40.04108442                0.99999998               -0.03690786               -0.03617990                0.12288002               -0.00105793                0.01704484               -0.00288768
               3.05225177                9.98155929               40.04000268                0.54170755               -0.78528619               -0.03836649                0.12984780                0.88065131                0.16018088               -0.00499574
               4.03692565                9.99473643               40.04186535                0.01000001               -1.22810956                0.35506368                0.13820224                0.73186044                0.30468566                0.01050974
               5.02768957               10.00147626               40.04450860                0.01000003               -0.79788966                0.24108350                0.14622500                0.25259949                0.36421348                0.02988532
               6.02096786               10.00541750               40.04802735                0.01000001               -0.63885727                0.20911315                0.15451724                0.10106960                0.45514583                0.05063721
               7.01491243               10.00671769               40.05279587                0.01000309               -0.62612388                0.18777705                0.16227000               -0.02470576                0.61710373                0.07950414
               8.00844538               10.00601106               40.05979522                0.01000002               -0.70803925                0.25095038                0.16969743               -0.31688124                0.81010649                0.17604012
               9.00075164                9.99970574               40.06869930                0.99999999               -0.41064283               -0.05209643                0.17323888               -0.28475749                0.44556837                0.00033697
              10.00023253                9.99909391               40.06869873                1.00000000               -0.05191162               -0.05199292                0.17292434                0.00018478                0.00037834               -0.00037803
              -0.00478072                0.00431247               41.03336634                0.99975350               -0.02330678               -0.02161859                0.07102886                0.00253926               -0.00357072                0.00389028
               0.99498621                0.00240627               41.03445752                0.99999999               -0.02527238               -0.02575831                0.08436368                0.00209771               -0.00382771               -0.00143509
               1.99471383                0.00050962               41.03554094                0.01710850               -0.01118840               -0.02993345                0.09773840                0.03545729                0.07042249               -0.00146716
               2.99476245               -0.00070950               41.03811788                0.01000001               -0.06165208               -0.00840170                0.15105812                0.05317162                0.09269864               -0.03707463
               3.99348079                0.00148963               41.03882426                0.01000000               -0.19736775                0.07238572                0.10682232                0.18652442                0.04688465               -0.02458725
               4.99081509                0.00826693               41.04041930                0.01000002               -0.50373890                0.10545861                0.09167938                0.52054149                0.08477155                0.00216303
               5.98340601                0.02173860               41.04262398                0.08281584               -0.38555828               -0.02662136                0.08586141                0.57124330                0.05667415               -0.00182417
               6.98310392                0.02385233               41.04449977                0.98872376               -0.03038295               -0.02924842                0.09708208                0.00473727                0.02280816               -0.00452543
               7.98279836                0.02590528               41.04604728                1.00000000               -0.03195215               -0.03218654                0.10652813                0.00143902                0.00834280               -0.00038081
               8.98246488                0.02796162               41.04763267                1.00000000               -0.03474763               -0.03500369                0.11595129                0.00143756                0.00812620                0.00095144
               9.98210340                0.03002373               41.04917566                0.99999999               -0.03614795               -0.03794181                0.12539374                0.00124600                0.00595703                0.00538746
              -0.00284912                1.00409629               41.03331803                0.98813176               -0.02422607               -0.02203720                0.07405852                0.00053785                0.00167194                0.00447474
               0.99690862                1.00214868               41.03440780                0.13216395               -0.02622958               -0.02631887                0.08740247                0.00006703                0.00373479               -0.00352496
               1.99662629                1.00021028               41.03554056                0.01000000               -0.10522321               -0.03011519                0.10077333                0.04766538                0.07115117                0.01625793
               2.99480416                0.99920649               41.03798401                0.01000001               -0.28842337                0.00295489                0.15155152                0.13907526                0.16246226               -0.05064497
               3.99085782                1.00221349               41.03883737                0.01000000               -0.44540665                0.05704679                0.10497046                0.42390438                0.03039779                0.01072331
               4.98589602                1.00932152               41.04027175                0.01000000               -0.47660363                0.03952115                0.09823046                0.80442219                0.02542053                0.02076081
               5.98132575                1.02147238               41.04189950                0.01000001               -0.24140330               -0.28021317                0.08798783                0.75112200                0.01649426                0.01842200
               6.98106796                1.02355985               41.04367764                0.99142007               -0.02838236               -0.02945843                0.09852610                0.00342087                0.01275639               -0.00447148
               7.98075810                1.02558341               41.04521794                1.00000000               -0.03239621               -0.03239741                0.10797326                0.00000267                0.00137659               -0.00033008
               8.98042003                1.02761158               41.04676769                0.99999999               -0.03521747               -0.03521892                0.11740992               -0.00000101                0.00124152                0.00059247
               9.98005375                1.02964431               41.04830580                0.99999771               -0.03662802               -0.03815533                0.12684345               -0.00022805                0.00056770                0.00668890
              -0.00087476                2.00387173               41.03327915                0.01000000               -0.02516848               -0.00173359                0.07713578                0.01543729                0.00210791                0.10858666
               0.99887356                2.00187989               41.03431756                0.01000000               -0.02579530               -0.09790080                0.09044774                0.01731233                0.02897653                0.09068490
               1.99860934                1.99990731               41.03589964                0.01000001               -0.16664071               -0.10451196                0.09902647                0.07523088                0.07174111                0.07833843
               2.99554075                1.99934960               41.03781070                0.01000000               -0.33827465               -0.03376675                0.10877085                0.34942335                0.04866342               -0.00382947
               3.99184385                2.00263057               41.03908893                0.01000000               -0.39480537               -0.02477091                0.11012043                0.74865097                0.01657199                0.03924785
               4.98764464                2.00905736               41.04028450                0.01000001               -0.38268594               -0.10966883                0.10457918                1.01451043                0.00090567                0.04741153
               5.98419013                2.01613433               41.04157612                0.01000000               -0.42916636               -0.38929105                0.10359040                1.08197427               -0.00952251                0.04939434
               6.97906131                2.02326316               41.04285501                0.01000000               -0.27217270               -0.22106647                0.09998854                0.63909505               -0.01724679                0.04177520
               7.97874667                2.02525733               41.04438930                0.14250897               -0.03286740               -0.03287483                0.10942885                0.00034464               -0.00581963               -0.00173880
               8.97840396                2.02725724               41.04589626                0.99999582               -0.03566453               -0.03557990                0.11886820                0.00009149               -0.00419524               -0.00175269
               9.97803338                2.02926062               41.04746414                1.00000000               -0.03705807               -0.03861453                0.12829119               -0.00018570               -0.00128211                0.00664165
               0.00144330                3.00406162               41.03531507                0.01000001               -0.02240219                0.02092297                0.07817382                0.02652896                0.00126177                0.22056408
               1.00121928                3.00019067               41.03615786                0.01000001               -0.03910552               -0.20028589                0.08895440                0.13014688                0.00835631                0.17363604
               2.00066119                2.99812004               41.03715551                0.01000000               -0.10749569               -0.22465164                0.09845914                0.34208298                0.02489095                0.11223035
               2.99906937                2.99853115               41.03830314                0.01000000               -0.22690551               -0.15258264                0.10565050                0.68117003                0.02870274                0.05184536
               3.99612308                3.00171807               41.03945295                0.01001375               -0.31934530               -0.14693005                0.10964703                0.98530844                0.01791694                0.05202277
               4.99268246                3.00712814               41.04060756                0.01000000               -0.36818282               -0.21147089                0.11167960                1.20560005                0.01091332                0.07327321
               5.98875943                3.01368656               41.04179460                0.01000001               -0.39778023               -0.27368615                0.11211653                1.21821463               -0.00212812                0.09550985
               6.98472686                3.01913852               41.04295648                0.01000001               -0.59942562               -0.34044805                0.11348641                1.27009535               -0.04695859                0.11241172
               7.97677092                3.02492592               41.04353190                0.01000001               -0.41541448               -0.25294487                0.11134917                1.02717687               -0.06103977                0.11704739
               8.97641857                3.02689999               41.04498582                0.01000002               -0.03638215               -0.31109517                0.12032344                0.78662439               -0.00941668                0.10813319
               9.97604327                3.02887202               41.04659634                0.77890017               -0.03752964               -0.68416858                0.12973802                0.91886577               -0.00177307                0.08916481
               0.00739772                4.00429019               41.03735982                0.01000000                0.00203516               -0.04559281                0.07989856                0.20199290               -0.00534795                0.23532324
               1.00741807                3.99787417               41.03782623                0.01000000               -0.01436021               -0.29333643                0.08999883                0.42099683                0.00003171                0.16176993
               2.00711052                3.99541428               41.03837145                0.01000000               -0.09259752               -0.29344225                0.09931123                0.75476216                0.01412142                0.10330045
               3.00556612                3.99629795               41.03912611                0.01000933               -0.20787463               -0.24697671                0.10721111                0.98644737                0.02950920                0.06859585
               4.00295302                3.99969196               41.04009578                0.01000000               -0.28889873               -0.23249771                0.11319535                1.19617463                0.04013465                0.06961431
               4.99978815                4.00482794               41.04125506                0.01000001               -0.32044887               -0.25206128                0.11742256                1.32578038                0.04441274                0.09565760
               5.99654405                4.01066061               41.04253301                0.01000001               -0.32821417               -0.30894827                0.12061596                1.39971564                0.03915927                0.13378247
               6.99322386                4.01645420               41.04380083                0.01000001               -0.25076508               -0.34807133                0.12299107                1.38544207                0.02785356                0.17637827
               7.99152874                4.02019843               41.04507957                0.01000910               -0.15167581               -0.49157343                0.12673069                1.47841488                0.02060200                0.23700833
               8.99019035                4.02103534               41.04631439                0.01000000                0.04689401               -0.59775278                0.13218161                1.05863607                0.00829521                0.22887668
               9.99246662                4.01557725               41.04740903                0.01000000                0.22762775               -0.96274644                0.13982836                0.80710482                0.01155423                0.16779967
               0.01831520                5.00314976               41.03962973                0.01000206                0.01999326               -0.41232571                0.08264636                0.55727080               -0.00955444                0.27024331
               1.01851513                4.99432394               41.03957651                0.01000000               -0.04912674               -0.31711403                0.09213802                0.87949560               -0.00262566                0.17650776
               2.01733266                4.99225120               41.03961631                0.01000001               -0.19972483               -0.26583144                0.10156038                1.03781485                0.01454233                0.08552106
               3.01452063                4.99359162               41.04000361                0.01000000               -0.29080376               -0.28476879                0.11026968                1.20043667                0.04579742                0.06159424
               4.01151659                4.99706811               41.04089600                0.01000001               -0.31456034               -0.26396751                0.11740820                1.30972931                0.07851523                0.07164784
               5.00822943                5.00208692               41.04216931                0.01000001               -0.31945539               -0.26895516                0.12334739                1.36854834                0.09850510                0.10865573
               6.00512748                5.00750760               41.04369810                0.01000000               -0.26657748               -0.31091431                0.12815751                1.32825172                0.10614266                0.16097612
               7.00289788                5.01217709               41.04533543                0.01000000               -0.16847007               -0.41286244                0.13267812                1.23533060                0.10164461                0.21962588
               8.00175808                5.01509445               41.04691891                0.01000001               -0.03427021               -0.50103131                0.13728533                1.02303141                0.08389143                0.26602205
               9.00221247                5.01494493               41.04826100                0.01000000                0.06717316               -0.55017937                0.14265877                0.68839112                0.05089457                0.27926662
              10.00310154                5.00961709               41.04912928                0.01000001                0.08890686               -0.41900158                0.14958870                0.33483737                0.03207296                0.23785795
               0.03619478                5.99604367               41.04247399                0.15790915               -0.02882302               -0.36707178                0.08679482                0.66936734               -0.00384087                0.16605253
               1.03590655                5.99153189               41.04176880                0.01000001               -0.37978205               -0.15342890                0.09428171                0.79869359               -0.02451528                0.11175194
               2.02859913                5.99009765               41.04063751                0.01000000               -0.55743039               -0.27661949                0.10468476                1.09295093               -0.01021931                0.06097022
               3.02475794                5.99060257               41.04079398                0.01000001               -0.39734132               -0.28713519                0.11314315                1.18415174                0.07595948                0.03430722
               4.02065231                5.99441261               41.04169267                0.01000001               -0.40191534               -0.26458702                0.12154538                1.34929914                0.12919709                0.05561738
               5.01671963                5.99944884               41.04321672                0.01000004               -0.38167009               -0.21717400                0.12887446                1.29442788                0.16792517                0.10856597
               6.01301891                6.00444232               41.04516039                0.01000000               -0.31880043               -0.25480406                0.13539480                1.12711726                0.18698154                0.17376627
               7.01034362                6.00819695               41.04730290                0.01000001               -0.18986860               -0.34801206                0.14114731                0.88557074                0.18584539                0.24802964
               8.00922153                6.01017781               41.04937910                0.01000000               -0.04540489               -0.44804940                0.14645429                0.63437213                0.15775989                0.31717907
               9.00943552                6.01003175               41.05100724                0.01000002                0.02987549               -0.44263571                0.15175282                0.34596405                0.09516814                0.35948980
              10.00981904                6.00719722               41.05178938                0.01000001                0.03835196               -0.17169448                0.15786133                0.16552209                0.05598278                0.34200528
               0.04072611                6.99580832               41.04326685                0.98930133               -0.02910844               -0.02610782                0.09341936               -0.00006078               -0.01139275                0.03987926
               1.04043502                6.99125536               41.04236443                0.99474180               -0.03025550               -0.02936397                0.10098667               -0.00021557               -0.01118189                0.01743202
               2.04012100                6.98671881               41.04146081                0.01000000               -0.32731602               -0.18569972                0.10876072                0.63279175                0.02427406                0.01644054
               3.03388870                6.98784891               41.04126401                0.01000001               -0.52323465               -0.43823812                0.11550537                1.23028414                0.09893690               -0.04118810
               4.02965631                6.99177637               41.04228756                0.01000001               -0.49002152               -0.17268800                0.12477114                1.30097018                0.19334762                0.03181049
               5.02408827                6.99774344               41.04425579                0.01000000               -0.53672995               -0.10006947                0.13426448                1.16140489                0.24912079                0.09782040
               6.01892171                7.00241152               41.04674879                0.01000001               -0.46072334               -0.11591362                0.14207757                0.83650852                0.28023522                0.17006900
               7.01487381                7.00521685               41.04964448                0.01000000               -0.31554922               -0.20657985                0.14868426                0.48078880                0.29048626                0.25968122
               8.01261072                7.00613346               41.05255255                0.01000001               -0.13807336               -0.33517559                0.15456600                0.16407399                0.25740982                0.38514706
               9.01211234                7.00609222               41.05487842                0.01000002               -0.02648403               -0.37618167                0.16016686                0.00665876                0.15805025                0.48022676
              10.01208104                7.00618320               41.05578374                0.01000001               -0.00312976               -0.10549689                0.16553475               -0.02742978                0.08901607                0.52168940
               0.04529948                7.99552152               41.04357665                1.00000000               -0.03077344               -0.02951318                0.09880673                0.00083182               -0.00106959                0.02055612
               1.04499175                7.99094461               41.04265796                0.99999999               -0.03190336               -0.03188689                0.10631092                0.00000042               -0.00098991                0.00362058
               2.04466142                7.98638366               41.04173882                0.29209824               -0.03428479               -0.03426927                0.11389561               -0.00004171               -0.00950783               -0.01362498
               3.04430605                7.98183781               41.04065013                0.01000001               -0.39421152               -0.31904948                0.11903554                0.97727584                0.14049086               -0.07069004
               4.03677719                7.99095885               41.04272588                0.01001797               -0.74967337               -0.03747642                0.12892238                1.31742916                0.29500384                0.01852098
               5.02931259                7.99744745               41.04515922                0.01000001               -0.72507613                0.06998327                0.13921511                0.90928512                0.32479029                0.07810764
               6.02227566                8.00212405               41.04824122                0.01000000               -0.65375673                0.05590337                0.14826158                0.53377756                0.37249906                0.14332037
               7.01623745                8.00406536               41.05201707                0.01000001               -0.53240077               -0.00776243                0.15539446                0.10834230                0.43408667                0.23183787
               8.01162765                8.00347430               41.05661124                0.01000002               -0.33592479               -0.12473331                0.16199435               -0.29893234                0.42067423                0.38245972
               9.00951896                8.00250812               41.06029318                0.01009347               -0.12695885               -0.29442189                0.16695674               -0.51801843                0.28123449                0.78228046
              10.00908847                8.00508728               41.06213932                0.01000000               -0.04304846               -0.33001448                0.17052490               -0.36529744                0.19082798                0.73246493
               0.04989656                8.99521806               41.04397779                1.00000000               -0.03236623               -0.03114297                0.10415136                0.00084800                0.00257200                0.02007911
               1.04957289                8.99061762               41.04297420                0.99999998               -0.03347953               -0.03350212                0.11167353                0.00003332                0.00200419                0.00324751
               2.04922697                8.98603342               41.04195984                0.99999998               -0.03569356               -0.03577720                0.11926106                0.00013672               -0.00318883               -0.00954379
               3.04885902                8.98146792               41.04085586                0.01000000               -0.44158569               -0.03796728                0.12689297                0.70576475                0.15727851               -0.01693179
               4.04039525                8.99102685               41.04305643                0.01000000               -0.88751224                0.18553763                0.13525130                0.92891272                0.32789831                0.00846455
               5.03110878                8.99914310               41.04580019                0.01000000               -0.87079520                0.20833756                0.14481088                0.57040844                0.37001307                0.04730965
               6.02297935                9.00352958               41.04930711                0.01000001               -0.77091854                0.17712749                0.15363979                0.24973983                0.44146333                0.08620248
               7.01569041                9.00506160               41.05387553                0.01000002               -0.73950171                0.14577355                0.16120626               -0.04754626                0.55161468                0.14230032
               8.00818931                9.00363879               41.05988701                0.01000000               -0.77757122                0.13563008                0.16659566               -0.39586949                0.83764060                0.25850069
               9.00013898                9.00020378               41.07041024                0.99999997               -0.42862764               -0.14128670                0.17429859               -0.64088533                0.52603018                0.50516326
               9.99961676                8.99958291               41.07040530                0.99999999               -0.05222219               -0.30119375                0.17372818               -0.50458786               -0.00042256                0.41180429
               0.05451732                9.99489866               41.04427520                1.00000000               -0.03402630               -0.03194019                0.10933271               -0.00033277                0.01378787                0.01488765
               1.05417705                9.99027457               41.04326089                1.00000000               -0.03517331               -0.03430542                0.11692475               -0.00111127                0.01730362                0.00156368
               2.05381385                9.98566811               41.04232156                0.99999999               -0.03745642               -0.03653099                0.12457470               -0.00111669                0.01706565               -0.00287262
               3.05342793                9.98107847               41.04131211                0.59186433               -0.80667949               -0.03894591                0.13208689                0.90696503                0.16103251               -0.00498786
               4.03768026                9.99466961               41.04326576                0.01000688               -1.26049539                0.36427613                0.14108404                0.75528760                0.30665624                0.01152601
               5.02821802               10.00161420               41.04598888                0.01000317               -0.81641496                0.24710945                0.15003024                0.26077373                0.36604274                0.03057608
               6.02135196               10.00566660               41.04959053                0.01000001               -0.65203518                0.21370185                0.15807270                0.10559288                0.45807149                0.05133371
               7.01517732               10.00698083               41.05443334                0.01000000               -0.63919397                0.19192254                0.16510450               -0.02529444                0.62102390                0.08024681
               8.00856808               10.00618690               41.06149541                0.01000002               -0.72100924                0.25481030                0.16912592               -0.32704530                0.81695730                0.17872075
               9.00075713                9.99968238               41.07043168                0.99999999               -0.41648206               -0.05213943                0.17323863               -0.29435976                0.44739778                0.00033759
              10.00023844                9.99906341               41.07042672                1.00000000               -0.05186884               -0.05195058                0.17266821                0.00027055                0.00038018               -0.00037994
              -0.00597418                0.00438473               42.03407266                0.99789922               -0.02321158               -0.02153811                0.07045053                0.00272386               -0.00351404                0.00398254
               0.99379371                0.00242654               42.03530028                0.99999999               -0.02524559               -0.02584120                0.08429820                0.00218738               -0.00379855               -0.00138076
               1.99352091                0.00047997               42.03652064                0.03141899               -0.00285734               -0.03017141                0.09817673                0.02176179                0.07543507               -0.00148785
               2.99373656               -0.00106227               42.03933403                0.01000001               -0.03503060               -0.02741497                0.10008141                0.15510619                0.04281960               -0.02527631
               3.99282030                0.00114720               42.03998426                0.01000000               -0.19889648                0.10086147                0.11424106                0.19644201                0.01170406               -0.03199959
               4.98975863                0.00841291               42.04138138                0.01000000               -0.54664991                0.11677197                0.09900224                0.54787263                0.05898757                0.00422928
               5.98188730                0.02243413               42.04347785                0.07523795               -0.40927282               -0.02656572                0.08514143                0.59567674                0.04808874               -0.00200169
               6.98157318                0.02462179               42.04546900                0.98586869               -0.03095078               -0.02915159                0.09676164                0.00605929                0.02379068               -0.00456186
               7.98126829                0.02672348               42.04711203                1.00000000               -0.03191475               -0.03216249                0.10640926                0.00149361                0.00833390               -0.00041094
               8.98093488                0.02882884               42.04879256                1.00000000               -0.03477324               -0.03503931                0.11601949                0.00148513                0.00811145                0.00095764
               9.98057282                0.03094020               42.05043102                0.99999999               -0.03620591               -0.03805063                0.12568509                0.00126925                0.00595855                0.00538512
              -0.00398874                1.00416935               42.03405847                0.98392552               -0.02432960               -0.02205003                0.07413273                0.00064764                0.00173342                0.00452460
               0.99576796                1.00216812               42.03528462                0.15142717               -0.02641615               -0.02650537                0.08800564                0.00008647                0.00378062               -0.00348982
               1.99548294                1.00017826               42.03655411                0.01000000               -0.04069781               -0.03056202                0.10188058                0.02444363                0.08597756                0.01408442
               2.99495401                0.99866358               42.03942943                0.01000001               -0.27179033                0.00931074                0.11699413                0.13047605                0.12439495               -0.06838862
               3.99004713                1.00215582               42.03995465                0.01000000               -0.51800560                0.07807792                0.11376237                0.44189288               -0.00832162                0.00115873
               4.98459389                1.00958063               42.04128035                0.01000000               -0.51537499                0.04708197                0.10240320                0.83139727                0.00192839                0.02296741
               5.97973963                1.02216848               42.04277644                0.01000001               -0.25523989               -0.28816196                0.08777339                0.78141354                0.00552453                0.02528980
               6.97948910                1.02433027               42.04466168                0.99075407               -0.02799667               -0.02938129                0.09827466                0.00476276                0.01333476               -0.00450201
               7.97917970                1.02640185               42.04629758                1.00000000               -0.03238630               -0.03238970                0.10794388                0.00002448                0.00138059               -0.00034411
               8.97884137                1.02847845               42.04794277                0.99999999               -0.03527691               -0.03527207                0.11760072                0.00001803                0.00124458                0.00061026
               9.97847416                1.03055969               42.04957632                0.99997723               -0.03672132               -0.03828557                0.12726699               -0.00024053                0.00057184                0.00668235
              -0.00195877                2.00394373               42.03405416                0.01000000               -0.02546988                0.00225391                0.07784941                0.02242664                0.00211481                0.10728183
               0.99778653                2.00189643               42.03522872                0.01000000               -0.02634485               -0.10057471                0.09171656                0.02407477                0.02683385                0.08813793
               1.99751433                1.99986873               42.03690357                0.01000001               -0.17090058               -0.10938695                0.10128792                0.07634363                0.06581085                0.07384810
               2.99436852                1.99912394               42.03887257                0.01000000               -0.33866138               -0.01442978                0.10496599                0.30216223                0.04566604               -0.02486314
               3.99074111                2.00270876               42.04019474                0.01000000               -0.39972992               -0.02168871                0.10922316                0.76418557                0.00483042                0.03316930
               4.98637392                2.00935455               42.04134391                0.01000001               -0.39875889               -0.11077375                0.10709114                1.04721061               -0.01254475                0.05001493
               5.98276593                2.01667089               42.04261981                0.01000000               -0.44694333               -0.40076396                0.10517253                1.12289710               -0.02246808                0.05930505
               6.97743505                2.02403416               42.04385403                0.01000000               -0.28226641               -0.22743510                0.09980869                0.66287889               -0.02426398                0.04804401
               7.97712060                2.02607568               42.04548391                0.14603708               -0.03288274               -0.03289894                0.10948542                0.00040383               -0.00580611               -0.00124921
               8.97677740                2.02812340               42.04708665                0.99999995               -0.03575376               -0.03567185                0.11920867                0.00012419               -0.00417106               -0.00171640
               9.97640552                2.03017449               42.04874985                1.00000000               -0.03718757               -0.03878674                0.12884798               -0.00020536               -0.00127520                0.00662912
               0.00055440                3.00421443               42.03609740                0.01000001               -0.02299380                0.02642803                0.07821333                0.03348745                0.00032357                0.21878825
               1.00032446                3.00015663               42.03705130                0.01000001               -0.03860500               -0.20658081                0.08964773                0.14262363                0.00674966                0.16965425
               1.99978230                2.99799052               42.03814429                0.01000000               -0.10836201               -0.23349526                0.09910015                0.36288239                0.02189383                0.10830278
               2.99815722                2.99837498               42.03936271                0.01000000               -0.23410319               -0.15037462                0.10576457                0.71572592                0.02314009                0.04962415
               3.99510023                3.00172205               42.04055527                0.01001581               -0.32906208               -0.15287510                0.11066431                1.02462177                0.01126488                0.05078238
               4.99157598                3.00736515               42.04173127                0.01000000               -0.37911385               -0.21822064                0.11312442                1.25124640                0.00219773                0.07617292
               5.98751796                3.01415320               42.04292271                0.01000001               -0.41170456               -0.28175190                0.11363501                1.26339788               -0.01124023                0.10146602
               6.98334189                3.01978157               42.04409617                0.01000001               -0.62097107               -0.35069396                0.11455255                1.31693155               -0.05713080                0.12234569
               7.97509853                3.02574387               42.04465152                0.01000001               -0.42984181               -0.26038255                0.11239906                1.06465153               -0.06723632                0.12436045
               8.97474505                3.02776501               42.04619167                0.01000000               -0.03653286               -0.32160213                0.12086115                0.81588034               -0.00984878                0.11344691
               9.97436788                3.02978396               42.04789717                0.80534298               -0.03771722               -0.70927991                0.13042139                0.95342146               -0.00177556                0.09373005
               0.00682658                4.00447229               42.03815538                0.01000003                0.00363378               -0.04688066                0.07917921                0.21290430               -0.00549318                0.23411637
               1.00686291                3.99776481               42.03872617                0.01000000               -0.01364733               -0.30300318                0.09002592                0.44271049               -0.00024208                0.15921625
               2.00655363                3.99519883               42.03936750                0.01000000               -0.09557023               -0.30188759                0.09999915                0.78954482                0.01278606                0.10106509
               3.00495151                3.99611645               42.04020193                0.01001150               -0.21551314               -0.25098483                0.10834066                1.02955078                0.02679940                0.06768091
               4.00224337                3.99965126               42.04123379                0.01000000               -0.29919060               -0.23767983                0.11465810                1.24749075                0.03564001                0.07035570
               4.99896770                4.00499014               42.04243687                0.01000001               -0.33129503               -0.25937014                0.11910766                1.37898756                0.03863103                0.09854104
               5.99561747                4.01103586               42.04374666                0.01000001               -0.33923445               -0.31801722                0.12221882                1.45385563                0.03239338                0.13922061
               6.99218301                4.01702028               42.04503673                0.01000001               -0.25936392               -0.35844419                0.12437042                1.43780663                0.02134520                0.18398970
               7.99043019                4.02086803               42.04635026                0.01000002               -0.15640439               -0.50736987                0.12767957                1.53338191                0.01580706                0.24822071
               8.98905492                4.02169136               42.04764102                0.01000000                0.05029366               -0.61904252                0.13305399                1.09761718                0.00501001                0.24002747
               9.99143606                4.01598889               42.04881663                0.01000262                0.23811406               -0.99950981                0.14108487                0.83717747                0.00991525                0.17652161
               0.01822744                5.00327682               42.04044819                0.01000003                0.02246933               -0.43056410                0.08100861                0.58177891               -0.00908634                0.26932122
               1.01845213                4.99409657               42.04049420                0.01000000               -0.05029419               -0.32674747                0.09157068                0.91769526               -0.00171896                0.17368991
               2.01722156                4.99195277               42.04063359                0.01000001               -0.20781683               -0.27190760                0.10217473                1.08253774                0.01526573                0.08390587
               3.01429580                4.99335528               42.04111367                0.01000000               -0.30225985               -0.29144280                0.11175051                1.25077635                0.04500175                0.06083994
               4.01117636                4.99696845               42.04207810                0.01000001               -0.32623320               -0.26995194                0.11945446                1.36367784                0.07606330                0.07244042
               5.00777113                5.00217775               42.04341180                0.01000001               -0.33057204               -0.27573126                0.12527681                1.42428955                0.09499033                0.11118972
               6.00456492                5.00779285               42.04498757                0.01000703               -0.27526460               -0.31961516                0.12993279                1.38143819                0.10203435                0.16569367
               7.00226584                5.01261269               42.04666820                0.01000000               -0.17349108               -0.42527529                0.13412115                1.28396746                0.09799475                0.22653919
               8.00109510                5.01559648               42.04829870                0.01000000               -0.03446536               -0.51703194                0.13858933                1.06272622                0.08075704                0.27415737
               9.00157653                5.01538416               42.04969203                0.01000000                0.07106332               -0.56922128                0.14380997                0.71453311                0.04885422                0.28774233
              10.00251636                5.00979376               42.05062882                0.01000001                0.09398296               -0.43591693                0.15068275                0.34730283                0.03109284                0.24448985
               0.03682265                5.99586101               42.04332852                0.13780363               -0.02817842               -0.38233248                0.08405597                0.69934573               -0.00398837                0.16625490
               1.03654087                5.99122986               42.04270095                0.01000001               -0.39384928               -0.15687811                0.09222806                0.83172091               -0.02289200                0.11070988
               2.02894567                5.98976067               42.04168457                0.01000000               -0.57947577               -0.28235357                0.10535854                1.13555243               -0.00835509                0.05964539
               3.02495135                5.99028759               42.04192923                0.01000001               -0.41256055               -0.29376099                0.11592676                1.23124395                0.07636978                0.03219359
               4.02069446                5.99425222               42.04291767                0.01000001               -0.41611341               -0.27091422                0.12377282                1.40381648                0.12920774                0.05481171
               5.01662909                5.99947551               42.04451441                0.01000913               -0.39415818               -0.22206483                0.13104366                1.34681340                0.16662324                0.11064121
               6.01281129                6.00464355               42.04652200                0.01000000               -0.32851756               -0.26164852                0.13726596                1.17370624                0.18547307                0.17801490
               7.01005874                6.00851478               42.04872220                0.01000001               -0.19490276               -0.35816456                0.14272758                0.92334684                0.18424621                0.25418587
               8.00891324                6.01052739               42.05085137                0.01000000               -0.04552189               -0.46156422                0.14785037                0.66195698                0.15624261                0.32451445
               9.00914830                6.01030693               42.05253324                0.01000002                0.03248403               -0.45683520                0.15319143                0.36074857                0.09411363                0.36661258
              10.00956292                6.00727055               42.05337700                0.01000001                0.04146219               -0.17939231                0.15930830                0.17270350                0.05538251                0.34683012
               0.04147665                6.99563017               42.04419580                0.98159357               -0.02897603               -0.02581030                0.09280022                0.00023756               -0.01135315                0.04096344
               1.04118689                6.99095900               42.04337065                0.99278738               -0.03008860               -0.02901572                0.10040291               -0.00015823               -0.01121612                0.01849339
               2.04087488                6.98630569               42.04254650                0.01000000               -0.33788806               -0.18944851                0.10821468                0.65535542                0.02353978                0.01561362
               3.03442913                6.98748006               42.04241365                0.01000001               -0.54050528               -0.44922254                0.11423666                1.27382077                0.10064368               -0.04857420
               4.03006477                6.99155016               42.04353761                0.01000001               -0.50565277               -0.17593574                0.12654349                1.35022800                0.19591745                0.03049107
               5.02431607                6.99773645               42.04560754                0.01000000               -0.55324977               -0.10177789                0.13660879                1.20774589                0.25108171                0.09929970
               6.01899978                7.00255988               42.04817940                0.01000001               -0.47335669               -0.11893025                0.14420493                0.87229006                0.28082563                0.17395689
               7.01484894                7.00544940               42.05114117                0.01000000               -0.32288467               -0.21260285                0.15036989                0.50603260                0.29093051                0.26493218
               8.01254208                7.00636519               42.05410568                0.01000001               -0.14002955               -0.34461429                0.15594096                0.17811427                0.25821813                0.39223309
               9.01204835                7.00624746               42.05648763                0.01000002               -0.02494424               -0.38804957                0.16140695                0.01243418                0.15816903                0.48725710
              10.01204320                7.00620592               42.05744026                0.01000001               -0.00051495               -0.11108109                0.16632471               -0.02561754                0.08837414                0.52544814
               0.04616973                7.99534480               42.04456205                1.00000000               -0.03075527               -0.02936976                0.09843852                0.00105705               -0.00113065                0.02054520
               1.04586218                7.99064955               42.04372018                0.99999999               -0.03190060               -0.03184592                0.10625148                0.00021341               -0.00112246                0.00370401
               2.04553172                7.98597170               42.04287874                0.30214211               -0.03394383               -0.03426136                0.11400167               -0.00023320               -0.01156779               -0.01360996
               3.04518330                7.98130314               42.04183172                0.01000001               -0.40445450               -0.32688607                0.10857047                1.00894901                0.13858509               -0.06956366
               4.03744263                7.99073351               42.04401237                0.01000001               -0.77045067               -0.03674793                0.12747722                1.36256042                0.30418332                0.01828647
               5.02977429                7.99743995               42.04656188                0.01000000               -0.74492373                0.07227524                0.14307703                0.94345304                0.32769513                0.08005072
               6.02254415                8.00226495               42.04973804                0.01000000               -0.67001046                0.05706136                0.15050160                0.55773985                0.37460948                0.14605598
               7.01637408                8.00426272               42.05357994                0.01000001               -0.54333452               -0.00898758                0.15710125                0.12149420                0.43648616                0.23621599
               8.01167746                8.00363511               42.05824076                0.01000002               -0.34089106               -0.12888980                0.16330355               -0.29662696                0.42318728                0.38747973
               9.00955626                8.00254594               42.06196209                0.01000000               -0.12719046               -0.30279970                0.16678340               -0.52457816                0.28441371                0.79095698
              10.00913365                8.00504893               42.06384623                0.01000000               -0.04226033               -0.33216951                0.16977315               -0.37084643                0.19330671                0.73554517
               0.05088830                8.99504277               42.04501838                1.00000000               -0.03240429               -0.03105333                0.10390581                0.00104737                0.00260189                0.01997587
               1.05056426                8.99032209               42.04409283                0.99999998               -0.03358398               -0.03362771                0.11211450                0.00025774                0.00204915                0.00325940
               2.05021662                8.98562047               42.04315714                1.00000000               -0.03589772               -0.03601556                0.12023656                0.00050073               -0.00315466               -0.00945782
               3.04984630                8.98094234               42.04213198                0.01002281               -0.45187261               -0.03780487                0.12817310                0.72698267                0.15765712               -0.01485034
               4.04117917                8.99081521               42.04441576                0.01000000               -0.90963048                0.19073976                0.13657753                0.95895008                0.33199035                0.00932679
               5.03165369                8.99918196               42.04726421                0.01000000               -0.89236822                0.21352319                0.14839211                0.58986346                0.37290143                0.04900464
               6.02333180                9.00370111               42.05085779                0.01000001               -0.78725154                0.18061974                0.15635633                0.26141777                0.44399169                0.08742076
               7.01590866                9.00526964               42.05549779                0.01000002               -0.75027406                0.14721398                0.16275488               -0.04298847                0.55421346                0.14501757
               8.00832632                9.00378739               42.06154908                0.01000001               -0.78828506                0.13667837                0.16739279               -0.39847234                0.84335344                0.26077208
               9.00014296                9.00019146               42.07215455                0.99999997               -0.43530144               -0.14381618                0.17456793               -0.65064171                0.53049052                0.50953155
               9.99962029                8.99956253               42.07214258                0.99999999               -0.05226676               -0.30027318                0.17372742               -0.50707436               -0.00042694                0.41391441
               0.05563205                9.99472374               42.04537039                0.99999999               -0.03424122               -0.03190335                0.10953802               -0.00029959                0.01393343                0.01483636
               1.05528964                9.98997699               42.04443522                0.99999998               -0.03552860               -0.03450910                0.11785704               -0.00107951                0.01757454                0.00154310
               2.05492148                9.98525139               42.04357592                0.99999999               -0.03807100               -0.03690752                0.12634884               -0.00101211                0.01729682               -0.00284370
               3.05452822                9.98054704               42.04264441                0.63975493               -0.82697314               -0.03952986                0.13470077                0.93303672                0.16163378               -0.00507388
               4.03838201                9.99454830               42.04468703                0.01000512               -1.29212809                0.37330971                0.14530570                0.77845301                0.30807395                0.01179097
               5.02868565               10.00171042               42.04750921                0.01000000               -0.83485953                0.25284575                0.15412203                0.26964789                0.36798209                0.03125484
               6.02168482               10.00587734               42.05118880                0.01000000               -0.66288156                0.21762332                0.16168113                0.11013101                0.45959147                0.05161113
               7.01542802               10.00720700               42.05609796                0.01000004               -0.64493129                0.19373561                0.16713732               -0.02349750                0.62192798                0.08108540
               8.00878620               10.00636867               42.06317774                0.01000002               -0.73298651                0.25812789                0.17027492               -0.33088182                0.82049051                0.17920919
               9.00076829                9.99966962               42.07216407                0.99999999               -0.42680766               -0.05218460                0.17324167               -0.30372742                0.45025254                0.00033799
              10.00025004                9.99904347               42.07215210                1.00000000               -0.05182489               -0.05190600                0.17240089                0.00035963                0.00038225               -0.00038158
              -0.00730625                0.00442050               43.03477535                0.99617752               -0.02314893               -0.02152197                0.07010856                0.00289616               -0.00353799                0.00401564
               0.99246226                0.00240997               43.03614349                0.99999999               -0.02524835               -0.02595164                0.08433898                0.00225403               -0.00386657               -0.00135223
               1.99218878                0.00041292               43.03750447                0.04595529               -0.01535205               -0.03038784                0.09857155                0.01043619                0.05846857               -0.00149572
               2.99215522               -0.00140581               43.04011950                0.01000001               -0.02606272               -0.02940151                0.08093542                0.19842597                0.02100923               -0.01117835
               3.99166753                0.00090885               43.04110908                0.01000000               -0.18269863                0.11173270                0.10504134                0.21526207               -0.01629179               -0.02016273
               4.98850125                0.00855357               43.04239934                0.01005609               -0.56936799                0.12647709                0.10131387                0.57078244                0.02579013                0.00506421
               5.98028017                0.02310139               43.04432680                0.06808644               -0.42778431               -0.02651710                0.08443158                0.61858177                0.03668238               -0.00238669
               6.97994556                0.02537572               43.04643500                0.98319876               -0.03193471               -0.02909425                0.09647762                0.00802268                0.02473470               -0.00465047
               7.97964148                0.02752595               43.04817547                1.00000000               -0.03187194               -0.03213047                0.10626683                0.00154663                0.00823095               -0.00043288
               8.97930812                0.02968035               43.04995306                1.00000000               -0.03479110               -0.03506506                0.11605301                0.00154937                0.00805204                0.00096849
               9.97894565                0.03184082               43.05168936                0.99999999               -0.03624695               -0.03816909                0.12600406                0.00129005                0.00590353                0.00536007
              -0.00526676                1.00420528               43.03480069                0.97983315               -0.02446491               -0.02210316                0.07432674                0.00075101                0.00176098                0.00451628
               0.99448859                1.00215046               43.03616792                0.17102814               -0.02661029               -0.02669993                0.08861667                0.00011619                0.00382000               -0.00347336
               1.99420104                1.00010904               43.03757817                0.01000000               -0.02985392               -0.03094134                0.10292921                0.01213186                0.07250387                0.01194400
               2.99389151                0.99830018               43.04032389                0.01000001               -0.26802870                0.01624324                0.08763754                0.14624067                0.05388582               -0.04203294
               3.98884046                1.00202618               43.04111262                0.01000000               -0.53893556                0.08922395                0.10886799                0.46598758               -0.03636391               -0.00418736
               4.98311280                1.00981834               43.04231981                0.01000000               -0.53927760                0.05265856                0.10365193                0.86387328               -0.02841656                0.02239151
               5.97805491                1.02283622               43.04365497                0.01000001               -0.26496480               -0.29636167                0.08792062                0.81084604               -0.00748365                0.03249505
               6.97781351                1.02508478               43.04564314                0.99009879               -0.02751403               -0.02930811                0.09803394                0.00673995                0.01358249               -0.00456462
               7.97750463                1.02720465               43.04737682                0.99999999               -0.03236620               -0.03237738                0.10789350                0.00006859                0.00137643               -0.00037397
               8.97716618                1.02932970               43.04911970                0.99999999               -0.03532740               -0.03531671                0.11777008                0.00004828                0.00125205                0.00066427
               9.97679808                1.03145913               43.05085114                0.99999999               -0.03681018               -0.03842304                0.12771143               -0.00026538                0.00058001                0.00665593
              -0.00318158                2.00397844               43.03483614                0.01000000               -0.02575974                0.00654361                0.07853463                0.03019015                0.00211364                0.10525852
               0.99656083                2.00187597               43.03615189                0.01000000               -0.02683616               -0.10320762                0.09285262                0.03172230                0.02476449                0.08499414
               1.99628170                1.99979409               43.03792539                0.01000001               -0.16989646               -0.11434380                0.10253885                0.08148543                0.05757058                0.06832196
               2.99316290                1.99891906               43.03991002                0.01000000               -0.34062906               -0.00529507                0.10171992                0.30644581                0.03823998               -0.01576356
               3.98946912                2.00269333               43.04127339                0.01000000               -0.40971119               -0.01657583                0.10679247                0.79135210               -0.00978911                0.02404653
               4.98496867                2.00960674               43.04242632                0.01000001               -0.41192348               -0.11298515                0.10814196                1.08634990               -0.02771566                0.05006532
               5.98123065                2.01717416               43.04367957                0.01000000               -0.46283707               -0.41235936                0.10635358                1.16488202               -0.03841063                0.06903134
               6.97571193                2.02478956               43.04485119                0.01000000               -0.29163594               -0.23410281                0.09959256                0.68730884               -0.03231728                0.05484463
               7.97539793                2.02687841               43.04657901                0.15024868               -0.03286619               -0.03289369                0.10947476                0.00052565               -0.00572441               -0.00039491
               8.97505461                2.02897401               43.04828043                0.99999999               -0.03582246               -0.03575759                0.11954803                0.00018594               -0.00407258               -0.00158864
               9.97468148                2.03107236               43.05004110                1.00000000               -0.03731267               -0.03896451                0.12941079               -0.00023144               -0.00123445                0.00658631
              -0.00045803                3.00433615               43.03687934                0.01000000               -0.02345908                0.03216422                0.07809098                0.04140837               -0.00064347                0.21568286
               0.99930738                3.00008630               43.03795081                0.01000001               -0.03771568               -0.21301870                0.09016769                0.15631492                0.00467231                0.16462425
               1.99878766                2.99782217               43.03913751                0.01000000               -0.10930957               -0.24239048                0.09951587                0.38583719                0.01737845                0.10383781
               2.99712119                2.99819428               43.04041843                0.01000000               -0.24039200               -0.15092247                0.10612282                0.74727092                0.01672732                0.05001702
               3.99397982                3.00169466               43.04166623                0.01001727               -0.33811088               -0.15585407                0.11153163                1.06630613                0.00434299                0.05080356
               4.99035897                3.00755864               43.04287005                0.01000000               -0.39050462               -0.22442515                0.11464406                1.29867989               -0.00820770                0.07787979
               5.98616973                3.01458903               43.04406730                0.01000001               -0.42517701               -0.28969944                0.11514891                1.31027475               -0.02187018                0.10643087
               6.98185543                3.02040272               43.04524753                0.01000001               -0.64195199               -0.36138011                0.11562255                1.36464884               -0.06834999                0.13266063
               7.97333069                3.02654678               43.04577989                0.01000001               -0.44397434               -0.26813671                0.11343570                1.10272431               -0.07381209                0.13225871
               8.97297595                3.02861455               43.04740304                0.01000000               -0.03669643               -0.33192448                0.12145900                0.84513189               -0.01047995                0.11888807
               9.97259676                3.03067984               43.04920477                0.83250115               -0.03791875               -0.73481651                0.13111378                0.98814138               -0.00176932                0.09817659
               0.00614629                4.00462172               43.03894341                0.01000003                0.00548207               -0.04865528                0.07832672                0.22436188               -0.00566773                0.23150251
               1.00620111                3.99761560               43.03962675                0.01000000               -0.01279102               -0.31316748                0.09023868                0.46562649               -0.00067846                0.15577795
               2.00589047                3.99494628               43.04037143                0.01000000               -0.09826474               -0.31049615                0.10108130                0.82579257                0.01111870                0.09890085
               3.00423582                3.99590061               43.04129292                0.01001359               -0.22297955               -0.25565804                0.10998865                1.07424660                0.02355423                0.06752052
               4.00143088                3.99957625               43.04238895                0.01000000               -0.30939588               -0.24308098                0.11677592                1.29887678                0.03071255                0.07092104
               4.99804790                4.00511824               43.04363721                0.01000001               -0.34194125               -0.26627287                0.12119165                1.43323542                0.03197438                0.10097158
               5.99459205                4.01138017               43.04497739                0.01000001               -0.35003675               -0.32714537                0.12402946                1.50928755                0.02461689                0.14388088
               6.99104716                4.01756196               43.04628824                0.01000000               -0.26757304               -0.36901590                0.12594038                1.49133551                0.01415164                0.19113734
               7.98924059                4.02151567               43.04763316                0.01000001               -0.16114924               -0.52351433                0.12888210                1.58961347                0.01067914                0.25927897
               8.98782418                4.02233552               43.04897547                0.01000000                0.05365627               -0.64034911                0.13395088                1.13719208                0.00258749                0.24960620
               9.99031372                4.01637603               43.05023072                0.01000004                0.24895396               -1.03666598                0.14177225                0.86670314                0.00891234                0.18450954
               0.01804146                5.00336305               43.04124990                0.01000003                0.02538940               -0.45002778                0.07930228                0.60718327               -0.00825010                0.26688574
               1.01829535                4.99382295               43.04140792                0.01000000               -0.05114772               -0.33729833                0.09138429                0.95703666               -0.00037838                0.16937472
               2.01701850                4.99161224               43.04165981                0.01000001               -0.21595973               -0.27843156                0.10345633                1.12857200                0.01599747                0.08234363
               3.01397616                4.99308111               43.04223862                0.01000000               -0.31393885               -0.29770707                0.11408174                1.30186090                0.04385245                0.06150685
               4.01073973                4.99683304               43.04328509                0.01000001               -0.33781968               -0.27634542                0.12187182                1.41862362                0.07279221                0.07318634
               5.00721976                5.00223318               43.04467484                0.01000001               -0.34139850               -0.28261594                0.12758764                1.48064735                0.09010708                0.11339822
               6.00391176                5.00804613               43.04629676                0.01000001               -0.28365619               -0.32846876                0.13185703                1.43588737                0.09692966                0.16966700
               7.00154664                5.01302241               43.04801785                0.01000000               -0.17811825               -0.43771262                0.13567814                1.33411906                0.09307653                0.23286982
               8.00034939                5.01607649               43.04969070                0.01000000               -0.03436047               -0.53272813                0.13982166                1.10399581                0.07684880                0.28223892
               9.00085943                5.01580756               43.05113720                0.01000000                0.07502099               -0.58835634                0.14503320                0.74190100                0.04659243                0.29592559
              10.00184981                5.00994652               43.05214294                0.01000001                0.09903807               -0.45268242                0.15189904                0.36016824                0.02983282                0.25099996
               0.03737015                5.99562117               43.04415511                0.11853531               -0.02774950               -0.39844901                0.08141892                0.73024029               -0.00391831                0.16676271
               1.03709265                5.99086963               43.04361336                0.01000001               -0.40831983               -0.16084778                0.09067293                0.86605684               -0.02003126                0.10914603
               2.02920375                5.98937765               43.04274468                0.01000000               -0.60202083               -0.28876626                0.10701036                1.18035646               -0.00386006                0.05767276
               3.02505223                5.98994647               43.04311251                0.01000001               -0.42762309               -0.30530838                0.11810468                1.28029997                0.07673837                0.02976281
               4.02065129                5.99404934               43.04416813                0.01000001               -0.43022354               -0.27707746                0.12720763                1.45802453                0.12603262                0.05515695
               5.01644776                5.99946592               43.04583759                0.01000001               -0.40653567               -0.22756080                0.13337671                1.40049031                0.16396535                0.11220607
               6.01252057                6.00481079               43.04790571                0.01000000               -0.33742911               -0.26857546                0.13919803                1.22173107                0.18251932                0.18145054
               7.00969918                6.00880771               43.05015745                0.01000001               -0.19926110               -0.36823265                0.14412277                0.96349021                0.18178125                0.25925611
               8.00853535                6.01086111               43.05233611                0.01000000               -0.04535070               -0.47438796                0.14901985                0.69199593                0.15449578                0.33113229
               9.00879217                6.01056840               43.05407107                0.01000001                0.03519090               -0.46995307                0.15432020                0.37714908                0.09307927                0.37354054
              10.00923917                6.00732238               43.05497554                0.01000000                0.04470026               -0.18617925                0.16031574                0.18007102                0.05469519                0.35202695
               0.04214933                6.99539407               43.04512285                0.97527927               -0.02893289               -0.02556645                0.09232469                0.00071548               -0.01195062                0.04280680
               1.04186000                6.99060600               43.04437249                0.98386849               -0.03002666               -0.02865597                0.10042230                0.00014032               -0.01172701                0.02034309
               2.04154880                6.98583692               43.04362510                0.01000000               -0.34747682               -0.19384173                0.10873635                0.67418636                0.02163475                0.01411966
               3.03491047                6.98697495               43.04354875                0.01000001               -0.55840172               -0.46091302                0.12648705                1.31732309                0.09877455               -0.05816077
               4.03038077                6.99129149               43.04481843                0.01000000               -0.52211747               -0.18014580                0.12830556                1.40932101                0.19890795                0.02642721
               5.02446812                6.99768196               43.04698796                0.01000000               -0.56880880               -0.10370662                0.13992178                1.25380906                0.25054049                0.10162574
               6.01900459                7.00267462               43.04963289                0.01000001               -0.48509952               -0.12220073                0.14592171                0.91025031                0.27997833                0.17621652
               7.01476613                7.00565775               43.05265187                0.01000000               -0.32879853               -0.21873275                0.15157687                0.53396937                0.29076644                0.26906768
               8.01242862                7.00658873               43.05567136                0.01000001               -0.14124938               -0.35403053                0.15699028                0.19623218                0.25884777                0.39815590
               9.01194114                7.00640850               43.05810656                0.01000002               -0.02426771               -0.39540271                0.16205581                0.02219014                0.15888881                0.49301570
              10.01194326                7.00622294               43.05911024                0.01000001                0.00021243               -0.11132573                0.16695326               -0.02119864                0.08821150                0.52851248
               0.04696060                7.99510984               43.04554542                1.00000000               -0.03079878               -0.02924159                0.09799321                0.00118549               -0.00150541                0.02012956
               1.04665261                7.99029651               43.04478299                0.99999999               -0.03210343               -0.03191113                0.10657463                0.00030500               -0.00155240                0.00387986
               2.04631853                7.98550082               43.04401885                0.31426582               -0.03542444               -0.03449141                0.11469194                0.00038091               -0.02349506               -0.01314244
               3.04594412                7.98072821               43.04282154                0.01000001               -0.40939178               -0.33083632                0.05777459                1.03943388                0.15455633               -0.07563580
               4.03813069                7.99044643               43.04527542                0.01000000               -0.79016485               -0.03763848                0.14117230                1.40928205                0.31556957                0.01911321
               5.03014082                7.99739179               43.04802076                0.01000000               -0.76904510                0.07469519                0.14559081                0.97885096                0.33123942                0.08049306
               6.02274979                8.00236678               43.05125125                0.01000000               -0.68381837                0.05763110                0.15237764                0.58311405                0.37414897                0.14754083
               7.01646446                8.00443305               43.05515909                0.01000001               -0.55202716               -0.01069096                0.15826630                0.13654909                0.43817216                0.23888533
               8.01170925                8.00378050               43.05987731                0.01000002               -0.34313455               -0.13357365                0.16388385               -0.29008487                0.42516663                0.39203428
               9.00960176                8.00266034               43.06362884                0.01000000               -0.12614578               -0.31080375                0.16762527               -0.52352429                0.28493700                0.79891769
              10.00918633                8.00509587               43.06553478                0.01000000               -0.04154332               -0.33338010                0.17055660               -0.37200338                0.19298883                0.74048603
               0.05179969                8.99480924               43.04605590                1.00000000               -0.03245677               -0.03092307                0.10347689                0.00114016                0.00273313                0.01965383
               1.05147512                8.98996778               43.04521649                0.99999998               -0.03374831               -0.03379267                0.11266218                0.00041311                0.00213211                0.00324505
               2.05112473                8.98514709               43.04436457                1.00000000               -0.03607934               -0.03635687                0.12143475                0.00112557               -0.00340656               -0.00923077
               3.05075354                8.98035822               43.04341932                0.01000000               -0.46109497               -0.03880419                0.12969129                0.74985007                0.15701811               -0.00361367
               4.04190283                8.99053872               43.04578798                0.01000000               -0.93143768                0.19582330                0.13960267                0.98319506                0.33212593                0.01407982
               5.03212478                8.99917587               43.04876803                0.01000000               -0.91386112                0.21787610                0.15218441                0.61117912                0.37487219                0.04759145
               6.02362560                9.00382724               43.05243424                0.01000001               -0.80206975                0.18350092                0.15860784                0.27366586                0.44430101                0.08821391
               7.01608339                9.00544393               43.05713063                0.01000002               -0.76129876                0.14845733                0.16403228               -0.03737507                0.55521656                0.14602175
               8.00839963                9.00391726               43.06323487                0.01000005               -0.79640514                0.13666263                0.16925096               -0.40244847                0.84516788                0.26302030
               9.00015529                9.00019243               43.07390160                0.99999997               -0.43837392               -0.14951242                0.17484860               -0.65879305                0.53403901                0.51427882
               9.99963215                8.99955533               43.07387985                0.99999995               -0.05231359               -0.30295579                0.17372259               -0.50952407               -0.00043040                0.41707689
               0.05666632                9.99449138               43.04646596                0.99999999               -0.03433033               -0.03178597                0.10933180               -0.00040873                0.01416594                0.01477041
               1.05632302                9.98962066               43.04561803                0.99999998               -0.03578637               -0.03471155                0.11856137               -0.00109544                0.01808291                0.00145106
               2.05595059                9.98477368               43.04484853                0.99996767               -0.03867661               -0.03734087                0.12808630               -0.00084009                0.01805078               -0.00280332
               3.05554949                9.97995212               43.04400612                0.69096716               -0.84868235               -0.04060988                0.13769373                0.95905541                0.16417564               -0.00498351
               4.03897695                9.99436289               43.04617187                0.01000002               -1.32367973                0.38241673                0.15002403                0.79727136                0.30881770                0.01544527
               5.02907589               10.00174931               43.04907132                0.01003668               -0.85109539                0.25734407                0.15860408                0.27880603                0.36721010                0.02979687
               6.02195504               10.00603680               43.05282415                0.01000000               -0.67244781                0.22095591                0.16512762                0.11558807                0.45858444                0.05157121
               7.01562693               10.00740220               43.05777609                0.01000001               -0.65216276                0.19582638                0.16918073               -0.02179765                0.62072566                0.08143809
               8.00891178               10.00651375               43.06490091                0.01000002               -0.74195544                0.25964949                0.17315856               -0.33538960                0.81719233                0.17969848
               9.00078783                9.99967010               43.07389651                0.99990064               -0.43208733               -0.05223323                0.17324706               -0.31059600                0.45120660                0.00033938
              10.00027004                9.99903675               43.07387474                1.00000000               -0.05177889               -0.05185825                0.17212351                0.00045430                0.00038295               -0.00038453
              -0.00878121                0.00441437               44.03547483                0.99452247               -0.02315352               -0.02154803                0.06982273                0.00294924               -0.00382413                0.00410088
               0.99098725                0.00235063               44.03698706                0.99999999               -0.02522616               -0.02603830                0.08424428                0.00237626               -0.00389824               -0.00134816
               1.99071427                0.00030265               44.03849207                0.06165028               -0.02175572               -0.03064369                0.09903598                0.00401496                0.04335082               -0.00149182
               2.99055214               -0.00169461               44.04095274                0.01000001               -0.02498204               -0.02729819                0.08067375                0.21622413                0.01355356               -0.00684748
               3.99021462                0.00073686               44.04208508                0.01000000               -0.17477151                0.11708936                0.09415893                0.22932423               -0.02927139               -0.01098287
               4.98705671                0.00867326               44.04340766                0.01000000               -0.58146669                0.13282184                0.09707685                0.59231167                0.00337387                0.00499834
               5.97858529                0.02373008               44.04516648                0.06127463               -0.44187521               -0.02644682                0.08381623                0.64009671                0.02635745               -0.00337724
               6.97821920                0.02611251               44.04739855                0.98079582               -0.03352215               -0.02897154                0.09630157                0.01107064                0.02584159               -0.00460737
               7.97791485                0.02831211               44.04923736                1.00000000               -0.03185877               -0.03212873                0.10605092                0.00170179                0.00823938               -0.00054489
               8.97758203                0.03051493               44.05111362                1.00000000               -0.03482793               -0.03505663                0.11612873                0.00159280                0.00781406                0.00109684
               9.97721829                0.03272384               44.05295110                1.00000000               -0.03637400               -0.03827702                0.12627248                0.00135091                0.00570984                0.00518393
              -0.00668798                1.00419889               44.03554500                0.97647585               -0.02451437               -0.02220585                0.07458114                0.00079586                0.00188955                0.00448220
               0.99306687                1.00209025               44.03705696                0.19072764               -0.02674901               -0.02686081                0.08918141                0.00013182                0.00389312               -0.00345307
               1.99277704                0.99999622               44.03861269                0.01000000               -0.02848000               -0.03134088                0.10401200                0.00677556                0.05655697                0.00931429
               2.99249727                0.99803240               44.04118218                0.01000001               -0.27265538                0.02043740                0.08357345                0.15723608                0.02622718               -0.02703407
               3.98732393                1.00190776               44.04213201                0.01000000               -0.55070276                0.09496100                0.09894231                0.48917323               -0.05024428               -0.00004538
               4.98148322                1.01000148               44.04335339                0.01000000               -0.55286497                0.05661766                0.10119402                0.89572853               -0.04848019                0.02074372
               5.97626663                1.02346561               44.04453485                0.01000001               -0.27221640               -0.30454465                0.08764200                0.84044418               -0.02070620                0.03931726
               6.97603889                1.02582280               44.04662236                0.98952739               -0.02679864               -0.02929243                0.09800019                0.00976424                0.01364439               -0.00493578
               7.97573066                1.02799083               44.04845545                0.99999999               -0.03233991               -0.03236986                0.10780711                0.00017903                0.00133970               -0.00037302
               8.97539209                1.03016436               44.05029817                0.99999999               -0.03538879               -0.03533204                0.11793390                0.00010397                0.00122439                0.00084714
               9.97502288                1.03234107               44.05213055                0.99999719               -0.03692105               -0.03856320                0.12815549               -0.00026810                0.00059912                0.00652369
              -0.00454801                2.00397025               44.03562485                0.01000000               -0.02594224                0.01109633                0.07909869                0.03864415                0.00212549                0.10257223
               0.99519256                2.00181342               44.03708577                0.01000000               -0.02721821               -0.10579950                0.09370344                0.03992191                0.02226220                0.08132771
               1.99490762                1.99967583               44.03895435                0.01000001               -0.17036224               -0.11874884                0.10151791                0.08929653                0.04680947                0.06204377
               2.99178532                1.99871413               44.04090697                0.01000000               -0.34393029               -0.00199929                0.09954480                0.32130080                0.02475971               -0.00506052
               3.98802902                2.00263608               44.04233059                0.01000000               -0.41859449               -0.01425961                0.10529419                0.82515068               -0.02137071                0.02504749
               4.98341343                2.00980561               44.04350675                0.01000001               -0.42280809               -0.11448073                0.10775046                1.12653159               -0.04158080                0.05101774
               5.97957285                2.01763918               44.04474688                0.01000000               -0.47620798               -0.42408056                0.10696294                1.20787496               -0.05484302                0.07890650
               6.97388927                2.02552666               44.04584588                0.01000000               -0.29979949               -0.24125332                0.09897981                0.71244729               -0.04103545                0.06233879
               7.97357686                2.02766472               44.04767341                0.15569159               -0.03277031               -0.03279648                0.10927213                0.00088709               -0.00554676                0.00113217
               8.97323386                2.02980829               44.04947761                0.99999999               -0.03586805               -0.03583145                0.11990911                0.00031663               -0.00381380               -0.00128779
               9.97285950                2.03195258               44.05133806                1.00000000               -0.03743597               -0.03916048                0.12999230               -0.00026339               -0.00112644                0.00645768
              -0.00160143                3.00442082               44.03765922                0.01000253               -0.02388440                0.03807608                0.07791051                0.05007182               -0.00178564                0.21092452
               0.99815973                2.99997426               44.03885465                0.01000001               -0.03681619               -0.21950754                0.09070758                0.17145914                0.00195262                0.15881088
               1.99766225                2.99762124               44.04013461                0.01000000               -0.10983445               -0.25106455                0.10018397                0.41101864                0.01171000                0.10049982
               2.99596304                2.99799242               44.04148517                0.01000000               -0.24633926               -0.15337369                0.10772912                0.78105433                0.00957220                0.05276940
               3.99273547                3.00162256               44.04278590                0.01000001               -0.34761449               -0.15926274                0.11304811                1.11018784               -0.00421289                0.05265868
               4.98901075                3.00771186               44.04402415                0.01000000               -0.40161939               -0.23004182                0.11624298                1.34833720               -0.01949069                0.08049770
               5.98470308                3.01498400               44.04522569                0.01000001               -0.43742250               -0.29775839                0.11652606                1.35858959               -0.03361975                0.11122932
               6.98026230                3.02099773               44.04640862                0.01000001               -0.66181503               -0.37269809                0.11661476                1.41359519               -0.08012623                0.14355658
               7.97146678                3.02733490               44.04692024                0.01000001               -0.45758690               -0.27609591                0.11463223                1.14148370               -0.08053661                0.14086611
               8.97111056                3.02944773               44.04862085                0.01000001               -0.03688739               -0.34294791                0.12219165                0.87491060               -0.01137876                0.12456519
               9.97072903                3.03155786               44.05051944                0.86065990               -0.03815345               -0.76058336                0.13186406                1.02322837               -0.00174421                0.10247839
               0.00534654                4.00473177               44.03972192                0.01000003                0.00747880               -0.05089945                0.07719822                0.23654086               -0.00584663                0.22725147
               1.00542132                3.99742326               44.04053094                0.01000000               -0.01183501               -0.32384019                0.09098024                0.48988505               -0.00141029                0.15164304
               2.00510984                3.99465454               44.04138913                0.01000000               -0.10081224               -0.31974260                0.10338488                0.86359722                0.00859512                0.09680979
               3.00340508                3.99564666               44.04240170                0.01001576               -0.22982537               -0.26132957                0.11272980                1.11904065                0.01897086                0.06761732
               4.00051333                3.99945083               44.04356931                0.01000000               -0.31931687               -0.24847857                0.11962154                1.35093175                0.02422536                0.07158041
               4.99701874                4.00520478               44.04486071                0.01000001               -0.35272751               -0.27332658                0.12378091                1.48920175                0.02364428                0.10279694
               5.99345878                4.01168401               44.04622725                0.01000001               -0.36042351               -0.33630615                0.12608506                1.56626756                0.01560335                0.14771761
               6.98981027                4.01807270               44.04755554                0.01000000               -0.27511205               -0.37984307                0.12749848                1.54649593                0.00609407                0.19783212
               7.98795654                4.02214280               44.04892790                0.01000802               -0.16505810               -0.53982960                0.13017554                1.64612913                0.00515120                0.26971532
               8.98650911                4.02294933               44.05032004                0.01000000                0.05736357               -0.66203280                0.13507648                1.17718448                0.00001971                0.25905592
               9.98910381                4.01674091               44.05165207                0.01000001                0.25946989               -1.07444618                0.14250279                0.89778345                0.00792061                0.19223115
               0.01774641                5.00340283               44.04203424                0.01000003                0.02882522               -0.47042275                0.07721243                0.63352599               -0.00724185                0.26311098
               1.01803466                4.99349745               44.04232188                0.01000000               -0.05178047               -0.34875261                0.09169471                0.99764555                0.00105405                0.16385374
               2.01671080                4.99122639               44.04270272                0.01000001               -0.22435463               -0.28528553                0.10564399                1.17639229                0.01647201                0.08043467
               3.01354757                4.99276583               44.04339530                0.01000000               -0.32574077               -0.30369666                0.11706934                1.35421021                0.04172957                0.05954209
               4.01019599                4.99665299               44.04451554                0.01000001               -0.34929844               -0.28144038                0.12483031                1.47281029                0.06776159                0.07359413
               5.00656160                5.00224533               44.04596355                0.01000001               -0.35177416               -0.28991306                0.13021428                1.53784756                0.08389272                0.11403930
               6.00316050                5.00825787               44.04762471                0.01000001               -0.29140825               -0.33737919                0.13390751                1.49192918                0.09050039                0.17209652
               7.00073344                5.01340087               44.04938177                0.01000000               -0.18238843               -0.45034111                0.13714599                1.38670609                0.08742022                0.23809584
               7.99951273                5.01653831               44.05109513                0.01000000               -0.03386475               -0.54867145                0.14103537                1.14696033                0.07270816                0.28923782
               9.00005614                5.01620708               44.05259269                0.01000000                0.07943990               -0.60704772                0.14618501                0.76959862                0.04435189                0.30328476
              10.00110153                5.01006894               44.05366680                0.01000001                0.10453905               -0.46985603                0.15282244                0.37338976                0.02874712                0.25695572
               0.03782780                5.99532332               44.04495690                0.10014209               -0.02771234               -0.41534183                0.07876184                0.76208667               -0.00453751                0.16801134
               1.03755067                5.99044821               44.04451441                0.01000001               -0.42292441               -0.16506110                0.08971256                0.90204727               -0.01680637                0.10742007
               2.02936931                5.98894883               44.04382478                0.01000000               -0.62439994               -0.29562357                0.10908054                1.22725144               -0.00022003                0.05548900
               3.02506268                5.98957273               44.04429133                0.01000001               -0.44396403               -0.30790005                0.12095212                1.32684579                0.07634332                0.03708905
               4.02049003                5.99382202               44.04546183                0.01000001               -0.44459316               -0.28407900                0.12986447                1.51207591                0.12308669                0.05339810
               5.01617081                5.99940651               44.04718194                0.01000001               -0.41741032               -0.23297620                0.13578070                1.45326127                0.15905021                0.11285918
               6.01214182                6.00493643               44.04930596                0.01000000               -0.34534262               -0.27596033                0.14070408                1.27171470                0.17888701                0.18272344
               7.00926396                6.00906588               44.05160466                0.01000000               -0.20261432               -0.37858796                0.14529475                1.00626494                0.17907948                0.26264152
               8.00808954                6.01116937               44.05383177                0.01000000               -0.04467564               -0.48755986                0.15007923                0.72470548                0.15288641                0.33632069
               9.00837045                6.01080837               44.05561964                0.01000001                0.03791696               -0.48285395                0.15535833                0.39527656                0.09225334                0.37913037
              10.00884788                6.00734379               44.05658331                0.01000000                0.04774282               -0.19260075                0.16118748                0.18846923                0.05411307                0.35575867
               0.04273836                6.99509599               44.04604229                0.96968967               -0.02882622               -0.02544879                0.09143419                0.00185895               -0.01239181                0.04559016
               1.04245009                6.99019623               44.04537910                0.96905782               -0.03035201               -0.02825354                0.10144880                0.00124742               -0.01233276                0.02291625
               2.04213132                6.98531391               44.04472122                0.01000000               -0.36193983               -0.19897218                0.11101221                0.70327758                0.03142689                0.01218661
               3.03521130                6.98660783               44.04494339                0.01000001               -0.57637999               -0.48264394                0.12749645                1.38063408                0.09835085               -0.10189414
               4.03060372                6.99097141               44.04610372                0.01000003               -0.53494405               -0.18379032                0.13468235                1.45213757                0.18721218                0.03652233
               5.02451242                6.99758581               44.04840597                0.01000000               -0.58341430               -0.10683870                0.14146455                1.30098426                0.24935167                0.10076912
               6.01893543                7.00273867               44.05109783                0.01000000               -0.49433105               -0.12610085                0.14681231                0.94951389                0.27801123                0.17668621
               7.01462580                7.00582911               44.05417271                0.01000000               -0.33355405               -0.22521046                0.15226695                0.56479741                0.29082878                0.27118557
               8.01226435                7.00678711               44.05724549                0.01000001               -0.14192722               -0.36285416                0.15776288                0.21711962                0.25931509                0.40222722
               9.01178725                7.00655000               44.05972875                0.01000002               -0.02321338               -0.40395586                0.16290815                0.03284452                0.15922003                0.49736292
              10.01180008                7.00621693               44.06077933                0.01000001                0.00128304               -0.11273758                0.16755175               -0.01662342                0.08835516                0.53112063
               0.04766449                7.99481434               44.04652191                1.00000000               -0.03067925               -0.02903369                0.09725952                0.00105099               -0.00183061                0.01979918
               1.04735770                7.98988314               44.04585168                0.99999999               -0.03206108               -0.03221453                0.10722156                0.00015921               -0.00212897                0.00405487
               2.04702327                7.98496939               44.04517258                0.15246181               -0.01699197               -0.03538698                0.11729747               -0.00744750               -0.07824311               -0.01280077
               3.04701786                7.97991985               44.04298721                0.01000001               -0.42342349               -0.34611722                0.12363508                1.07643903                0.14448962               -0.07510909
               4.03855480                7.99014621               44.04683582                0.01001753               -0.82973070               -0.03855286                0.14430566                1.46095767                0.35514967                0.01987462
               5.03042324                7.99726974               44.04947369                0.01000000               -0.78330011                0.07487102                0.14751919                1.01303313                0.32055411                0.07907401
               6.02288880                8.00241441               44.05278559                0.01000000               -0.69558892                0.05769104                0.15287055                0.61058649                0.37485868                0.14730651
               7.01651147                8.00456167               44.05674527                0.01000001               -0.55888775               -0.01280153                0.15864762                0.15422225                0.43983645                0.24006816
               8.01171104                8.00391229               44.06151844                0.01000002               -0.34569723               -0.13814564                0.16437223               -0.28190263                0.42779694                0.39582824
               9.00959752                8.00272926               44.06531460                0.01000004               -0.12647451               -0.31703123                0.16923064               -0.52158667                0.28572542                0.80274930
              10.00918155                8.00508904               44.06725736                0.01000000               -0.04159700               -0.33264094                0.17272107               -0.37126589                0.19251719                0.74049472
               0.05262178                8.99451532               44.04708792                1.00000000               -0.03235464               -0.03076533                0.10289289                0.00099868                0.00292152                0.01933813
               1.05229823                8.98955194               44.04634608                0.99999998               -0.03380591               -0.03401027                0.11319035                0.00009394                0.00206127                0.00319953
               2.05194566                8.98460618               44.04558583                0.99999999               -0.03674898               -0.03709938                0.12356419                0.00023350               -0.00424471               -0.00866477
               3.05156325                8.97968548               44.04472581                0.01001010               -0.47363417               -0.03230376                0.13391591                0.75323566                0.15663101                0.05046989
               4.04247298                8.99020036               44.04720782                0.01000000               -0.95291865                0.19716108                0.14685995                1.01680610                0.33136740                0.00277032
               5.03250488                8.99908323               44.05030790                0.01000000               -0.93088741                0.22150251                0.15467472                0.63232290                0.37455206                0.04669431
               6.02385523                9.00389249               44.05402994                0.01000001               -0.81462561                0.18572643                0.15985004                0.28763958                0.44405967                0.08757159
               7.01621237                9.00557308               44.05877844                0.01000002               -0.76982593                0.14915855                0.16491977               -0.03069913                0.55690554                0.14647864
               8.00845871                9.00402420               44.06493410                0.01001555               -0.80168013                0.13591334                0.16992683               -0.40325633                0.84942199                0.26527064
               9.00017876                9.00020937               44.07565152                0.99999997               -0.44017564               -0.15213359                0.17513948               -0.66195070                0.53721385                0.51836798
               9.99965520                8.99956411               44.07561704                0.99999999               -0.05235674               -0.30215265                0.17371958               -0.50854197               -0.00043888                0.41866967
               0.05761121                9.99419904               44.04755702                1.00000000               -0.03424934               -0.03162793                0.10868602               -0.00066672                0.01421243                0.01465579
               1.05726872                9.98920294               44.04680645                0.99999138               -0.03584052               -0.03490059                0.11904561               -0.00153317                0.01841226                0.00133360
               2.05689440                9.98422740               44.04613764                0.99999174               -0.03901634               -0.03787735                0.12944969               -0.00158416                0.01884046               -0.00233803
               3.05648839                9.97927377               44.04539829                0.74551358               -0.87006127               -0.04117086                0.13989569                0.98561558                0.16633713               -0.00364721
               4.03949318                9.99408944               44.04768751                0.01000001               -1.35554096                0.38890801                0.15415661                0.82332072                0.31197605                0.01587439
               5.02937757               10.00169979               44.05068129                0.01000000               -0.86707194                0.26165629                0.16293662                0.28924455                0.36683813                0.02768129
               6.02215174               10.00612894               44.05449135                0.01000000               -0.68058980                0.22364553                0.16799783                0.12190337                0.45682153                0.05090815
               7.01576578               10.00754484               44.05948158                0.01000001               -0.65710568                0.19717624                0.17139623               -0.01957859                0.61935043                0.08125347
               8.00900962               10.00663055               44.06664091                0.01000002               -0.74735890                0.26063583                0.17425628               -0.33782157                0.81576966                0.18059917
               9.00081860                9.99968659               44.07562901                0.99999999               -0.43541886               -0.05227872                0.17326095               -0.31524505                0.45146429                0.00033481
              10.00030125                9.99904599               44.07559457                1.00000000               -0.05173521               -0.05181189                0.17182867                0.00054501                0.00039039               -0.00038062
              -0.01040720                0.00436217               45.03617180                0.99314150               -0.02257456               -0.02172624                0.06947645                0.00353794               -0.00195360                0.00305880
               0.98936706                0.00224322               45.03782837                0.99999999               -0.02513406               -0.02605318                0.08448967                0.00215450               -0.00424204               -0.00080173
               1.98909012                0.00014184               45.03948519                0.07662210               -0.02668884               -0.03087850                0.09942592               -0.00055910                0.02471178               -0.00195256
               2.98883328               -0.00200163               45.04173298                0.01000001               -0.02314658               -0.01931038                0.07151994                0.22902160               -0.00345139               -0.00579580
               3.98862719                0.00059534               45.04299226                0.01000002               -0.16729763                0.11844233                0.08813698                0.24190179               -0.03461604               -0.00477787
               4.98548733                0.00876206               45.04434088                0.01000000               -0.59053820                0.13720611                0.09234649                0.61039180               -0.01334282                0.00909201
               5.97681642                0.02429711               45.04600313                0.05477222               -0.45479073               -0.02549469                0.08303828                0.65923373                0.01963402               -0.00345275
               6.97639151                0.02683595               45.04836103                0.97881011               -0.03626133               -0.02972123                0.09626655                0.01651657                0.03022828               -0.00849707
               7.97609120                0.02907888               45.05029649                1.00000000               -0.03204202               -0.03177347                0.10656849                0.00130320                0.00778902                0.00063337
               8.97575067                0.03133318               45.05227563                1.00000000               -0.03531549               -0.03505282                0.11610246                0.00182555                0.00704972                0.00104487
               9.97538489                0.03358559               45.05421481                1.00000000               -0.03657834               -0.03829528                0.12629307                0.00128287                0.00498401                0.00482633
              -0.00825287                1.00414491               45.03629231                0.97056330               -0.02483621               -0.02232493                0.07471208                0.00109297                0.00129056                0.00464505
               0.99149877                1.00198269               45.03795154                0.21204701               -0.02700874               -0.02691947                0.08979610               -0.00011679                0.00387737               -0.00330820
               1.99120695                0.99983305               45.03965841                0.01000000               -0.03010121               -0.03143919                0.10496720                0.00645729                0.03769537                0.00416993
               2.99089674                0.99780527               45.04199536                0.01000001               -0.27712960                0.02582435                0.07496128                0.16976414                0.00237974               -0.01604846
               3.98566436                1.00177977               45.04309147                0.01000000               -0.55781913                0.09725223                0.09477618                0.50717968               -0.05556613                0.00523728
               4.97974036                1.01013412               45.04434369                0.01000000               -0.56462726                0.05971370                0.09823778                0.92479185               -0.06592935                0.02460375
               5.97437182                1.02404217               45.04540781                0.01000001               -0.27872834               -0.31178341                0.08640367                0.86914263               -0.03076590                0.04548818
               6.97416579                1.02653874               45.04760314                0.98857094               -0.02581001               -0.02929347                0.09719080                0.01460842                0.01299055               -0.00511349
               7.97385562                1.02876115               45.04953296                0.99999999               -0.03251106               -0.03213086                0.10773929                0.00039889                0.00074397                0.00005235
               8.97351557                1.03098265               45.05147838                0.99999999               -0.03551573               -0.03537986                0.11810689                0.00022487                0.00112546                0.00106445
               9.97314530                1.03320264               45.05341425                0.99999999               -0.03702697               -0.03864860                0.12848277               -0.00034320                0.00053341                0.00618892
              -0.00606091                2.00391567               45.03641811                0.01000000               -0.02625213                0.01563345                0.08005359                0.04732930                0.00248873                0.09973492
               0.99367657                2.00170483               45.03802596                0.01000000               -0.02712040               -0.10826699                0.09467466                0.04848315                0.01805595                0.07710461
               1.99339669                1.99951305               45.03995575                0.01000001               -0.16973629               -0.12178363                0.09003726                0.09972107                0.03404290                0.05524367
               2.99028185                1.99851486               45.04190091                0.01000000               -0.34773797               -0.00251693                0.10232797                0.33959671                0.01258164                0.00696530
               3.98644193                2.00254039               45.04337928                0.01000000               -0.42805419               -0.01353266                0.10490402                0.85668462               -0.03192306                0.03017563
               4.98172076                2.00995634               45.04458133                0.01000001               -0.43236339               -0.11597462                0.10798505                1.16550348               -0.05372116                0.05512533
               5.97779466                2.01806144               45.04581883                0.01000000               -0.48780328               -0.43544571                0.10764232                1.25173997               -0.07151992                0.08959868
               6.97196470                2.02625008               45.04683078                0.01000000               -0.30696977               -0.24872736                0.09820416                0.73836970               -0.04973358                0.07121653
               7.97165526                2.02843627               45.04876446                0.16282144               -0.03255111               -0.03257740                0.10898213                0.00138049               -0.00472315                0.00348397
               8.97131368                2.03062558               45.05067861                0.99994313               -0.03586106               -0.03596173                0.12036711                0.00049749               -0.00321267               -0.00079644
               9.97093804                2.03281262               45.05264094                1.00000000               -0.03756327               -0.03936222                0.13056690               -0.00032690               -0.00091383                0.00616588
              -0.00288461                3.00445757               45.03843755                0.01000000               -0.02443457                0.04380311                0.07785053                0.05958851               -0.00313597                0.20432263
               0.99687104                2.99981735               45.03976496                0.01000001               -0.03620218               -0.22618008                0.09186071                0.18844646               -0.00129720                0.15286232
               1.99639135                2.99739738               45.04114119                0.01000000               -0.11048517               -0.25993409                0.10405887                0.43662512                0.00539789                0.09839057
               2.99466134                2.99775493               45.04257301                0.01000000               -0.25173853               -0.15860216                0.11031750                0.81324687                0.00103586                0.05623664
               3.99135658                3.00150911               45.04392719                0.01000001               -0.35659851               -0.16310812                0.11601347                1.15370790               -0.01432834                0.05620274
               4.98752937                3.00781463               45.04519491                0.01000000               -0.41218543               -0.23607777                0.11857528                1.39831116               -0.03131495                0.08349526
               5.98311287                3.01533325               45.04639782                0.01000001               -0.44855030               -0.30629699                0.11835379                1.40820963               -0.04612659                0.11628610
               6.97855837                3.02156419               45.04757982                0.01000001               -0.68025708               -0.38523150                0.11783286                1.46400210               -0.09237779                0.15537833
               7.96950773                3.02810960               45.04807253                0.01000001               -0.47046005               -0.28505907                0.11588083                1.18115384               -0.08726808                0.15036555
               8.96914916                3.03026342               45.04984687                0.01000001               -0.03715218               -0.35403923                0.12315048                0.90462627               -0.01239488                0.13048886
               9.96876468                3.03241540               45.05184205                0.88973094               -0.03844817               -0.78696640                0.13275234                1.05869932               -0.00168671                0.10650633
               0.00441132                4.00479173               45.04048737                0.01000000                0.00943813               -0.05336435                0.07562047                0.24924674               -0.00596143                0.22072855
               1.00450570                3.99718123               45.04144636                0.01000000               -0.01098537               -0.33503953                0.09286426                0.51497750               -0.00237297                0.14689171
               2.00419161                3.99431437               45.04243913                0.01000000               -0.10353232               -0.33060491                0.10729646                0.90223806                0.00460098                0.09497979
               3.00243505                3.99534282               45.04354752                0.01000002               -0.23676121               -0.26862978                0.11731246                1.16502208                0.01149090                0.06707748
               3.99945638                3.99927822               45.04478138                0.01000000               -0.32861016               -0.25483510                0.12352543                1.40310515                0.01417349                0.07258677
               4.99586285                4.00523478               45.04611283                0.01000001               -0.36235474               -0.28109502                0.12707475                1.54581773                0.01305372                0.10341025
               5.99220929                4.01193550               45.04749909                0.01000001               -0.36972282               -0.34619560                0.12855217                1.62506753                0.00495432                0.15064315
               6.98846839                4.01854545               45.04883821                0.01001118               -0.28150860               -0.39144930                0.12929716                1.60329175               -0.00285452                0.20365670
               7.98657912                4.02273508               45.05023667                0.01000001               -0.16839935               -0.55761083                0.13178016                1.70421228               -0.00070838                0.27990302
               8.98510040                4.02354480               45.05167700                0.01000000                0.06144753               -0.68448775                0.13626102                1.21819206               -0.00272780                0.26844452
               9.98780807                4.01707329               45.05308078                0.01000001                0.27076635               -1.11305000                0.14329816                0.92844229                0.00678798                0.19934216
               0.01732133                5.00339029               45.04279415                0.01000003                0.03266252               -0.49091962                0.07400265                0.66027996               -0.00642169                0.25807036
               1.01764795                4.99311656               45.04324181                0.01000000               -0.05234037               -0.36102066                0.09273907                1.03889688                0.00180093                0.15673351
               2.01627452                4.99078528               45.04377269                0.01000001               -0.23250128               -0.29227235                0.10965106                1.22482990                0.01460769                0.07708308
               3.01299793                4.99238233               45.04458001                0.01000000               -0.33739038               -0.31013269                0.12186448                1.40670682                0.03694397                0.05718968
               4.00952671                4.99641241               45.04578169                0.01000001               -0.36047418               -0.28745518                0.12893367                1.52882092                0.06044993                0.07082588
               5.00578845                5.00219273               45.04727913                0.01000001               -0.36115845               -0.29770521                0.13331805                1.59593549                0.07575743                0.11214402
               6.00230355                5.00840934               45.04897491                0.01000001               -0.29819124               -0.34716826                0.13626908                1.55043940                0.08284876                0.17199793
               6.99982462                5.01373521               45.05076077                0.01000000               -0.18554592               -0.46379271                0.13889275                1.44173116                0.08133666                0.24103903
               7.99859263                5.01695738               45.05251140                0.01000000               -0.03249125               -0.56489598                0.14228496                1.19187178                0.06869253                0.29511790
               8.99917480                5.01657366               45.05406090                0.01000000                0.08419536               -0.62649239                0.14747631                0.79911484                0.04231129                0.30983162
              10.00027653                5.01015440               45.05519939                0.01000001                0.11017388               -0.48741321                0.15398128                0.38737451                0.02758247                0.26206427
               0.03816437                5.99497334               45.04573035                0.08266524               -0.02757327               -0.43247138                0.07522407                0.79407519               -0.00555179                0.17051749
               1.03788864                5.98996082               45.04540761                0.01000001               -0.43709712               -0.16947509                0.08903054                0.93910239               -0.01436322                0.10609791
               2.02942243                5.98846892               45.04492629                0.01000000               -0.64732918               -0.30262138                0.11223670                1.27589353                0.00336936                0.05135093
               3.02494206                5.98914016               45.04553156                0.01000001               -0.46000125               -0.30705755                0.12391802                1.37786288                0.07265131                0.02642987
               4.02022241                5.99352912               45.04676542                0.01000001               -0.45787143               -0.28822329                0.13234082                1.56381120                0.11784832                0.05089949
               5.01578463                5.99928068               45.04855321                0.01000001               -0.42734029               -0.23935680                0.13817779                1.50678057                0.15400011                0.10858151
               6.01167560                6.00499214               45.05071979                0.01000000               -0.35148291               -0.28403144                0.14205359                1.32417295                0.17469254                0.18022482
               7.00875497                6.00926960               45.05306335                0.01000000               -0.20487511               -0.38971763                0.14644093                1.05277232                0.17655135                0.26320069
               8.00757810                6.01143716               45.05533769                0.01000000               -0.04346413               -0.50053910                0.15113058                0.76057993                0.15167464                0.33986994
               9.00788569                6.01101495               45.05717824                0.01000001                0.04079943               -0.49564278                0.15658262                0.41523852                0.09187860                0.38366944
              10.00839409                6.00732503               45.05819929                0.01000000                0.05083987               -0.19915476                0.16218350                0.19764179                0.05386710                0.35860716
               0.04322788                6.99474086               45.04695153                0.96339928               -0.02934619               -0.02565733                0.09088576                0.00362359               -0.01413630                0.05011546
               1.04293442                6.98972706               45.04640147                0.95678525               -0.03074156               -0.02750916                0.10230503                0.00313576               -0.01273939                0.02608395
               2.04261305                6.98473285               45.04584535                0.01000000               -0.37197135               -0.20443652                0.11346183                0.73549136                0.02738576                0.01094203
               3.03549499                6.98624118               45.04609868                0.01000001               -0.59753116               -0.48482776                0.12417298                1.40718515                0.10394486               -0.06177474
               4.03066242                6.99064795               45.04751207                0.01000956               -0.55169758               -0.18946521                0.14068955                1.48446024                0.18929907                0.02873402
               5.02446104                6.99740559               45.04981725                0.01000000               -0.59321712               -0.11046695                0.14133863                1.34491341                0.24470476                0.09667987
               6.01879808                7.00272871               45.05256914                0.01000000               -0.50129981               -0.13056729                0.14680178                0.99175247                0.27783688                0.17257624
               7.01443504                7.00594085               45.05569721                0.01000000               -0.33696035               -0.23204583                0.15247547                0.59956302                0.29209740                0.27014175
               8.01205888                7.00694660               45.05882662                0.01000001               -0.14216707               -0.37143528                0.15847571                0.24188560                0.26149422                0.40440806
               9.01159170                7.00666081               45.06136473                0.01000002               -0.02248328               -0.41111938                0.16425648                0.04581815                0.16069065                0.50104488
              10.01160921                7.00617130               45.06246127                0.01000001                0.00175085               -0.11284867                0.16881533               -0.01109742                0.08878867                0.53295518
               0.04826445                7.99446019               45.04749061                1.00000000               -0.03050899               -0.02899877                0.09677799                0.00074046               -0.00168871                0.01969569
               1.04795936                7.98941063               45.04692742                0.99999999               -0.03231598               -0.03250314                0.10802337                0.00020117               -0.00193097                0.00373512
               2.04761813                7.98438019               45.04636480                0.14966493               -0.03943467               -0.03620624                0.11988526                0.00400135               -0.02777965               -0.01209033
               3.04717067                7.97944361               45.04529424                0.01000001               -0.44354663               -0.36423223                0.21084674                1.10644017                0.12190643               -0.06188511
               4.03874720                7.98973982               45.04816154                0.01000000               -0.82842688               -0.04527534                0.13929844                1.49566921                0.30795411                0.01489156
               5.03060213                7.99707134               45.05097114                0.01000000               -0.78859051                0.07482817                0.14616147                1.04868182                0.32493092                0.07613135
               6.02297539                8.00238079               45.05430866                0.01000000               -0.70368955                0.05720997                0.15172886                0.63977622                0.37587539                0.14356018
               7.01652834                8.00462868               45.05833204                0.01000001               -0.56397655               -0.01518270                0.15798402                0.17549855                0.44433632                0.23861438
               8.01169586                8.00400846               45.06316475                0.01000002               -0.34754945               -0.14232029                0.16466610               -0.26900039                0.43266256                0.39734175
               9.00957735                8.00279256               45.06701346                0.01000001               -0.12723560               -0.32077172                0.17045583               -0.51577405                0.28924238                0.80756832
              10.00915115                8.00506806               45.06898920                0.01000000               -0.04262047               -0.32898901                0.17388266               -0.36829400                0.19352617                0.74168041
               0.05334181                8.99416088               45.04811376                1.00000000               -0.03233684               -0.03069536                0.10224698                0.00097441                0.00278958                0.01899210
               1.05301844                8.98907699               45.04748030                0.99999999               -0.03408528               -0.03420207                0.11373760               -0.00004361                0.00231641                0.00328692
               2.05266010                8.98400873               45.04683585                0.99999999               -0.03771342               -0.03784477                0.12592342               -0.00015133               -0.00336356               -0.00862630
               3.05226417                8.97895654               45.04609764                0.01000000               -0.48560118               -0.04546964                0.13868704                0.79446991                0.15921092                0.00087801
               4.04294808                8.98974244               45.04872518                0.01000000               -0.97352364                0.19905864                0.15401081                1.05659431                0.33265517                0.00701622
               5.03279370                8.99890216               45.05186153                0.01000000               -0.94559085                0.22424109                0.15475829                0.65685767                0.37349928                0.04426313
               6.02403626                9.00387291               45.05563124                0.01000001               -0.82381746                0.18756740                0.15923198                0.30254185                0.44600654                0.08576238
               7.01631735                9.00563720               45.06042903                0.01000002               -0.77606369                0.14961555                0.16432756               -0.02183349                0.56111628                0.14530589
               8.00851499                9.00410020               45.06663341                0.01000003               -0.80503630                0.13518213                0.16947801               -0.40039731                0.85590217                0.26649933
               9.00021662                9.00024537               45.07740439                0.99999997               -0.44113237               -0.15353778                0.17542969               -0.66112841                0.54063517                0.52203905
               9.99969234                8.99959152               45.07735424                1.00000000               -0.05242826               -0.29969895                0.17370261               -0.50560548               -0.00042072                0.41996517
               0.05845172                9.99384629               45.04863968                1.00000000               -0.03410763               -0.03145990                0.10783064               -0.00097796                0.01403133                0.01433029
               1.05811065                9.98872659               45.04799895                0.99998682               -0.03580802               -0.03504020                0.11938514               -0.00192870                0.01808970                0.00143648
               2.05773556                9.98362330               45.04743753                0.99999999               -0.03921441               -0.03854301                0.13073755               -0.00207297                0.01826420               -0.00264324
               3.05732636                9.97853421               45.04680404                0.80369283               -0.89010474               -0.04223246                0.14197447                1.01110322                0.16840908               -0.00497545
               4.03993347                9.99372099               45.04925500                0.01000001               -1.38587724                0.39785515                0.15888735                0.84963607                0.31653237                0.01285652
               5.02960881               10.00155616               45.05233005                0.01000000               -0.88211414                0.26540012                0.16713733                0.30206907                0.36802165                0.02684565
               6.02229118               10.00613214               45.05618411                0.01000000               -0.68722139                0.22592319                0.16994435                0.12873395                0.45657653                0.04983607
               7.01586438               10.00762099               45.06120402                0.01000001               -0.66057215                0.19837928                0.17243432               -0.01629845                0.61945095                0.08033763
               8.00907974               10.00671210               45.06838604                0.01000000               -0.75004636                0.26119056                0.17426343               -0.33848403                0.81551968                0.18133789
               9.00086346                9.99972181               45.07736173                1.00000000               -0.43665020               -0.05235652                0.17326640               -0.31721775                0.45165076                0.00036132
              10.00034674                9.99907408               45.07731131                1.00000000               -0.05167208               -0.05174439                0.17153683                0.00066678                0.00036530               -0.00040905
              -0.01213342                0.00423453               46.03686436                0.99365757               -0.02775550               -0.01890497                0.06907931                0.00064991               -0.00569419                0.00571877
               0.98758902                0.00208825               46.03867686                0.99999999               -0.02813430               -0.02617590                0.08472899                0.00306037               -0.00609298               -0.00124307
               1.98730389               -0.00008284               46.04048059                0.08040282               -0.03064896               -0.03081019                0.09949037               -0.00285354               -0.00156168               -0.00274576
               2.98697605               -0.00233529               46.04238314                0.01000000               -0.01947456               -0.01212082                0.06223142                0.23986341               -0.01943394               -0.00337189
               3.98691440                0.00044288               46.04384782                0.01000002               -0.15985323                0.11825983                0.08483182                0.25422590               -0.03271823                0.00065530
               4.98377898                0.00884948               46.04525459                0.01000003               -0.59782919                0.14036206                0.09123719                0.62737057               -0.02741650                0.01398833
               5.97495782                0.02485167               46.04682725                0.04858055               -0.46242845               -0.02919989                0.08206407                0.67384869                0.01220253               -0.00359754
               6.97453041                0.02745836               46.04932388                0.97731023               -0.04008953               -0.02075804                0.09603841                0.01432157                0.02630761               -0.00304563
               7.97415603                0.02985183               46.05136873                1.00000000               -0.03628556               -0.03279249                0.10693078                0.00502568                0.00496695               -0.00028169
               8.97380470                0.03213033               46.05343567                1.00000000               -0.03582057               -0.03476644                0.11567816                0.00134472                0.00497033                0.00108918
               9.97343962                0.03442149               46.05547696                1.00000000               -0.03650839               -0.03827757                0.12579770                0.00133553                0.00391782                0.00423839
              -0.00998064                1.00404548               46.03703925                0.97085427               -0.02410423               -0.02074095                0.07467550               -0.00092530                0.00150031                0.00634488
               0.98977832                1.00182649               46.03885288                0.19915860               -0.02661147               -0.02730818                0.09011384               -0.00047069                0.00378624               -0.00369790
               1.98948713                0.99960905               46.04071204                0.01000000               -0.03332509               -0.03096112                0.10539595                0.00633216                0.01158208               -0.01212906
               2.98911182                0.99754350               46.04268140                0.01000001               -0.28114268                0.03055409                0.06575349                0.18269044               -0.01618928               -0.00192136
               3.98386428                1.00162548               46.04402753                0.01000000               -0.56317601                0.09804930                0.09377369                0.52526653               -0.05404377                0.01197718
               4.97784830                1.01025310               46.04531815                0.01000000               -0.57362058                0.06037092                0.09865386                0.95273283               -0.08354384                0.02990449
               5.97239187                1.02455967               46.04626292                0.01000001               -0.28373749               -0.32052645                0.08548444                0.89664350               -0.04436860                0.05668652
               6.97217355                1.02725078               46.04856618                0.98235705               -0.02607836               -0.02420240                0.09665408                0.01914003                0.01383296               -0.00298843
               7.97187030                1.02952391               46.05061024                0.99999999               -0.03201144               -0.03285012                0.10790415                0.00052154                0.00106048               -0.00017152
               8.97153332                1.03178267               46.05266031                0.99999999               -0.03542425               -0.03532359                0.11819033                0.00016161                0.00082505                0.00118124
               9.97116181                1.03403872               46.05470021                1.00000000               -0.03715040               -0.03867009                0.12851881               -0.00054763                0.00034753                0.00567885
              -0.00771395                2.00381971               46.03722592                0.01000000               -0.02700129                0.01962616                0.08085489                0.05532050                0.00258739                0.09713013
               0.99201604                2.00154209               46.03897926                0.01000000               -0.02862619               -0.11076900                0.09554915                0.05650226                0.00369539                0.07311915
               1.99171353                1.99929793               46.04075509                0.01000001               -0.17013076               -0.12516894                0.09138352                0.11043675                0.02466645                0.04946807
               2.98861343                1.99827579               46.04295353                0.01000000               -0.35016977               -0.00364761                0.10445439                0.35959374                0.00855391                0.02329607
               3.98471013                2.00240387               46.04442867                0.01000000               -0.43569869               -0.01404806                0.10652580                0.88719125               -0.04482056                0.03772351
               4.97989945                2.01005690               46.04566645                0.01000001               -0.44085631               -0.12014132                0.11034112                1.20513982               -0.06557925                0.06125796
               5.97589301                2.01844114               46.04689973                0.01000000               -0.49752389               -0.44651046                0.10983215                1.29605934               -0.08874472                0.10201428
               6.96994897                2.02697431               46.04780996                0.01000000               -0.31292199               -0.25764541                0.09883854                0.76600923               -0.05870401                0.08237627
               7.96963457                2.02919483               46.04985305                0.17221061               -0.03279265               -0.03269569                0.10948427                0.00168078               -0.00297989                0.00679357
               8.96929312                2.03142386               46.05188495                1.00000000               -0.03590004               -0.03617742                0.12095666                0.00065452               -0.00213876               -0.00021527
               9.96891657                2.03364809               46.05394940                0.99999999               -0.03765533               -0.03952814                0.13109492               -0.00042076               -0.00067196                0.00571066
              -0.00431898                3.00443801               46.03921623                0.01000000               -0.02508765                0.04850121                0.07821766                0.06847495               -0.00453480                0.19571880
               0.99543014                2.99961111               46.04069187                0.01000001               -0.03594283               -0.23289194                0.09464359                0.20368680               -0.00283551                0.14750875
               1.99496216                2.99710567               46.04221579                0.01000000               -0.11161951               -0.26876464                0.10798338                0.46232997               -0.00256687                0.10735434
               2.99319775                2.99747055               46.04369152                0.01000000               -0.25675842               -0.16472919                0.11474424                0.84590340               -0.01115615                0.05906543
               3.98982700                3.00134452               46.04510617                0.01000001               -0.36419649               -0.16779015                0.12011728                1.19505376               -0.02640117                0.06101052
               4.98591382                3.00785027               46.04639566                0.01000000               -0.42156793               -0.24340668                0.12232015                1.44737933               -0.04478550                0.08669181
               5.98139564                3.01562946               46.04759277                0.01000001               -0.45868923               -0.31606733                0.12134851                1.45935379               -0.06006283                0.12110393
               6.97674004                3.02209787               46.04876527                0.01000001               -0.69706370               -0.40047140                0.11962888                1.51535800               -0.10542677                0.16796495
               7.96745436                3.02886999               46.04923785                0.01000001               -0.48234476               -0.29464210                0.11679407                1.22151280               -0.09407870                0.16072172
               8.96709314                3.03105912               46.05108386                0.01000001               -0.03747123               -0.36598317                0.12437276                0.93477439               -0.01342242                0.13631655
               9.96670494                3.03324816               46.05317449                0.92274930               -0.03882057               -0.81388356                0.13381639                1.09467571               -0.00157849                0.11017684
               0.00330934                4.00478974               46.04123433                0.01000000                0.01127696               -0.05583748                0.07379816                0.26153296               -0.00668116                0.21125735
               1.00342211                3.99688425               46.04238822                0.01000000               -0.01043224               -0.34701202                0.09663112                0.53974516               -0.00530963                0.14270526
               2.00310069                3.99392264               46.04353506                0.01000000               -0.10647308               -0.34123961                0.11367746                0.93997742               -0.00296622                0.09311244
               3.00129265                3.99498121               46.04474795                0.01000001               -0.24346048               -0.27724841                0.12371292                1.21025593                0.00004106                0.06862945
               3.99823149                3.99904807               46.04603982                0.01000000               -0.33652732               -0.26295253                0.12879152                1.45432137                0.00100507                0.07242498
               4.99456210                4.00518876               46.04740220                0.01000001               -0.36994997               -0.29012205                0.13118039                1.60207157               -0.00021052                0.10274109
               5.99083249                4.01211979               46.04879829                0.01000001               -0.37732503               -0.35761627                0.13171854                1.68581581               -0.00753107                0.15198723
               6.98701560                4.01896488               46.05014148                0.01000047               -0.28644557               -0.40506803                0.13148389                1.66329159               -0.01272753                0.20843634
               7.98510357                4.02330199               46.05156351                0.01002830               -0.17025771               -0.57651747                0.13366430                1.76357078               -0.00703640                0.29026013
               8.98361045                4.02410420               46.05304526                0.01000000                0.06642202               -0.70783232                0.13784175                1.25948364               -0.00456078                0.27573435
               9.98643201                4.01737042               46.05451804                0.01000001                0.28215685               -1.15282219                0.14459227                0.96018498                0.00609804                0.20635123
               0.01672266                5.00332126               46.04351429                0.01000003                0.03694891               -0.51067249                0.06875051                0.68760680               -0.00717727                0.25156339
               1.01709215                4.99267087               46.04417666                0.01000000               -0.05289502               -0.37368660                0.09584603                1.08024913                0.00000546                0.14777438
               2.01566476                4.99028088               46.04489574                0.01000001               -0.24073500               -0.30097244                0.11703101                1.27333804                0.00898529                0.07367715
               3.01227745                4.99192558               46.04583259                0.01000000               -0.34794449               -0.31992731                0.12911450                1.45942590                0.02554557                0.05238108
               4.00870587                4.99608547               46.04709421                0.01000001               -0.36969574               -0.29692183                0.13454176                1.58580553                0.04772251                0.06582384
               5.00488353                5.00204783               46.04862991                0.01000001               -0.36850168               -0.30743708                0.13711510                1.65630020                0.06456606                0.10702057
               6.00133583                5.00847713               46.05035009                0.01000000               -0.30299276               -0.35865455                0.13900912                1.61208643                0.07377817                0.16880526
               6.99882368                5.01399651               46.05215962                0.01000000               -0.18746845               -0.47857143                0.14103085                1.50119969                0.07482756                0.24111152
               7.99758646                5.01733964               46.05394083                0.01000000               -0.03046463               -0.58252173                0.14395071                1.24052651                0.06394545                0.30091490
               8.99821438                5.01690247               46.05554222                0.01000000                0.08948655               -0.64631335                0.14913857                0.82940209                0.04009322                0.31547895
               9.99937619                5.01019171               46.05674643                0.01000000                0.11618115               -0.50581847                0.15568294                0.40147813                0.02659681                0.26623933
               0.03836224                5.99457629               46.04646138                0.06606829               -0.02947773               -0.44916119                0.06934190                0.82507837               -0.00854933                0.17692155
               1.03806747                5.98941052               46.04629502                0.01000001               -0.45247475               -0.17363868                0.08889835                0.97681240               -0.01213427                0.10130879
               2.02931275                5.98790319               46.04606952                0.01000000               -0.66954444               -0.30933192                0.11930560                1.32446040                0.00071169                0.04464771
               3.02467658                5.98858266               46.04676969                0.01000001               -0.47437024               -0.31579654                0.13136603                1.42762317                0.06459128                0.01889000
               4.01982534                5.99310963               46.04810864                0.01000001               -0.46900676               -0.29677477                0.13676606                1.62113079                0.11067689                0.04175794
               5.01529644                5.99904002               46.04994550                0.01000000               -0.43499042               -0.24731794                0.14050173                1.56514927                0.14704639                0.09865696
               6.01112554                6.00494670               46.05214704                0.01000000               -0.35596789               -0.29379082                0.14347333                1.38149037                0.17021395                0.17269417
               7.00817708                6.00939346               46.05453348                0.01000000               -0.20586976               -0.40166309                0.14784124                1.10457180                0.17445636                0.26012903
               8.00700814                6.01165155               46.05685438                0.01000000               -0.04153325               -0.51457164                0.15267126                0.80123665                0.15146982                0.34168399
               9.00734642                6.01117793               46.05875129                0.01000001                0.04374822               -0.50834003                0.15837412                0.43772650                0.09241587                0.38709361
              10.00788310                6.00725405               46.05982698                0.01000000                0.05366850               -0.20527971                0.16366180                0.20794041                0.05395179                0.36004545
               0.04355576                6.99433803               46.04786001                0.95474832               -0.02542741               -0.02651287                0.09121667                0.00574963               -0.01179082                0.05523504
               1.04330149                6.98919810               46.04742520                0.94490658               -0.02869716               -0.02657543                0.10295549                0.00668166               -0.01208617                0.03036550
               2.04298182                6.98409424               46.04699046                0.01000000               -0.38390103               -0.20830567                0.11509696                0.75998299                0.03111958                0.00844151
               3.03562347                6.98560965               46.04742685                0.01000001               -0.61553505               -0.49497408                0.12721787                1.45192046                0.10320025               -0.05715297
               4.03067112                6.99014997               46.04891751                0.01000000               -0.56370119               -0.19393466                0.14188222                1.53517301                0.18776840                0.01665927
               5.02434945                6.99710147               46.05123275                0.01000000               -0.60294571               -0.11459656                0.14108851                1.39648172                0.24177202                0.08289242
               6.01861221                7.00260132               46.05403387                0.01000000               -0.50695933               -0.13615931                0.14628396                1.03908211                0.27936495                0.16235163
               7.01421026                7.00596325               46.05722222                0.01000000               -0.33927432               -0.23956547                0.15255551                0.64059569                0.29594224                0.26444965
               8.01182672                7.00704821               46.06041500                0.01000001               -0.14219230               -0.37996065                0.15950760                0.27235827                0.26583121                0.40387770
               9.01136641                7.00673567               46.06301388                0.01000002               -0.02219781               -0.41684862                0.16569914                0.06247025                0.16380656                0.50338827
              10.01138276                7.00608612               46.06415564                0.01000001                0.00163500               -0.11121842                0.17003374               -0.00408195                0.09025462                0.53429096
               0.04875710                7.99404603               46.04845747                1.00000000               -0.03122150               -0.02959685                0.09678150                0.00273392               -0.00184237                0.01904723
               1.04844489                7.98887901               46.04801214                0.99999999               -0.03281226               -0.03259716                0.10874624                0.00060110               -0.00187684                0.00413056
               2.04810086                7.98373708               46.04757028                0.15352108               -0.03928167               -0.03666579                0.12139664                0.00416977                0.00166490               -0.01130731
               3.04765926                7.97868318               46.04720414                0.01000001               -0.45319393               -0.37082037                0.20371982                1.13642656                0.15547720               -0.09429217
               4.03903698                7.98923094               46.04962179                0.01003642               -0.84422604               -0.04513795                0.13634586                1.53779921                0.29641970                0.01215852
               5.03077473                7.99674809               46.05239692                0.01000000               -0.79957892                0.07540543                0.14345605                1.08559679                0.32862296                0.06498351
               6.02304540                8.00222351               46.05582017                0.01000000               -0.71163149                0.05654868                0.14877980                0.67248557                0.38418318                0.13372187
               7.01654210                8.00460215               46.05990495                0.01000001               -0.56812607               -0.01780116                0.15670161                0.20255476                0.45262231                0.23246016
               8.01168288                8.00405234               46.06481176                0.01000002               -0.34920936               -0.14576566                0.16464105               -0.24932589                0.44094539                0.39598858
               9.00955792                8.00284096               46.06872371                0.01000004               -0.12911500               -0.32168969                0.17214738               -0.50592171                0.29402186                0.81049683
              10.00910058                8.00502968               46.07073501                0.01000000               -0.04573375               -0.32224079                0.17573506               -0.36291136                0.19494850                0.74259655
               0.05394449                8.99374610               46.04913286                1.00000000               -0.03220207               -0.03061113                0.10163188                0.00081572                0.00280184                0.01839242
               1.05362247                8.98854616               46.04862083                0.99999999               -0.03417195               -0.03423165                0.11421727                0.00013027                0.00256377                0.00329792
               2.05326105                8.98336093               46.04810430                0.99999999               -0.03821618               -0.03829426                0.12761266                0.00004096               -0.00226467               -0.00801499
               3.05285814                8.97819324               46.04749955                0.01000001               -0.49494272               -0.04608535                0.14189416                0.81330645                0.16285046               -0.02600877
               4.04336219                8.98924722               46.05028803                0.01000000               -0.98946687                0.20279957                0.15413672                1.08385860                0.33394012                0.00791364
               5.03306880                8.99860958               46.05340307                0.01000000               -0.95771654                0.22757870                0.15173234                0.67596180                0.37515027                0.04170292
               6.02420786                9.00373229               46.05721458                0.01000001               -0.83181376                0.18982077                0.15541422                0.31807714                0.45357905                0.07954534
               7.01643253                9.00560723               46.06206499                0.01000002               -0.78032368                0.14997352                0.16241044               -0.00943164                0.56971601                0.14129009
               8.00860139                9.00413290               46.06832366                0.01000001               -0.80809470                0.13498531                0.16894087               -0.39129618                0.86480096                0.26548092
               9.00027064                9.00030188               46.07916011                1.00000000               -0.44271496               -0.15309129                0.17563189               -0.65615875                0.54486954                0.52551655
               9.99974709                8.99964130               46.07909109                0.99999998               -0.05235462               -0.29530137                0.17367217               -0.50061766               -0.00042022                0.42067184
               0.05917330                9.99343381               46.04971364                1.00000000               -0.03406362               -0.03122876                0.10692875               -0.00106199                0.01366602                0.01394317
               1.05883266                9.98819438               46.04919415                0.99999999               -0.03593532               -0.03517794                0.11968541               -0.00211114                0.01762453                0.00142038
               2.05845459                9.98297119               46.04875239                0.99999999               -0.03967829               -0.03897354                0.13223533               -0.00229077                0.01744452               -0.00261945
               3.05803910                9.97776147               46.04823778                0.86111166               -0.90783902               -0.04317698                0.14453916                1.03388224                0.17000685               -0.00464708
               4.04029781                9.99328693               46.05086526                0.01000001               -1.41151003                0.40397125                0.16654260                0.87047153                0.32561305                0.00783027
               5.02980890               10.00129966               46.05402404                0.01000002               -0.89442560                0.26900831                0.17050239                0.31065917                0.37130282                0.02690312
               6.02240930               10.00601993               46.05789024                0.01000000               -0.69280154                0.22876390                0.16958060                0.13524136                0.45964067                0.04693748
               7.01595287               10.00760162               46.06293026                0.01000001               -0.66234992                0.19943906                0.17243813               -0.01136061                0.62174830                0.07818558
               8.00916230               10.00675205               46.07012618                0.01000000               -0.75132636                0.26191485                0.17440734               -0.33503285                0.81569380                0.18110905
               9.00092634                9.99977913               46.07909434                0.99999998               -0.43764580               -0.05227471                0.17327483               -0.31584923                0.45224241                0.00038340
              10.00040939                9.99912366               46.07902530                1.00000000               -0.05169528               -0.05176457                0.17134031                0.00068181                0.00039754               -0.00039725
              -0.01414608                0.00412677               47.03755339                0.99229660               -0.02249562               -0.02165273                0.06931699                0.00354930               -0.00923429                0.00866379
               0.98562896                0.00186631               47.03952295                0.99999999               -0.02506605               -0.02599882                0.08432845                0.00213625               -0.00782107               -0.00148621
               1.98535260               -0.00037598               47.04147500                0.06853709               -0.02757999               -0.03080555                0.09927046               -0.00084829               -0.03053009               -0.00342237
               2.98507737               -0.00266559               47.04297761                0.01000000               -0.01256108               -0.01379572                0.06130137                0.24925975               -0.03246562                0.00007376
               3.98510138                0.00024903               47.04468889                0.01000002               -0.15588973                0.11894348                0.08591194                0.26355084               -0.02688088                0.00668783
               4.98195957                0.00891470               47.04616562                0.01000405               -0.60551000                0.14056473                0.09330345                0.64269139               -0.03966413                0.01833727
               5.97299118                0.02535381               47.04764441                0.04265647               -0.47916967               -0.02503969                0.08078679                0.69331062                0.00583644               -0.00557867
               6.97237618                0.02829044               47.05028180                0.97596290               -0.04562132               -0.02975518                0.09548537                0.03371737                0.02267214                0.00274472
               7.97207875                0.03059024               47.05243510                1.00000000               -0.03171624               -0.03168395                0.10550267                0.00115607                0.00227555               -0.00102332
               8.97174185                0.03290568               47.05458920                1.00000000               -0.03490478               -0.03486861                0.11479611                0.00170620                0.00297045                0.00108254
               9.97138066                0.03522387               47.05673076                1.00000000               -0.03611960               -0.03800891                0.12465328                0.00099870                0.00286179                0.00365779
              -0.01185013                1.00391024               47.03778582                0.98099590               -0.02481693               -0.02227389                0.07466372                0.00112048                0.00169668                0.00818412
               0.98790170                1.00160633               47.03975382                0.19035927               -0.02698995               -0.02690440                0.08963851               -0.00009627                0.00375999               -0.00378545
               1.98761007                0.99931597               47.04176633                0.01000000               -0.03221193               -0.03126791                0.10481081                0.00766363               -0.01729803               -0.01698412
               2.98725746                0.99719645               47.04331043                0.01000001               -0.28316644                0.03181291                0.06451169                0.19122383               -0.03046667                0.01283477
               3.98194674                1.00143846               47.04496694                0.01000000               -0.57116840                0.09835946                0.09613123                0.54275578               -0.04669627                0.02018938
               4.97583409                1.01032035               47.04631677                0.01000000               -0.58551636                0.05946414                0.10321039                0.98217505               -0.09922160                0.03373385
               5.97023641                1.02510342               47.04711749                0.01000001               -0.28694781               -0.32909642                0.08903945                0.92788094               -0.05878953                0.06684091
               6.97009514                1.02799289               47.04953622                0.97766895               -0.02268585               -0.02959665                0.09813320                0.03155532                0.01502453               -0.00052502
               7.96978270                1.03027340               47.05169105                0.99999999               -0.03265168               -0.03228608                0.10822536                0.00030116                0.00124090               -0.00024101
               8.96944210                1.03255699               47.05384219                0.99999999               -0.03551210               -0.03539755                0.11813187                0.00015355                0.00048374                0.00125220
               9.96907245                1.03484378               47.05598462                1.00000000               -0.03696481               -0.03856581                0.12817677               -0.00056907                0.00020041                0.00515914
              -0.00951584                2.00368129               47.03803521                0.01000000               -0.02628501                0.02266516                0.07997306                0.06087097                0.00277833                0.09483114
               0.99022131                2.00132823               47.03993695                0.01000000               -0.02842074               -0.11238827                0.09468337                0.06152272                0.00067774                0.07119050
               1.98991575                1.99899867               47.04178342                0.01000001               -0.17209820               -0.12757346                0.10060680                0.11863665                0.01600299                0.04487613
               2.98677935                1.99797067               47.04399000                0.01000000               -0.35415747               -0.00273192                0.10528701                0.37539618               -0.00401132                0.04512761
               3.98283260                2.00221622               47.04550979                0.01000000               -0.44206139               -0.01601459                0.11039194                0.91554942               -0.05505807                0.04635037
               4.97793812                2.01010399               47.04678816                0.01000001               -0.44781716               -0.12538186                0.11558239                1.24343201               -0.07745070                0.06615510
               5.97387625                2.01877189               47.04801547                0.01000000               -0.50504112               -0.46233253                0.11477803                1.34500540               -0.10718306                0.11353057
               6.96783730                2.02769851               47.04880755                0.01000000               -0.31777887               -0.27004628                0.10079096                0.79411224               -0.06869249                0.09360322
               7.96752068                2.02994452               47.05095414                0.18382362               -0.03313738               -0.03299137                0.11097757                0.00120445               -0.00158780                0.00951713
               8.96717455                2.03219773               47.05309775                0.99999173               -0.03624867               -0.03637786                0.12171653                0.00050024               -0.00122011                0.00035772
               9.96679570                2.03445255               47.05526284                0.99999999               -0.03788461               -0.03967408                0.13157593               -0.00054806               -0.00039121                0.00523636
              -0.00592658                3.00436354               47.04000190                0.01004894               -0.02586394                0.05187632                0.07942135                0.07378847               -0.00567913                0.18547820
               0.99381478                2.99935856               47.04165784                0.01000001               -0.03665280               -0.23888442                0.09908032                0.21392105               -0.00764827                0.14694847
               1.99334036                2.99676450               47.04330086                0.01000000               -0.11334726               -0.27509986                0.11207308                0.48200311               -0.01311960                0.11299629
               2.99154783                2.99714181               47.04486789                0.01000000               -0.26079747               -0.16981707                0.11981087                0.87527171               -0.02422531                0.06765231
               3.98812441                3.00111817               47.04632954                0.01000000               -0.37003831               -0.17387653                0.12496905                1.23302693               -0.04082085                0.06651616
               4.98414707                3.00781271               47.04764132                0.01000000               -0.42912083               -0.25243173                0.12737648                1.49503198               -0.05992781                0.08881505
               5.97954199                3.01585677               47.04882479                0.01000001               -0.46711606               -0.32769786                0.12566375                1.51111941               -0.07591311                0.12378345
               6.97480474                3.02259197               47.04997240                0.01000001               -0.71172122               -0.41893397                0.12234337                1.56840696               -0.12045082                0.17949478
               7.96530757                3.02961358               47.05040841                0.01000001               -0.49303333               -0.30536062                0.11680294                1.26257010               -0.10101491                0.17072444
               8.96494408                3.03182943               47.05233433                0.01000001               -0.03778623               -0.37983032                0.12584013                0.96584149               -0.01396755                0.14215220
               9.96455185                3.03405030               47.05451838                0.95550214               -0.03922324               -0.84120855                0.13508621                1.13152495               -0.00149476                0.11379870
               0.00196990                4.00471882               47.04196334                0.01000000                0.01288777               -0.05845203                0.07371241                0.27215306               -0.00967917                0.19755085
               1.00209878                3.99655054               47.04337898                0.01000000               -0.00986715               -0.35966549                0.10370457                0.56148467               -0.01291367                0.14303933
               2.00177255                3.99349667               47.04471268                0.01000000               -0.10838334               -0.35200673                0.12194245                0.97408635               -0.01743775                0.09951108
               2.99993111                3.99457433               47.04602177                0.01000001               -0.24751590               -0.28667963                0.13072394                1.25022780               -0.01815959                0.07329724
               3.99682224                3.99873869               47.04735721                0.01000000               -0.34154720               -0.27290531                0.13450152                1.50202318               -0.01655390                0.07276319
               4.99310016                4.00505535               47.04873644                0.01000001               -0.37514251               -0.30114336                0.13579514                1.65780306               -0.01626814                0.10041533
               5.98931939                4.01221793               47.05013346                0.01000001               -0.38257694               -0.37100329                0.13551032                1.74859421               -0.02197146                0.15100471
               6.98544863                4.01931983               47.05146789                0.01000002               -0.28923877               -0.42132614                0.13416301                1.72725339               -0.02369578                0.21166366
               7.98353461                4.02383731               47.05290996                0.01006849               -0.16969835               -0.59643826                0.13547036                1.82313279               -0.01299664                0.29939605
               8.98205466                4.02460112               47.05443384                0.01000000                0.07249337               -0.73261125                0.14019563                1.30090270               -0.00599450                0.28200623
               9.98498448                4.01762838               47.05597262                0.01000001                0.29298199               -1.19400295                0.14743934                0.99513628                0.00506918                0.21327233
               0.01585304                5.00319450               47.04416916                0.01000003                0.04135815               -0.52763814                0.06217135                0.71488513               -0.01380146                0.24230894
               1.01626662                4.99216525               47.04515873                0.01000000               -0.05273688               -0.39060407                0.10361439                1.12344534               -0.01026981                0.13881505
               2.01479830                4.98972437               47.04611331                0.01000001               -0.24781243               -0.31147565                0.12888660                1.32162067               -0.00814672                0.07519578
               3.01131037                4.99140822               47.04716230                0.01000000               -0.35572242               -0.33253100                0.13830415                1.50996744                0.00416530                0.05351895
               4.00768385                4.99566007               47.04847253                0.01000001               -0.37432412               -0.30988537                0.14037746                1.64097601                0.02827513                0.05998961
               5.00382389                5.00178984               47.05002143                0.01000001               -0.37172267               -0.32021866                0.14107581                1.71818156                0.04925886                0.09916950
               6.00024940                5.00843670               47.05175509                0.01000161               -0.30467278               -0.37278405                0.14201550                1.67740577                0.06305932                0.16231575
               6.99773043                5.01416544               47.05358139                0.01000000               -0.18802295               -0.49551235                0.14392392                1.56681209                0.06789844                0.23876450
               7.99648894                5.01768481               47.05539042                0.01000000               -0.02796849               -0.60203196                0.14667807                1.29334161                0.05901284                0.30540999
               8.99717106                5.01717721               47.05704367                0.01000000                0.09555574               -0.66579797                0.15125839                0.85960838                0.03800084                0.32005092
               9.99840005                5.01017024               47.05831305                0.01000000                0.12289914               -0.52558241                0.15806686                0.41616593                0.02586121                0.26957719
               0.03832611                5.99416605               47.04711719                0.05024299               -0.02882861               -0.46725161                0.05713362                0.85767217               -0.01878944                0.19356016
               1.03803782                5.98873846               47.04718557                0.01000001               -0.46820542               -0.17740033                0.09370264                1.01983632               -0.01758970                0.09045954
               2.02896200                5.98726716               47.04731240                0.01000000               -0.69215315               -0.31617239                0.13303054                1.38103714               -0.00671157                0.03687757
               3.02419476                5.98792371               47.04815888                0.01000001               -0.48509321               -0.33722769                0.14046057                1.47977012                0.04499347                0.00507828
               4.01926013                5.99254098               47.04950074                0.01000001               -0.47537976               -0.30960415                0.14239334                1.68276584                0.09204048                0.03140278
               5.01468716                5.99865098               47.05136324                0.01000270               -0.43841154               -0.25889140                0.14248139                1.62887509                0.13585233                0.08339415
               6.01049190                6.00476225               47.05358926                0.01000000               -0.35752023               -0.30670457                0.14525445                1.44525622                0.16506130                0.16003888
               7.00753676                6.00940959               47.05602017                0.01000000               -0.20511120               -0.41535354                0.14982835                1.16383703                0.17336864                0.25313072
               8.00638968                6.01179667               47.05839112                0.01000000               -0.03876785               -0.53090192                0.15559839                0.84852361                0.15256921                0.34095642
               9.00676140                6.01128516               47.06034572                0.01000001                0.04660318               -0.52105295                0.16118021                0.46381004                0.09375271                0.38900210
              10.00732174                6.00711673               47.06147253                0.01000000                0.05603417               -0.21105738                0.16613351                0.21969392                0.05436037                0.36012463
               0.04386168                6.99384947               47.04877587                0.94793257               -0.02994336               -0.02988846                0.09166359                0.01638488               -0.00953899                0.06424648
               1.04356224                6.98861724               47.04846058                0.93256998               -0.03139420               -0.02204200                0.10427226                0.01613200               -0.01152580                0.03520457
               2.04323379                6.98340092               47.04814729                0.01000000               -0.39651473               -0.21134738                0.11685369                0.77719280                0.02808733                0.00279287
               3.03563195                6.98466367               47.04864303                0.01000001               -0.63109477               -0.52193210                0.14479312                1.50505072                0.10035853               -0.02447923
               4.03061190                6.98946798               47.05034972                0.01000002               -0.57259124               -0.19642594                0.13743287                1.60855150                0.18238254               -0.00612896
               5.02418012                6.99661202               47.05263902                0.01000000               -0.61079914               -0.12251463                0.14141969                1.45618363                0.23531131                0.06228499
               6.01839591                7.00230261               47.05549482                0.01000000               -0.51036869               -0.14438672                0.14578872                1.09527414                0.28311945                0.14325930
               7.01397275                7.00585837               47.05874832                0.01000000               -0.34060394               -0.24872377                0.15338684                0.69083019                0.30281864                0.25346552
               8.01158383                7.00706677               47.06201677                0.01000000               -0.14227739               -0.38885454                0.16131219                0.31020507                0.27251695                0.40002599
               9.01112720                7.00675615               47.06467871                0.01000002               -0.02265220               -0.42144480                0.16793015                0.08277263                0.16804905                0.50421617
              10.01113079                7.00594909               47.06586195                0.01000000                0.00035897               -0.10660980                0.17185979                0.00458257                0.09237554                0.53442063
               0.04911826                7.99356828               47.04942624                1.00000000               -0.03092445               -0.02884525                0.09649606                0.00094463               -0.00245143                0.01798485
               1.04880901                7.98829762               47.04910235                1.00000000               -0.03294139               -0.03281495                0.10961233                0.00039790               -0.00168528                0.00433438
               2.04845943                7.98304021               47.04879274                0.36516933               -0.02901537               -0.03672995                0.12191003               -0.01551261                0.04275793               -0.00976635
               3.04822871                7.97748506               47.04936863                0.01000001               -0.44883082               -0.36304698                0.08538676                1.16388759                0.14769754               -0.07373883
               4.03948281                7.98861246               47.05088845                0.01007769               -0.86262486               -0.04053710                0.14388210                1.59135425                0.25575883               -0.00640583
               5.03097621                7.99620068               47.05384026                0.01000000               -0.81658926                0.07485429                0.13718794                1.12260409                0.34280454                0.04011460
               6.02315103                8.00187451               47.05728426                0.01000000               -0.71935056                0.05455694                0.14567286                0.71422169                0.39667650                0.11267472
               7.01658920                8.00443511               47.06146608                0.01000000               -0.57275127               -0.02103428                0.15592325                0.23874581                0.46724788                0.22042337
               8.01169600                8.00401958               47.06645757                0.01000002               -0.35273308               -0.14856894                0.16542570               -0.22233976                0.45313116                0.39177169
               9.00953454                8.00285627               47.07045640                0.01006454               -0.13342440               -0.31855382                0.17394424               -0.49078312                0.30079849                0.81079241
              10.00902751                8.00498454               47.07250391                0.01000001               -0.05070207               -0.31172109                0.17718324               -0.35261312                0.19705860                0.74096188
               0.05442191                8.99327257               47.05014640                1.00000000               -0.03236295               -0.03023443                0.10088716                0.00112574                0.00271341                0.01749156
               1.05409828                8.98796094               47.04976465                0.99999999               -0.03429072               -0.03446290                0.11476714                0.00045601                0.00293882                0.00336746
               2.05373609                8.98266632               47.04938811                1.00000000               -0.03804150               -0.03827423                0.12833550                0.00115885               -0.00081224               -0.00757057
               3.05333745                8.97740273               47.04893553                0.01000001               -0.50063652               -0.02601267                0.14194633                0.81879222                0.16161749               -0.06565892
               4.04372336                8.98865724               47.05180792                0.01000000               -0.99836462                0.20553414                0.14339175                1.09415155                0.33037893                0.01102163
               5.03337015                8.99810910               47.05489618                0.01000000               -0.96387194                0.23257998                0.13848544                0.68850930                0.38905498                0.02189060
               6.02444592                9.00339375               47.05873953                0.01000001               -0.83837777                0.19225333                0.14930889                0.33776646                0.47342206                0.06541963
               7.01660260                9.00543769               47.06367724                0.01000002               -0.78650188                0.15095245                0.16100698                0.00879297                0.58623989                0.13318966
               8.00871588                9.00409539               47.07001222                0.01000001               -0.81280080                0.13548264                0.16931074               -0.37595389                0.87634654                0.26283876
               9.00034658                9.00038507               47.08091703                1.00000000               -0.44469484               -0.14976230                0.17566849               -0.64530389                0.54932021                0.52797778
               9.99982199                8.99971467               47.08082768                0.99999999               -0.05245948               -0.28934173                0.17365142               -0.49377826               -0.00041974                0.42025733
               0.05976401                9.99296360               47.05077825                1.00000000               -0.03396340               -0.03089701                0.10586764               -0.00131284                0.01355889                0.01346495
               1.05942438                9.98760836               47.05039265                0.99997472               -0.03615954               -0.03525871                0.11985964               -0.00183309                0.01745073                0.00158941
               2.05904082                9.98227472               47.05008223                0.99999998               -0.04053766               -0.03915949                0.13413055               -0.00170401                0.01691054               -0.00299765
               3.05861363                9.97696481               47.04969482                0.91696687               -0.91906773               -0.04379169                0.14850497                1.05003924                0.17600764               -0.00709128
               4.04065947                9.99272314               47.05258585                0.01000001               -1.43018699                0.40659035                0.18160993                0.88798459                0.33892237                0.00323735
               5.03000989               10.00085228               47.05574010                0.01000227               -0.90408488                0.27431817                0.16361543                0.31379519                0.38545107                0.01741271
               6.02257777               10.00571958               47.05957572                0.01000000               -0.69732386                0.23258315                0.16718040                0.14327878                0.47137885                0.04000781
               7.01606341               10.00745416               47.06465278                0.01000001               -0.66741164                0.20164708                0.17284702               -0.00343607                0.62923515                0.07457830
               8.00922954               10.00672923               47.07187419                0.01000000               -0.75271135                0.26338383                0.17552111               -0.32829145                0.81588368                0.18037397
               9.00100918                9.99986102               47.08082723                1.00000000               -0.43683885               -0.05240548                0.17332182               -0.31031636                0.45252729                0.00040552
              10.00049276                9.99919770               47.08073812                1.00000000               -0.05164214               -0.05169668                0.17130226                0.00074569                0.00042980               -0.00038547
              -0.01625723                0.00394295               48.03825070                0.99160150               -0.02317759               -0.02156018                0.07005912                0.00283596               -0.00731227                0.00770661
               0.98351099                0.00159679               48.04036342                0.99999999               -0.02520670               -0.02599995                0.08424961                0.00235542               -0.00817663               -0.00094036
               1.98323864               -0.00073396               48.04246600                0.04984485               -0.01990777               -0.03050916                0.09877208                0.00478008               -0.05647457               -0.00390540
               2.98311284               -0.00299946               48.04360917                0.01000000               -0.00249338               -0.02127377                0.06383384                0.25662868               -0.04429137                0.00451669
               3.98318877                0.00002054               48.04556606                0.01000000               -0.15413283                0.11878261                0.09333178                0.26919429               -0.02239086                0.01591819
               4.98003018                0.00891394               48.04712066                0.01000000               -0.61151988                0.13913074                0.10014136                0.65698196               -0.05796567                0.01976448
               5.97095837                0.02579392               48.04844298                0.03695566               -0.49185099               -0.02685031                0.07771077                0.70834905                0.00408520               -0.00934005
               6.97019316                0.02900442               48.05123359                0.97492794               -0.05321133               -0.02898874                0.09491383                0.04700997                0.02875600               -0.00109809
               7.96989414                0.03131948               48.05347879                1.00000000               -0.03123570               -0.03194307                0.10403646                0.00158024                0.00192966                0.00020296
               8.96956845                0.03364601               48.05573159                1.00000000               -0.03402129               -0.03468439                0.11353404                0.00146893                0.00229658                0.00101302
               9.96921372                0.03598693               48.05797003                1.00000000               -0.03547300               -0.03771061                0.12305336                0.00081467                0.00217953                0.00328714
              -0.01388271                1.00372735               48.03853252                0.98951563               -0.02442864               -0.02213462                0.07442886                0.00071288                0.00099990                0.00830267
               0.98587300                1.00133679               48.04064565                0.17299596               -0.02663642               -0.02674524                0.08873778                0.00019937                0.00371406               -0.00363206
               1.98558456                0.99896095               48.04280825                0.01000000               -0.02855650               -0.03025535                0.10346141                0.00964559               -0.04345932               -0.02275957
               2.98530187                0.99678780               48.04397164                0.01000001               -0.28302743                0.03101693                0.06614496                0.19707056               -0.04697857                0.03369387
               3.97992401                1.00120837               48.04595016                0.01000000               -0.57942812                0.09738678                0.10497606                0.55697458               -0.03854370                0.02842438
               4.97371331                1.01030524               48.04738236                0.01000000               -0.59636955                0.05707572                0.11213530                1.00658135               -0.11415132                0.03357925
               5.96799662                1.02552542               48.04804371                0.01000001               -0.29064131               -0.33947376                0.09734005                0.95904324               -0.07243835                0.06699022
               6.96790048                1.02871453               48.05052884                0.97282967               -0.02037355               -0.02971093                0.09938950                0.04589613                0.01249418               -0.00067768
               7.96758915                1.03100005               48.05277474                0.99999999               -0.03255362               -0.03258370                0.10853370                0.00015541                0.00061167                0.00022058
               8.96724941                1.03329916               48.05502295                0.99999999               -0.03541037               -0.03535674                0.11800304                0.00006720                0.00038372                0.00144310
               9.96688094                1.03560982               48.05726374                0.99999999               -0.03684690               -0.03839331                0.12757568               -0.00069227                0.00014078                0.00479760
              -0.01146186                2.00350026               48.03882538                0.01000001               -0.02567620                0.02460480                0.07846443                0.06307650                0.00302654                0.09337067
               0.98828138                2.00106188               48.04087293                0.01000000               -0.02788042               -0.11143692                0.09276361                0.06329462               -0.00418298                0.07261071
               1.98798054                1.99866093               48.04276723                0.01000001               -0.17372767               -0.12623006                0.10084531                0.12320732                0.00837957                0.04562336
               2.98480683                1.99762088               48.04505927                0.01000000               -0.35848586                0.00020094                0.10734557                0.38450187               -0.01211857                0.07169957
               3.98081082                2.00196828               48.04663651                0.01000000               -0.44810355               -0.01904691                0.11655915                0.93738582               -0.06410052                0.05386293
               4.97584476                2.01005545               48.04797810                0.01000001               -0.45404333               -0.13134756                0.12350749                1.27714363               -0.08798389                0.06549782
               5.97172995                2.01900445               48.04919529                0.01000000               -0.51041493               -0.47691406                0.12194582                1.39522073               -0.12842734                0.11756841
               6.96563646                2.02841020               48.04982578                0.01000000               -0.32086669               -0.28435474                0.10308162                0.82551374               -0.08098790                0.10326445
               7.96531262                2.03066780               48.05207260                0.19559025               -0.03382205               -0.03356919                0.11272150                0.00058293               -0.00087102                0.01018718
               8.96496002                2.03293887               48.05431928                1.00000000               -0.03670316               -0.03665440                0.12262649                0.00028349               -0.00069114                0.00081738
               9.96457855                2.03521906               48.05658092                0.99999999               -0.03814632               -0.03977378                0.13203973               -0.00068113               -0.00019138                0.00493096
              -0.00774443                3.00421944               48.04080466                0.01000005               -0.02773443                0.05366174                0.08228337                0.07617708               -0.00551070                0.17895684
               0.99197822                2.99910805               48.04267347                0.01000001               -0.03829258               -0.24088728                0.10283496                0.21750078               -0.01293615                0.15732762
               1.99148971                2.99643635               48.04445725                0.01000000               -0.11468285               -0.27802610                0.11622934                0.49061889               -0.02724108                0.12973615
               2.98968456                2.99679182               48.04608773                0.01000000               -0.26262786               -0.17340676                0.12335120                0.89345908               -0.04043292                0.08040192
               3.98623716                3.00082743               48.04760555                0.01000000               -0.37322753               -0.18039676                0.12971558                1.26306994               -0.05505643                0.07195229
               4.98222001                3.00767829               48.04894319                0.01000000               -0.43454330               -0.26192487                0.13311288                1.53877176               -0.07542622                0.08665293
               5.97754629                3.01598714               48.05010604                0.01000001               -0.47363045               -0.33974313                0.13084081                1.56403984               -0.09327917                0.12175938
               6.97274740                3.02302743               48.05121214                0.01000001               -0.72370781               -0.44105160                0.12566050                1.62351273               -0.13851793                0.18921028
               7.96307213                3.03032866               48.05157391                0.01000001               -0.50217901               -0.31799514                0.11737288                1.30518568               -0.10851032                0.17942590
               8.96270382                3.03256607               48.05360066                0.01000001               -0.03825967               -0.39519427                0.12753329                0.99767775               -0.01337993                0.14796176
               9.96230694                3.03481435               48.05587622                0.98697936               -0.03968834               -0.86889307                0.13655576                1.16869067               -0.00143180                0.11834309
               0.00028447                4.00457349               48.04270858                0.01000000                0.01300244               -0.06029296                0.07933441                0.27766075               -0.01420883                0.18472232
               1.00041449                3.99624414               48.04446232                0.01000000               -0.00876635               -0.37337370                0.11283480                0.57456504               -0.02804533                0.15854918
               2.00010914                3.99310041               48.04597391                0.01000000               -0.10647848               -0.36256384                0.12882101                0.99585721               -0.04275807                0.11844716
               2.99828492                3.99415274               48.04736243                0.01000001               -0.24616992               -0.29664824                0.13545516                1.27884513               -0.04357730                0.08471599
               3.99518574                3.99836034               48.04872985                0.01000000               -0.34122209               -0.28428500                0.13873226                1.54196463               -0.03805326                0.07333814
               4.99146048                4.00481695               48.05011811                0.01000001               -0.37620684               -0.31369389                0.13997650                1.71076856               -0.03401698                0.09521260
               5.98766161                4.01220959               48.05150850                0.01000001               -0.38476470               -0.38597434                0.13942776                1.81314899               -0.03764693                0.14688350
               6.98376519                4.01958917               48.05282474                0.01000001               -0.28919592               -0.44039597                0.13738604                1.79486147               -0.03650908                0.21316497
               7.98187769                4.02430790               48.05427291                0.01011189               -0.16686497               -0.61809908                0.13778473                1.88390663               -0.02098465                0.30772821
               8.98042789                4.02503499               48.05584917                0.01000000                0.07890674               -0.75872315                0.14336198                1.34406232               -0.01042840                0.29284288
               9.98345582                4.01784120               48.05746682                0.01000000                0.30279347               -1.23654982                0.15135073                1.03300724                0.00381517                0.21906491
               0.01446749                5.00301358               48.04475772                0.01000003                0.04751173               -0.53663518                0.06343436                0.74095967               -0.03982196                0.23209219
               1.01494260                4.99164058               48.04624895                0.01000000               -0.04846165               -0.41631361                0.12035004                1.16387222               -0.04387831                0.14675224
               2.01349825                4.98918507               48.04747347                0.01000001               -0.24705353               -0.32468233                0.14098140                1.36571754               -0.04652454                0.09227535
               3.01000153                4.99085886               48.04859868                0.01000000               -0.35430073               -0.34746242                0.14508504                1.55299248               -0.03198051                0.05661303
               4.00641224                4.99514173               48.04990176                0.01000001               -0.37076956               -0.32499240                0.14402776                1.69108008                0.00158526                0.05450925
               5.00258614                5.00140442               48.05145143                0.01000001               -0.36875899               -0.33633200                0.14404987                1.77952047                0.03141657                0.08810067
               5.99903706                5.00826765               48.05319040                0.01001533               -0.30199115               -0.39009166                0.14507592                1.74616618                0.05152367                0.15281282
               6.99654632                5.01421951               48.05503810                0.01000000               -0.18663069               -0.51500138                0.14747643                1.63882179                0.06098287                0.23536445
               7.99530445                5.01796668               48.05687439                0.01000000               -0.02472739               -0.62317882                0.15094077                1.35141930                0.05682642                0.30380724
               8.99605177                5.01739161               48.05856739                0.01000000                0.10251061               -0.68560280                0.15505187                0.89144206                0.03823797                0.32422046
               9.99735466                5.01008335               48.05990777                0.01000000                0.13028862               -0.54667786                0.16152789                0.43221717                0.02698463                0.27248397
               0.03784968                5.99384079               48.04760405                0.03514822               -0.03292240               -0.48498398                0.03455133                0.88411184               -0.05586489                0.24027541
               1.03752045                5.98791787               48.04816907                0.01000001               -0.48222315               -0.18275786                0.11094022                1.07614625               -0.06302170                0.06890001
               2.02820521                5.98660676               48.04873013                0.01000000               -0.70661705               -0.32576503                0.15296150                1.45742432               -0.04792415                0.03104805
               3.02338811                5.98720349               48.04957890                0.01000001               -0.48717138               -0.34742748                0.14616030                1.53402052                0.00910793                0.01056870
               4.01846179                5.99186050               48.05095651                0.01000001               -0.47315714               -0.32510252                0.14462741                1.73986809                0.06785647                0.01308229
               5.01392497                5.99809031               48.05279513                0.01001434               -0.43459772               -0.27671303                0.14430488                1.69358440                0.12066098                0.06432181
               6.00976983                6.00440775               48.05505213                0.01000000               -0.35411872               -0.32480773                0.14771650                1.51635295                0.16003194                0.14285373
               7.00684260                6.00928914               48.05753004                0.01000000               -0.20179276               -0.43164292                0.15282960                1.23174645                0.17425944                0.24270732
               8.00573398                6.01184432               48.05996635                0.01000000               -0.03512666               -0.54922041                0.15944902                0.90380105                0.15474581                0.33720402
               9.00614006                6.01132293               48.06197490                0.01000001                0.04913568               -0.53411502                0.16496084                0.49468845                0.09485438                0.39049225
              10.00671669                6.00690764               48.06314965                0.01000000                0.05766283               -0.21700987                0.17032460                0.23392842                0.05468068                0.36031723
               0.04399557                6.99331390               48.04969328                0.94287199               -0.02960132               -0.04027951                0.09139712                0.04246128               -0.01211706                0.08325995
               1.04369955                6.98798542               48.04951065                0.91079734               -0.03172277               -0.01281199                0.10608623                0.04400503               -0.01207771                0.03630867
               2.04336111                6.98266977               48.04932753                0.01000000               -0.41356711               -0.21529157                0.12014663                0.82046997                0.04590356               -0.01119576
               3.03542821                6.98391031               48.05032271                0.01000001               -0.65191648               -0.51437927                0.14319580                1.55496442                0.08570268               -0.10694087
               4.03032278                6.98863968               48.05166617                0.01000001               -0.57588195               -0.21079371                0.13709833                1.65892957                0.14812728               -0.01714645
               5.02391057                6.99587015               48.05406114                0.01000000               -0.60787437               -0.13985424                0.14072109                1.52209331                0.23265008                0.02701604
               6.01816529                7.00177150               48.05694964                0.01000000               -0.50829481               -0.15877269                0.14696323                1.16498924                0.28843317                0.11703275
               7.01374468                7.00558666               48.06028995                0.01000000               -0.34093107               -0.26037179                0.15582788                0.75409645                0.31278103                0.23821005
               8.01134667                7.00698227               48.06364125                0.01000000               -0.14312273               -0.39760006                0.16428217                0.35719265                0.28109999                0.39414850
               9.01088222                7.00670931               48.06637248                0.01000002               -0.02414367               -0.42522213                0.17141520                0.10741857                0.17272201                0.50426587
              10.01086380                7.00574315               48.06759283                0.01000000               -0.00184219               -0.10122288                0.17555178                0.01488706                0.09404635                0.53325539
               0.04935587                7.99303520               48.05038739                1.00000000               -0.03111827               -0.02849922                0.09570688                0.00097731               -0.00215737                0.01719044
               1.04904469                7.98766163               48.05020439                0.99999999               -0.03330726               -0.03311116                0.11062531                0.00028566               -0.00279925                0.00433725
               2.04868973                7.98230093               48.05000848                0.18762395               -0.02636003               -0.03748736                0.12463108               -0.00164522               -0.04897860               -0.00899129
               3.04851749                7.97691591               48.04891188                0.01000001               -0.45045987               -0.36782150                0.08910839                1.17930802                0.12847313               -0.06814297
               4.03968053                7.98764462               48.05249943                0.01012057               -0.86412358               -0.04347158                0.13411452                1.60318295                0.31491456               -0.04626656
               5.03123502                7.99529323               48.05514068                0.01000000               -0.81637068                0.06387017                0.13214905                1.17977001                0.34323697               -0.01472086
               6.02335312                8.00123230               48.05873363                0.01000000               -0.72606344                0.04888617                0.14499056                0.77592113                0.42254522                0.07975626
               7.01671375                8.00408170               48.06302341                0.01000000               -0.57989712               -0.02511696                0.15778464                0.28999898                0.48672083                0.20413029
               8.01175517                8.00389232               48.06812027                0.01000002               -0.35930970               -0.15046069                0.16811957               -0.18606803                0.46778005                0.38563347
               9.00952756                8.00281849               48.07220260                0.01007006               -0.14042123               -0.31093489                0.17465269               -0.47248889                0.31020759                0.81161913
              10.00894675                8.00488319               48.07427868                0.01000001               -0.05808057               -0.29654593                0.17690634               -0.34085069                0.20074061                0.73785350
               0.05476226                8.99274392               48.05115060                1.00000000               -0.03227231               -0.02978997                0.09982974                0.00091754                0.00302040                0.01688937
               1.05443953                8.98732320               48.05091617                0.99999999               -0.03441658               -0.03457384                0.11522817                0.00045534                0.00263677                0.00319220
               2.05407392                8.98192002               48.05067101                0.99999999               -0.03844250               -0.03889717                0.13018845                0.00157938               -0.00272928               -0.00593641
               3.05367068                8.97655388               48.05033847                0.01000000               -0.50324013               -0.04074278                0.14482994                0.81941829                0.14903723                0.02565635
               4.04400912                8.98777025               48.05315587                0.01000000               -0.98761940                0.20755902                0.11258380                1.09720677                0.39628087               -0.06228328
               5.03391829                8.99714756               48.05617278                0.01000000               -0.95569386                0.23334243                0.12152031                0.71360021                0.44804479               -0.02517098
               6.02489524                9.00274922               48.06020076                0.01000000               -0.85168317                0.19576980                0.14725989                0.37539183                0.51693531                0.04159784
               7.01688463                9.00508432               48.06528513                0.01000002               -0.80033592                0.15301973                0.16316141                0.03745966                0.61038009                0.12268469
               8.00888853                9.00397306               48.07170987                0.01000001               -0.82215249                0.13716377                0.17143758               -0.35216750                0.88957445                0.25924034
               9.00044158                9.00049061               48.08267348                1.00000000               -0.44855679               -0.14258203                0.17561700               -0.62877158                0.55322116                0.52959904
               9.99991739                8.99981223               48.08256412                0.99999995               -0.05241915               -0.27940584                0.17361712               -0.48536565               -0.00040164                0.41950557
               0.06021567                9.99243940               48.05183099                1.00000000               -0.03379750               -0.03045219                0.10438394               -0.00158331                0.01355165                0.01322964
               1.05987770                9.98697015               48.05159134                0.99999999               -0.03625178               -0.03530470                0.11989610               -0.00200412                0.01797514                0.00131140
               2.05949064                9.98152299               48.05143500                0.99999997               -0.04110339               -0.03970330                0.13577981               -0.00178360                0.01845404               -0.00153570
               3.05905563                9.97610105               48.05120788                0.97998235               -0.92298257               -0.04528225                0.15186059                1.05213527                0.19023814               -0.00328045
               4.04103098                9.99179580               48.05449746                0.01000000               -1.42637896                0.40255529                0.16874062                0.89513747                0.45064731               -0.04632926
               5.03052805                9.99996008               48.05729635                0.01000000               -0.90533945                0.28125195                0.15382284                0.32857016                0.43112782               -0.00335232
               6.02292420               10.00514770               48.06123385                0.01000000               -0.71444723                0.23984731                0.16815096                0.16199604                0.50329634                0.03055476
               7.01623910               10.00714210               48.06638720                0.01000001               -0.68093343                0.20577799                0.17612925                0.00984255                0.64147067                0.07006050
               8.00930553               10.00663560               48.07363660                0.01000000               -0.75630773                0.26625390                0.17787344               -0.31706235                0.81655709                0.17955333
               9.00111295                9.99996685               48.08256078                1.00000000               -0.43546652               -0.05237663                0.17337190               -0.29988965                0.45210840                0.00043214
              10.00059620                9.99929507               48.08245135                1.00000000               -0.05167538               -0.05171649                0.17135965                0.00070279                0.00040476               -0.00041394
              -0.01851778                0.00371726               49.03895457                0.99164763               -0.02320894               -0.02156451                0.07059475                0.00271913               -0.00769700                0.00770048
               0.98125013                0.00128306               49.04120794                1.00000000               -0.02524285               -0.02588781                0.08440659                0.00221900               -0.00829248               -0.00112341
               1.98097736               -0.00113859               49.04345044                0.03002395               -0.00793293               -0.03018560                0.09816680                0.01459034               -0.08072707               -0.00379872
               2.98109147               -0.00330019               49.04425428                0.01000000                0.00823554               -0.02795780                0.06083876                0.25534095               -0.04181773                0.01460866
               3.98114208               -0.00020080               49.04655553                0.01000000               -0.15840695                0.11373042                0.11459875                0.26664634               -0.03652748                0.03263159
               4.97792333                0.00878659               49.04816845                0.01000001               -0.60910636                0.13479042                0.10529909                0.66173552               -0.08980462                0.01512733
               5.96895995                0.02596556               49.04919863                0.03143496               -0.50039206               -0.02746414                0.07390209                0.71269052                0.00681724               -0.01801540
               6.96791549                0.02967798               49.05218008                0.97401941               -0.06703008               -0.02908260                0.09442481                0.07169085                0.03360194               -0.00105668
               7.96761935                0.03200239               49.05451583                1.00000000               -0.03094732               -0.03183856                0.10329914                0.00141047                0.00196753                0.00010590
               8.96729655                0.03434322               49.05685988                1.00000000               -0.03359867               -0.03450617                0.11220105                0.00141259                0.00209232                0.00114436
               9.96694737                0.03670218               49.05919183                1.00000000               -0.03491738               -0.03733389                0.12125254                0.00052554                0.00199954                0.00310344
              -0.01605639                1.00350161               49.03927440                0.99511233               -0.02433622               -0.02203432                0.07415397                0.00062589                0.00113743                0.00817514
               0.98370025                1.00102418               49.04152858                0.15705474               -0.02643575               -0.02652217                0.08797956                0.00018069                0.00387206               -0.00386003
               1.98341489                0.99855955               49.04383556                0.01000000               -0.02621311               -0.02996328                0.10207648                0.01578395               -0.06865926               -0.02451407
               2.98317598                0.99642023               49.04463333                0.01000001               -0.28248734                0.02943782                0.07163713                0.19765886               -0.07745593                0.06828846
               3.97776515                1.00093651               49.04706646                0.01000000               -0.58592365                0.09194398                0.12615877                0.56019748               -0.04163572                0.03509904
               4.97145751                1.01013449               49.04855947                0.01000000               -0.60619938                0.05332607                0.12139763                1.02253679               -0.13178495                0.02332954
               5.96564116                1.02569092               49.04906430                0.01000001               -0.29217626               -0.34523180                0.10820188                0.98763665               -0.09304726                0.05759338
               6.96561399                1.02938715               49.05152401                0.96748426               -0.01701662               -0.02987370                0.09990906                0.07089101                0.00672189               -0.00106289
               7.96530083                1.03168400               49.05386172                0.99999999               -0.03266036               -0.03266452                0.10887061                0.00007103                0.00058068                0.00023993
               8.96496078                1.03399816               49.05620225                0.99999999               -0.03535754               -0.03534315                0.11785756                0.00003474                0.00035904                0.00162206
               9.96459368                1.03632884               49.05853614                0.99994564               -0.03671028               -0.03817393                0.12689060               -0.00087122                0.00015634                0.00464356
              -0.01355040                2.00327657               49.03960450                0.01000000               -0.02537917                0.02789382                0.07768860                0.06170247                0.00306385                0.09445663
               0.98619581                2.00075262               49.04179222                0.01000000               -0.02763013               -0.10542280                0.09141338                0.05943930               -0.00566004                0.07652053
               1.98589700                1.99826214               49.04380033                0.01000001               -0.17640562               -0.12035028                0.10166305                0.12511660                0.00242574                0.04828446
               2.98266769                1.99728856               49.04613691                0.01000000               -0.36326179                0.00132306                0.11086455                0.38954124               -0.02094979                0.10219723
               3.97863176                2.00163808               49.04784098                0.01000000               -0.45240171               -0.02363154                0.12416743                0.94836143               -0.06887930                0.05337129
               4.97361966                2.00985311               49.04925831                0.01000001               -0.45858678               -0.13643656                0.13284395                1.30516901               -0.09764923                0.05412316
               5.96946002                2.01906092               49.05045439                0.01000000               -0.51397163               -0.48560865                0.12992465                1.44968441               -0.15174267                0.11076600
               6.96334023                2.02908050               49.05086918                0.01000000               -0.32251347               -0.30049709                0.10537034                0.86203533               -0.09644248                0.11222141
               7.96300976                2.03134910               49.05320857                0.20716114               -0.03439095               -0.03411114                0.11439906                0.00019389               -0.00070972                0.01004503
               8.96265241                2.03363636               49.05555028                0.99999999               -0.03705780               -0.03696932                0.12357394                0.00014976               -0.00045778                0.00110118
               9.96226860                2.03593870               49.05790364                0.99999999               -0.03838090               -0.03987919                0.13250886               -0.00084524               -0.00010226                0.00477436
              -0.00977443                3.00405949               49.04164757                0.01000005               -0.03221038                0.05918158                0.08486921                0.07205589               -0.00519936                0.18232597
               0.98990346                2.99891572               49.04371453                0.01000001               -0.04221435               -0.23032868                0.10198934                0.20848949               -0.01887855                0.17597400
               1.98938128                2.99615254               49.04562544                0.01000000               -0.11562971               -0.27063746                0.11437001                0.48256230               -0.04096033                0.14917793
               2.98759087                2.99644669               49.04733492                0.01000000               -0.26067252               -0.17654303                0.12343102                0.89736277               -0.05310124                0.09622342
               3.98416783                3.00046388               49.04892385                0.01000166               -0.37264081               -0.18644179                0.13342309                1.28164056               -0.06562598                0.07249776
               4.98013805                3.00740576               49.05030357                0.01000000               -0.43801858               -0.27008726                0.13820889                1.57681925               -0.08855353                0.07704965
               5.97540746                3.01597874               49.05144161                0.01000001               -0.47857673               -0.34948403                0.13580326                1.61856157               -0.11127410                0.11324442
               6.97056652                3.02337721               49.05248561                0.01000001               -0.73293052               -0.46616639                0.12886996                1.68184191               -0.15825599                0.19722883
               7.96074885                3.03100178               49.05275587                0.01000001               -0.50961706               -0.33288526                0.11949268                1.34811502               -0.11669208                0.18743145
               8.96037418                3.03325878               49.05488500                0.01000000               -0.03883739               -0.40725553                0.12941203                1.02646230               -0.01263274                0.15402971
               9.95997210                3.03553125               49.05724950                0.99898593               -0.04020772               -0.89802853                0.13813538                1.20509197               -0.00139943                0.12362288
              -0.00182176                4.00446020               49.04355002                0.01000000                0.00942991               -0.05593080                0.08781318                0.26101220               -0.01683610                0.18715171
               0.99827254                3.99614604               49.04563567                0.01000000               -0.00804815               -0.37610931                0.11559938                0.55795143               -0.04681056                0.19985928
               1.99801728                3.99284939               49.04728910                0.01000000               -0.09844605               -0.36694460                0.12792183                0.98742324               -0.07469916                0.15174491
               2.99630362                3.99375770               49.04873088                0.01000000               -0.23558891               -0.30613372                0.13449965                1.28557286               -0.07213142                0.09847203
               3.99330550                3.99790925               49.05013185                0.01000000               -0.33312208               -0.29701413                0.13954133                1.56943209               -0.05818828                0.07158907
               4.98964118                4.00445137               49.05153597                0.01000001               -0.37228446               -0.32654622                0.14252638                1.75937606               -0.05014401                0.08585987
               5.98585981                4.01207124               49.05292202                0.01000001               -0.38435739               -0.40147069                0.14277660                1.87957739               -0.05277986                0.13957859
               6.98195403                4.01975717               49.05421561                0.01000001               -0.28846608               -0.46048866                0.14099914                1.86598652               -0.04972857                0.21360636
               7.98009049                4.02469139               49.05566565                0.01000005               -0.16509236               -0.64671277                0.14097067                1.95407039               -0.02985989                0.31802182
               8.97865218                4.02549125               49.05730108                0.01000000                0.08674980               -0.78614393                0.14597331                1.39075017               -0.01644382                0.30774563
               9.98182548                4.01797813               49.05899964                0.01000000                0.31733025               -1.27970827                0.15502332                1.06303213                0.00177038                0.22505082
               0.01207413                5.00294087               49.04543785                0.01000003                0.05991732               -0.52121001                0.08222754                0.74029308               -0.07774733                0.23198121
               1.01267330                4.99139354               49.04756573                0.01000000               -0.02780219               -0.46456397                0.13267903                1.16257770               -0.10446292                0.21199175
               2.01151808                4.98881365               49.04893294                0.01000001               -0.22154152               -0.34076690                0.14094279                1.37534439               -0.11644976                0.13674108
               3.00824247                4.99032402               49.05006400                0.01000000               -0.33276379               -0.36733283                0.14308789                1.57784280               -0.07676984                0.06320827
               4.00486281                4.99452359               49.05135308                0.01000001               -0.35394465               -0.34355135                0.14343976                1.73231794               -0.02515172                0.04551528
               5.00116358                5.00087484               49.05290243                0.01000001               -0.35848058               -0.35618333                0.14553393                1.83946624                0.01479754                0.07507773
               5.99769320                5.00794933               49.05465661                0.01000228               -0.29487405               -0.41055802                0.14791757                1.81952063                0.04083060                0.14200564
               6.99526610                5.01416743               49.05653092                0.01000000               -0.17985086               -0.53726469                0.15081251                1.71359463                0.05432409                0.23263334
               7.99409618                5.01806752               49.05840923                0.01000000               -0.01818250               -0.64587495                0.15506450                1.41588577                0.05628920                0.30114443
               8.99490245                5.01753590               49.06014470                0.01000000                0.10814049               -0.71006695                0.16036274                0.93462807                0.03855104                0.32939961
               9.99625899                5.00993709               49.06154360                0.01000000                0.13565423               -0.56700579                0.16720143                0.45213699                0.02668996                0.27626185
               0.03607877                5.99403600               49.04780821                0.02073379               -0.04274544               -0.51047697                0.01611110                0.87739985               -0.20770309                0.39047697
               1.03565131                5.98685476               49.04940438                0.01000001               -0.47425390               -0.20427189                0.14703273                1.15055927               -0.24000596                0.10087222
               2.02659369                5.98603405               49.05037163                0.01000000               -0.67503893               -0.34575028                0.15464690                1.56889985               -0.13019628                0.02851639
               3.02215053                5.98641105               49.05108208                0.01000001               -0.45963264               -0.35660723                0.14394731                1.58845324               -0.04215747               -0.01213661
               4.01740104                5.99103822               49.05239329                0.01000001               -0.45728844               -0.34707305                0.14313161                1.79449293                0.04139622               -0.00447709
               5.01300476                5.99732770               49.05424934                0.01000208               -0.42217053               -0.30340279                0.14631986                1.76039675                0.10862427                0.04134450
               6.00895762                6.00386008               49.05654359                0.01000000               -0.34485189               -0.34937844                0.15096351                1.59633756                0.15587556                0.12513885
               7.00610773                6.00901188               49.05907676                0.01000000               -0.19589418               -0.45191154                0.15689776                1.30922388                0.17547074                0.23240659
               8.00503974                6.01177389               49.06158010                0.01000000               -0.03162731               -0.56358557                0.16329859                0.96525776                0.15614482                0.33322813
               9.00547518                6.01128991               49.06364494                0.01000000                0.05130507               -0.54610649                0.16952513                0.52958638                0.09542764                0.39209399
              10.00606584                6.00663801               49.06487902                0.01000000                0.05906625               -0.22259575                0.17636259                0.25041153                0.05506791                0.36181674
               0.04398460                6.99273133               49.05060381                0.93964946               -0.02981667               -0.07906156                0.09089632                0.12579425               -0.01191337                0.11623845
               1.04368643                6.98730810               49.05058230                0.89326799               -0.03224015                0.00620361                0.10777489                0.13239698               -0.01261901                0.02565429
               2.04333980                6.98189865               49.05055022                0.01000000               -0.43395323               -0.22585729                0.12373792                0.90312252                0.03557083               -0.03378645
               3.03500737                6.98319187               49.05150695                0.01000001               -0.67518919               -0.51523017                0.12998873                1.59200862                0.07130213               -0.08989066
               4.02983601                6.98758213               49.05309168                0.01000001               -0.57288594               -0.24203958                0.14238815                1.68830883                0.14112822               -0.06095493
               5.02354965                6.99480678               49.05545344                0.01000000               -0.59501239               -0.17665340                0.14229940                1.59908078                0.22788602               -0.01119416
               6.01793577                7.00096176               49.05843408                0.01000000               -0.50064446               -0.18207828                0.15157250                1.25419997                0.29728914                0.08817539
               7.01353676                7.00512920               49.06186488                0.01000000               -0.34062312               -0.27446711                0.16064876                0.83316468                0.32248844                0.22370178
               8.01112330                7.00679581               49.06530242                0.01000000               -0.14533518               -0.40551338                0.16867500                0.41586214                0.28904488                0.38925722
               9.01063006                7.00661377               49.06810701                0.01000002               -0.02761416               -0.42511314                0.17543888                0.13972313                0.17690442                0.50391664
              10.01057102                7.00548517               49.06937298                0.01000000               -0.00590374               -0.09338444                0.18083959                0.02835667                0.09493104                0.53071133
               0.04944111                7.99245477               49.05134038                1.00000000               -0.03091759               -0.02822881                0.09478580                0.00073530               -0.00261186                0.01681288
               1.04913194                7.98697883               49.05131485                0.99999999               -0.03343718               -0.03351326                0.11160693                0.00031549               -0.00276852                0.00401239
               2.04877237                7.98151691               49.05128536                0.19949638               -0.04123583               -0.03887881                0.12884917                0.00235071               -0.00872103               -0.00848741
               3.04830722                7.97610644               49.05115080                0.01000001               -0.46100339               -0.37860073                0.19716549                1.17532413                0.10107251               -0.07355629
               4.03955230                7.98619743               49.05357074                0.01000005               -0.83502347               -0.10842915                0.12010839                1.68334252                0.25817602               -0.12385754
               5.03160675                7.99379463               49.05648324                0.01000000               -0.79165496                0.03216194                0.13636144                1.28787974                0.37710254               -0.08838811
               6.02371920                8.00021852               49.06018407                0.01000000               -0.73348913                0.03818616                0.15122445                0.87322090                0.45048934                0.04427647
               7.01693697                8.00352254               49.06462177                0.01000000               -0.59233904               -0.03008054                0.16415218                0.36047210                0.50684936                0.18922376
               8.01187242                8.00366363               49.06981997                0.01000002               -0.36783420               -0.15159707                0.17263294               -0.13695865                0.47941372                0.38020194
               9.00958028                8.00278765               49.07394946                0.01000005               -0.14911275               -0.29974459                0.17623321               -0.44833011                0.31686741                0.81313147
              10.00889017                8.00477032               49.07604203                0.01000001               -0.06901182               -0.27765317                0.17821458               -0.32864920                0.20285828                0.73618392
               0.05495117                8.99216675               49.05214299                1.00000000               -0.03205695               -0.02936763                0.09848158                0.00076945                0.00291577                0.01649368
               1.05463060                8.98663784               49.05206921                0.99999999               -0.03459856               -0.03472951                0.11561346                0.00011241                0.00287990                0.00321471
               2.05425920                8.98112107               49.05199188                0.99999494               -0.03986372               -0.04004425                0.13330331                0.00015109               -0.00197879               -0.00613692
               3.05383333                8.97561986               49.05183212                0.01189256               -0.42222642               -0.04730237                0.15134262                0.76705974                0.11167784               -0.01526997
               4.04581467                8.98541355               49.05405959                0.01000000               -0.92735873                0.14579771                0.08830989                1.19309058                0.55058980               -0.20836462
               5.03528616                8.99545002               49.05732658                0.01000000               -1.00711997                0.23717356                0.13037585                0.83006193                0.55813670               -0.09100759
               6.02567228                9.00172548               49.06168472                0.01000000               -0.89925325                0.20229929                0.15716472                0.44556062                0.56889001                0.01838533
               7.01730109                9.00452759               49.06694046                0.01000002               -0.82766280                0.15643421                0.17067349                0.07957447                0.63303169                0.11319101
               8.00911902                9.00376387               49.07344097                0.01000007               -0.83721659                0.14016033                0.17610348               -0.31970156                0.89904718                0.25626332
               9.00055676                9.00061888               49.08442937                1.00000000               -0.45431658               -0.13462868                0.17556460               -0.60877203                0.55546285                0.53116034
              10.00003269                8.99993211               49.08430002                0.99991148               -0.05240713               -0.26776821                0.17356860               -0.47719924               -0.00041021                0.41922431
               0.06051434                9.99186742               49.05286593                1.00000000               -0.03344707               -0.02993385                0.10249059               -0.00200061                0.01371432                0.01304559
               1.06017987                9.98628424               49.05279058                1.00000000               -0.03604851               -0.03535910                0.11980878               -0.00264326                0.01820962                0.00150711
               2.05979337                9.98071602               49.05279783                0.99999994               -0.04119669               -0.04050481                0.13708877               -0.00277578                0.01866963               -0.00190822
               3.05935594                9.97516039               49.05273203                0.99999999               -0.81047110               -0.04594610                0.15413439                0.97212850                0.17926027               -0.00527541
               4.04358395                9.98911338               49.05596067                0.01000000               -1.37299411                0.36998326                0.15054872                0.94581267                0.67226690               -0.21949433
               5.03189605                9.99853810               49.05881655                0.01000026               -1.00155534                0.30880814                0.16676175                0.41854573                0.51327488               -0.01443646
               6.02355284               10.00426450               49.06293874                0.01000000               -0.77029920                0.25390169                0.17959015                0.19371261                0.53680654                0.02147775
               7.01649007               10.00665122               49.06817536                0.01000001               -0.70828670                0.21236293                0.18330035                0.02901444                0.65003153                0.06631120
               8.00938711               10.00646683               49.07543165                0.01000000               -0.76267316                0.27029612                0.18190711               -0.30099862                0.81329492                0.17876788
               9.00123661               10.00009507               49.08429467                0.99993485               -0.43336967               -0.05238008                0.17341380               -0.28460907                0.45004551                0.00042774
              10.00071971                9.99941496               49.08416531                1.00000000               -0.05168924               -0.05171513                0.17142027                0.00069089                0.00041227               -0.00041011
              -0.02091791                0.00345731               50.03966259                0.99160985               -0.02328103               -0.02163837                0.07104662                0.00253377               -0.00780919                0.00779937
               0.97884928                0.00093305               50.04205156                1.00000000               -0.02521660               -0.02577411                0.08427583                0.00212607               -0.00841816               -0.00122122
               1.97857775               -0.00158018               50.04442933                0.01004716                0.01610597               -0.02990447                0.09747307                0.03296548               -0.10789068               -0.00372721
               2.97917140               -0.00346538               50.04482594                0.01000000               -0.00168513               -0.02636811                0.13469961                0.19661995               -0.07562012                0.06267135
               3.97854405               -0.00034869               50.04785804                0.01000000               -0.17902008                0.09735958                0.12098496                0.25710089               -0.06174527                0.04863891
               4.97559099                0.00843444               50.04922664                0.01000001               -0.57304811                0.12475420                0.10510707                0.65142708               -0.13187218                0.00201788
               5.96708309                0.02570228               50.04992103                0.02605301               -0.50214996               -0.02807530                0.07152721                0.70185396                0.02231239               -0.03510372
               6.96554799                0.03029542               50.05312209                0.97336658               -0.09146971               -0.02912527                0.09401262                0.11532761                0.04016545               -0.00112529
               7.96525370                0.03262982               50.05554477                1.00000000               -0.03068499               -0.03177132                0.10247593                0.00132038                0.00184434                0.00010148
               8.96493430                0.03498416               50.05797561                1.00000000               -0.03319465               -0.03429517                0.11091955                0.00131611                0.00202198                0.00115541
               9.96458980                0.03736038               50.06039508                1.00000000               -0.03444929               -0.03694954                0.11941525                0.00027115                0.00193128                0.00306629
              -0.01836832                1.00324093               50.04001560                1.00000000               -0.02423983               -0.02205449                0.07418144                0.00053331                0.00120038                0.00821843
               0.98138928                1.00067531               50.04240524                0.14211773               -0.02625270               -0.02633590                0.08741666                0.00014625                0.00398478               -0.00400592
               1.98110662                0.99812078               50.04484978                0.01000000               -0.04337136               -0.02915419                0.10089180                0.03511157               -0.08753058               -0.02693582
               2.98052185                0.99627094               50.04540438                0.01000001               -0.29707355                0.02143049                0.13611575                0.18399565               -0.18373375                0.13231273
               3.97516515                1.00062490               50.04847333                0.01000000               -0.57210365                0.07635047                0.13287010                0.55894122               -0.04950846                0.01848651
               4.96907978                1.00968198               50.04981031                0.01000000               -0.59970066                0.04796883                0.12967273                1.02419923               -0.14736485                0.00399922
               5.96317114                1.02542152               50.05020775                0.01000001               -0.29211407               -0.34299110                0.12386090                1.01616567               -0.11258136                0.03058579
               6.96323750                1.03000416               50.05252702                0.96221489               -0.01243056               -0.03011951                0.10070929                0.11480095               -0.00468544               -0.00112865
               7.96292253                1.03231211               50.05495216                0.99999999               -0.03276620               -0.03276331                0.10920681                0.00003383                0.00057159                0.00022334
               8.96258217                1.03464120               50.05738010                0.99999999               -0.03531210               -0.03530051                0.11769981                0.00001406                0.00036374                0.00167960
               9.96221629                1.03699089               50.05980155                0.99999999               -0.03658877               -0.03795960                0.12620218               -0.00103231                0.00016358                0.00460118
              -0.01577602                2.00301622               50.04037915                0.01000002               -0.02516273                0.03397552                0.07739073                0.05830993                0.00316060                0.09665499
               0.98397235                2.00040634               50.04270120                0.01000000               -0.02698099               -0.09456191                0.09043657                0.05270061               -0.00789276                0.07910221
               1.98368436                1.99783674               50.04480049                0.01000001               -0.18125823               -0.10948205                0.09259578                0.12501985               -0.00046140                0.04901892
               2.98034718                1.99696323               50.04727656                0.01000000               -0.36862589               -0.00743095                0.11263242                0.40719276               -0.00250554                0.12966577
               3.97631184                2.00117832               50.04911986                0.01000000               -0.45344130               -0.03191960                0.13483922                0.96107047               -0.06838612                0.02955861
               4.97127836                2.00939382               50.05063498                0.01000001               -0.46138095               -0.13701776                0.13942047                1.32577711               -0.10076917                0.03165824
               5.96708422                2.01884245               50.05179378                0.01000000               -0.51624644               -0.48185604                0.13705674                1.51334215               -0.17511765                0.08951510
               6.96095343                2.02969303               50.05193319                0.01000000               -0.32334444               -0.31892878                0.10739548                0.90813135               -0.11459691                0.12101026
               7.96061733                2.03197455               50.05436058                0.21865351               -0.03488169               -0.03459483                0.11594305                0.00007488               -0.00060365                0.00975031
               8.96025580                2.03427815               50.05679076                0.99999999               -0.03737705               -0.03726678                0.12452176                0.00010027               -0.00035652                0.00124073
               9.95986979                2.03660119               50.05923110                0.99999999               -0.03860059               -0.04000429                0.13298432               -0.00101232               -0.00006643                0.00471225
              -0.01198236                3.00392044               50.04250204                0.01000005               -0.03948691                0.07550114                0.08386058                0.06398749               -0.00589202                0.19056794
               0.98762277                2.99878408               50.04471326                0.01000001               -0.04837589               -0.20081061                0.09516311                0.18887811               -0.02292939                0.19131080
               1.98705012                2.99593114               50.04674465                0.01000000               -0.11493209               -0.25044619                0.10540359                0.45869242               -0.04650166                0.16793747
               2.98532413                2.99612232               50.04855635                0.01000000               -0.25470714               -0.17850676                0.12236975                0.88538650               -0.05817371                0.10207227
               3.98195598                2.99998651               50.05027401                0.01000278               -0.36964734               -0.19077108                0.13447944                1.28621763               -0.06647240                0.06500107
               4.97793118                3.00694163               50.05170737                0.01000000               -0.44086047               -0.27292601                0.14105897                1.60934856               -0.09711813                0.05807061
               5.97313877                3.01578440               50.05282211                0.01000001               -0.48315796               -0.35281484                0.13881277                1.67630572               -0.12765547                0.09835069
               6.96826803                3.02362559               50.05378954                0.01000001               -0.73999328               -0.49385224                0.13142645                1.74546809               -0.17799548                0.20498739
               7.95833891                3.03162021               50.05396377                0.01000001               -0.51552410               -0.34797902                0.12217074                1.39239857               -0.12520123                0.19508148
               8.95795754                3.03389587               50.05618890                0.01000000               -0.03944776               -0.41739776                0.13140421                1.05399113               -0.01208783                0.15922958
               9.95754995                3.03619080               50.05863892                0.99999999               -0.04075920               -0.92765411                0.13975932                1.24070920               -0.00140088                0.12935626
              -0.00422355                4.00452624               50.04446484                0.01000000               -0.00372364               -0.02627086                0.08904142                0.21834471               -0.01752405                0.20852978
               0.99573921                3.99639012               50.04677430                0.01000000               -0.01282452               -0.33361845                0.10316788                0.50185291               -0.05770046                0.23781583
               1.99551996                3.99282782               50.04853234                0.01000000               -0.08698348               -0.35468921                0.11659342                0.93119199               -0.09507164                0.17657629
               2.99399954                3.99339310               50.05005243                0.01000000               -0.21515332               -0.31752540                0.12682930                1.26284694               -0.08899774                0.10559008
               3.99121689                3.99736289               50.05152068                0.01000000               -0.31660513               -0.30979542                0.13656945                1.58284961               -0.06931145                0.06312833
               4.98766744                4.00393530               50.05296863                0.01000001               -0.36452595               -0.33745149                0.14265096                1.80353208               -0.06064675                0.07326986
               5.98392637                4.01178616               50.05436403                0.01000001               -0.38202277               -0.41491026                0.14466177                1.94835472               -0.06516957                0.13058460
               6.98002698                4.01981598               50.05564473                0.01000003               -0.28656750               -0.48072826                0.14400232                1.94204849               -0.06129651                0.21422376
               7.97819502                4.02501497               50.05709233                0.01000001               -0.16309779               -0.67725430                0.14509208                2.02958742               -0.03686222                0.32880185
               8.97676503                4.02593019               50.05876864                0.01000000                0.09495435               -0.81300618                0.14946456                1.43820065               -0.01703203                0.31616669
               9.98009411                4.01804811               50.06056729                0.01000003                0.33290812               -1.32307984                0.15899229                1.08882694                0.00232953                0.23602266
               0.00865677                5.00339502               50.04640227                0.01000003                0.07014870               -0.40209369                0.09381976                0.60801063               -0.07138616                0.25145987
               1.00935826                4.99211171               50.04890253                0.01000000                0.00071091               -0.47356901                0.11100062                0.99300184               -0.15237672                0.32853714
               2.00867099                4.98883735               50.05029232                0.01000001               -0.16561340               -0.36340039                0.11843028                1.30318691               -0.17991376                0.17558382
               3.00604599                4.98977182               50.05146044                0.01000000               -0.28001061               -0.39376413                0.13051589                1.57385101               -0.10424004                0.05938361
               4.00307078                4.99379060               50.05277055                0.01000001               -0.32337136               -0.36652711                0.13896888                1.76631717               -0.04109933                0.03578995
               4.99957856                5.00019260               50.05436210                0.01000001               -0.34227988               -0.37845532                0.14575776                1.89876561                0.00416333                0.06275474
               5.99622518                5.00748620               50.05614875                0.01000002               -0.28491925               -0.43265487                0.15037229                1.89759886                0.03219668                0.13320604
               6.99388018                5.01401102               50.05805435                0.01000000               -0.17043673               -0.56063367                0.15400033                1.79387221                0.04728930                0.23088385
               7.99281645                5.01807512               50.05997568                0.01000000               -0.00958786               -0.66996347                0.15864439                1.48592019                0.05066753                0.30729532
               8.99368842                5.01763575               50.06177464                0.01000000                0.11371046               -0.73638452                0.16570181                0.98193733                0.03538387                0.33669357
               9.99509065                5.00972921               50.06325180                0.01000000                0.14022334               -0.58667540                0.17449803                0.47213445                0.02468406                0.28211875
               0.03050328                5.99648437               50.04792627                0.01000002               -0.03463704               -0.56442571                0.01893327                0.80061483               -0.39852941                0.64029777
               1.03015691                5.98691874               50.05110973                0.01000001               -0.32898490               -0.27618367                0.10073855                1.16089708               -0.44730988                0.30352202
               2.02392359                5.98555981               50.05182306                0.01000000               -0.48168008               -0.38785185                0.12065182                1.65379807               -0.21241266                0.00926279
               3.02052331                5.98551782               50.05245785                0.01000001               -0.39005658               -0.38640211                0.13181299                1.63696724               -0.07148366               -0.01981195
               4.01612245                5.99003235               50.05381914                0.01000001               -0.42880780               -0.37737389                0.14153031                1.84882226                0.02763520               -0.02068763
               5.01194716                5.99636619               50.05572152                0.01000002               -0.40312665               -0.33901126                0.14879872                1.83240194                0.10082866                0.02394557
               6.00805992                6.00313306               50.05807140                0.01000000               -0.33158284               -0.37958378                0.15550976                1.68557898                0.15230115                0.11287364
               7.00531550                6.00860331               50.06066800                0.01000000               -0.18856093               -0.47476682                0.16181576                1.39642879                0.17355968                0.22796696
               8.00428870                6.01161570               50.06323232                0.01000000               -0.02829029               -0.57737864                0.16763300                1.03340926                0.15501061                0.33397754
               9.00474969                6.01120250               50.06536540                0.01000000                0.05305879               -0.55763120                0.17474156                0.56801100                0.09487899                0.39453071
              10.00534988                6.00631460               50.06667690                0.01000000                0.06001850               -0.22674186                0.18363290                0.26820141                0.05425266                0.36294275
               0.04380032                6.99210650               50.05151121                0.93783954               -0.02995547               -0.23260477                0.09052724                0.39072352               -0.01241604                0.15355855
               1.04350076                6.98658803               50.05166614                0.87222943               -0.03262185               -0.03318897                0.10921196                0.39306208               -0.01352677               -0.00743949
               2.04314788                6.98108032               50.05180229                0.01000000               -0.45939857               -0.24351392                0.12701306                1.01057557                0.03402161               -0.04542069
               3.03431279                6.98204377               50.05292249                0.01000001               -0.69745144               -0.51991041                0.14108323                1.64465258                0.05685640               -0.09658589
               4.02919885                6.98624312               50.05451393                0.01000000               -0.55934479               -0.29163950                0.14459220                1.73788771                0.12895484               -0.08896134
               5.02312589                6.99341237               50.05690713                0.01000000               -0.57496052               -0.23569299                0.15067710                1.69339911                0.22609429               -0.04169093
               6.01769964                6.99989452               50.05998109                0.01000000               -0.48998925               -0.21329366                0.15984494                1.36338862                0.30290636                0.07004779
               7.01332611                7.00451569               50.06350293                0.01000000               -0.34071010               -0.29063567                0.16802476                0.92661877                0.32718787                0.21656731
               8.01088544                7.00652755               50.06701475                0.01000000               -0.14881825               -0.41289493                0.17429319                0.48472456                0.29144633                0.38805130
               9.01034974                7.00648312               50.06988126                0.01000002               -0.03274778               -0.42218693                0.17981362                0.17799796                0.17783248                0.50341588
              10.01023048                7.00519437               50.07120962                0.01000000               -0.01192621               -0.08173887                0.18688325                0.04456908                0.09476110                0.52706103
               0.04935470                7.99183227               50.05228311                1.00000000               -0.03103530               -0.02791294                0.09380491                0.00066008               -0.00285542                0.01640701
               1.04904434                7.98625496               50.05243653                0.99999999               -0.03376700               -0.03381333                0.11267518                0.00023700               -0.00314398                0.00394553
               2.04867936                7.98068953               50.05258547                0.21385856               -0.03953944               -0.03977512                0.13137640               -0.00059012                0.00210740               -0.00775157
               3.04825355                7.97511961               50.05285519                0.01000001               -0.45838725               -0.36882636                0.16358107                1.15168827                0.09836340               -0.07553233
               4.03951161                7.98419956               50.05490160                0.01000001               -0.80449068               -0.25150449                0.14290653                1.84301647                0.23873450               -0.19388287
               5.03216374                7.99165233               50.05786791                0.01000000               -0.76436172               -0.02091377                0.14993403                1.44988132                0.39604263               -0.13371534
               6.02422438                7.99886719               50.06175812                0.01000000               -0.74744488                0.02338694                0.16609142                1.00488943                0.46918595                0.02383986
               7.01721484                8.00279059               50.06630646                0.01000000               -0.61043092               -0.03605724                0.17426512                0.44767622                0.51623753                0.18214304
               8.01201576                8.00335781               50.07157293                0.01000002               -0.37860036               -0.15204571                0.17858987               -0.07683533                0.48327828                0.37895675
               9.00964284                8.00275876               50.07572726                0.01000001               -0.15984958               -0.28572536                0.18032299               -0.41679687                0.31669544                0.81061420
              10.00881877                8.00467982               50.07784297                0.01000001               -0.08240692               -0.25604636                0.18327375               -0.31102418                0.20088710                0.72966556
               0.05496813                8.99154825               50.05312023                1.00000000               -0.03198882               -0.02889200                0.09698773                0.00065057                0.00293512                0.01624340
               1.05464825                8.98591177               50.05322844                0.99999999               -0.03483503               -0.03487026                0.11613430                0.00011072                0.00306562                0.00318776
               2.05427143                8.98028481               50.05333708                1.00000000               -0.04058619               -0.04083050                0.13555698               -0.00006528               -0.00139346               -0.00573445
               3.05383652                8.97466725               50.05336533                0.01552610               -0.23724872               -0.04619403                0.15517158                0.60763315                0.07010423               -0.02484980
               4.04952646                8.98121303               50.05492207                0.01000000               -0.81903129               -0.02978968                0.10815651                1.36035195                0.58057068               -0.30379692
               5.03745590                8.99299409               50.05878029                0.01000000               -1.14336483                0.25195386                0.17042367                1.04004779                0.61900660               -0.12962443
               6.02665916                9.00036226               50.06334406                0.01000000               -0.98334408                0.21010152                0.17660839                0.54387929                0.58936979                0.00563640
               7.01778901                9.00379454               50.06869860                0.01000002               -0.86392995                0.16039631                0.18178346                0.13281780                0.64074316                0.10920357
               8.00938056                9.00348664               50.07523194                0.01000007               -0.85486129                0.14358955                0.18262300               -0.27947815                0.89952610                0.25586308
               9.00069179                9.00076861               50.08618477                1.00000000               -0.46063438               -0.12569760                0.17552201               -0.58379156                0.55467754                0.53109319
              10.00016788                9.00007344               50.08603549                1.00000000               -0.05239129               -0.25617672                0.17352148               -0.46729841               -0.00041374                0.41699796
               0.06064067                9.99125443               50.05388080                1.00000000               -0.03306758               -0.02938128                0.10044054               -0.00243416                0.01370879                0.01297988
               1.06030999                9.98555756               50.05398752                1.00000000               -0.03590475               -0.03542070                0.11960760               -0.00290131                0.01820048                0.00150833
               2.05992257                9.97987292               50.05417678                0.99999994               -0.04159970               -0.04118947                0.13878377               -0.00297788                0.01840271               -0.00195620
               3.05947800                9.97419573               50.05429057                0.99999998               -0.57653845               -0.04715190                0.15779171                0.75068989                0.16907464               -0.00528295
               4.04839180                9.98360377               50.05750843                0.01000003               -1.28312624                0.23907338                0.17621871                1.01131819                0.74676911               -0.30816653
               5.03381547                9.99669141               50.06063158                0.01000001               -1.20451430                0.36973110                0.19741126                0.60922994                0.53081503               -0.03258928
               6.02430152               10.00306922               50.06482565                0.01000000               -0.85343250                0.27069570                0.19554608                0.22959106                0.53450331                0.01590875
               7.01674682               10.00599852               50.07005321                0.01000001               -0.74246965                0.22039790                0.19195814                0.05379967                0.64224777                0.06463225
               8.00945212               10.00622960               50.07727475                0.01000000               -0.76833099                0.27429591                0.18647105               -0.28052961                0.80288452                0.17822571
               9.00138020               10.00024481               50.08602905                0.99999432               -0.42944883               -0.05238042                0.17346460               -0.26482411                0.44560874                0.00042936
              10.00086315                9.99955629               50.08587975                1.00000000               -0.05170556               -0.05171516                0.17146383                0.00067490                0.00041304               -0.00041313
              -0.02345189                0.00316723               51.04037550                0.99161047               -0.02330820               -0.02178112                0.07145599                0.00242647               -0.00794354                0.00772572
               0.97631503                0.00055127               51.04289346                1.00000000               -0.02514734               -0.02568449                0.08400511                0.00200979               -0.00852826               -0.00142090
               1.97604516               -0.00205404               51.04539990                0.01000000               -0.00823300               -0.02962830                0.09653484                0.07425260               -0.05681237               -0.00363043
               2.97615037               -0.00320364               51.04694828                0.01000000               -0.02693431               -0.01804955                0.18205634                0.05251048               -0.10171827                0.02322096
               3.97550648               -0.00045861               51.04897523                0.01000000               -0.14637331                0.05030290                0.11277884                0.22941923               -0.10277665                0.03685802
               4.97322290                0.00765960               51.05027059                0.01000000               -0.49978650                0.11465367                0.10794477                0.61272210               -0.13539158               -0.01473915
               5.96551075                0.02469004               51.05062917                0.02072745               -0.50639222               -0.02601607                0.07669162                0.67550653                0.06467076               -0.07367455
               6.96309506                0.03084559               51.05406033                0.97274278               -0.13540187               -0.02921162                0.09367457                0.19306167                0.04750081               -0.00113091
               7.96280271                0.03318965               51.05656535                1.00000000               -0.03041880               -0.03169864                0.10164993                0.00123588                0.00177944                0.00008464
               8.96248668                0.03555736               51.05907827                1.00000000               -0.03278222               -0.03407523                0.10960121                0.00124248                0.00196397                0.00115633
               9.96214707                0.03795054               51.06158014                1.00000000               -0.03396161               -0.03657036                0.11759169                0.00001556                0.00190189                0.00304799
              -0.02081166                1.00294942               51.04075803                1.00000000               -0.02425770               -0.02219999                0.07458052                0.00053126                0.00131870                0.00816466
               0.97894576                1.00029442               51.04327691                0.12827008               -0.02615969               -0.02623141                0.08714398                0.00009257                0.00413268               -0.00431035
               1.97866514                0.99764968               51.04585340                0.01000000               -0.15339996               -0.02991542                0.09988931                0.07943414               -0.04654891               -0.03604849
               2.97587776                0.99661587               51.04735564                0.01000001               -0.31480466               -0.00332285                0.17592111                0.22712921               -0.14750974                0.06657190
               3.97236905                1.00004442               51.04972387                0.01000000               -0.45509808                0.04435918                0.12537629                0.52947093               -0.06075897                0.01041615
               4.96677580                1.00880614               51.05115293                0.01000000               -0.58481159                0.04648083                0.13820527                1.00464541               -0.11724099               -0.02545711
               5.96067282                1.02442988               51.05154151                0.01000001               -0.29999642               -0.32265859                0.14472932                1.04480257               -0.11207818               -0.02709456
               6.96077587                1.03055348               51.05353820                0.95696451               -0.01068154               -0.03037014                0.10152879                0.19146073               -0.02494764               -0.00116705
               7.96045919                1.03287266               51.05604586                0.99999999               -0.03286065               -0.03285746                0.10952507                0.00002636                0.00056701                0.00020886
               8.96011866                1.03521660               51.05855624                0.99999999               -0.03525769               -0.03524924                0.11751961                0.00001319                0.00036708                0.00170231
               9.95975403                1.03758484               51.06106018                0.99999999               -0.03646240               -0.03774854                0.12552399               -0.00119972                0.00017230                0.00458655
              -0.01813127                2.00272323               51.04115231                0.01000000               -0.02521078                0.04178710                0.07779677                0.05518837                0.00323210                0.09744685
               0.98161662                2.00002664               51.04360095                0.01000000               -0.02781614               -0.08127950                0.09016157                0.04404657               -0.01676835                0.07738266
               1.98131240                1.99734765               51.04565224                0.01000001               -0.16592016               -0.09351204                0.04378853                0.13231372                0.01147308                0.06647880
               2.97829821                1.99672990               51.04838956                0.01000000               -0.37033898               -0.04517979                0.13653062                0.50505920                0.00705494                0.08190144
               3.97390562                2.00042857               51.05053776                0.01000000               -0.46839318               -0.03406706                0.13781830                0.95888167               -0.05181764                0.01403066
               4.96893035                2.00858922               51.05204672                0.01000001               -0.46230811               -0.12863111                0.14023648                1.33400454               -0.09283954               -0.00242738
               5.96465946                2.01823687               51.05319553                0.01000000               -0.52244308               -0.45271840                0.13969940                1.58741626               -0.19235083                0.05033990
               6.95848149                2.03023819               51.05301709                0.01000000               -0.32596759               -0.33940308                0.10936022                0.96923555               -0.13458860                0.12937710
               7.95814011                2.03253250               51.05552743                0.23019252               -0.03533628               -0.03504979                0.11740244                0.00002288               -0.00052661                0.00952004
               8.95777476                2.03485237               51.05804071                0.99999999               -0.03767559               -0.03755593                0.12546386                0.00008408               -0.00029456                0.00130560
               9.95738660                2.03719557               51.06056332                0.99999999               -0.03881663               -0.04013287                0.13346402               -0.00117965               -0.00004640                0.00470291
              -0.01431472                3.00378516               51.04332478                0.01000005               -0.04830173                0.10036688                0.08057741                0.05537248               -0.00867680                0.19311336
               0.98520227                2.99866883               51.04561780                0.01000001               -0.05385657               -0.16567770                0.08718578                0.17143440               -0.02658581                0.18646195
               1.98460815                2.99577944               51.04773352                0.01000000               -0.11521198               -0.22572073                0.11127219                0.42843784               -0.04536355                0.16671788
               2.98289803                2.99571227               51.04978231                0.01000000               -0.24603916               -0.18822410                0.11833012                0.84103757               -0.04853013                0.09338161
               3.97968737                2.99936308               51.05161344                0.01000592               -0.36252152               -0.18766489                0.13286571                1.28093428               -0.06306659                0.04178037
               4.97564760                3.00623352               51.05312475                0.01000000               -0.44575985               -0.26635974                0.13929604                1.63334846               -0.09921574                0.03525024
               5.97077217                3.01537551               51.05421787                0.01000001               -0.48913229               -0.34402873                0.13784073                1.73763809               -0.14072427                0.08040137
               6.96586495                3.02376541               51.05511414                0.01000001               -0.74633543               -0.52306747                0.13288504                1.81572337               -0.19578781                0.21272657
               7.95584546                3.03217166               51.05519928                0.01000000               -0.52038442               -0.36384915                0.12495837                1.43946456               -0.13337942                0.20320147
               8.95545726                3.03446549               51.05751308                0.01000000               -0.04007134               -0.43117652                0.13344238                1.08361673               -0.01175090                0.16548355
               9.95504404                3.03678218               51.06004468                0.99999998               -0.04132256               -0.95549332                0.14139961                1.27607873               -0.00142600                0.13598989
              -0.00679117                4.00473057               51.04533085                0.01000000               -0.01578025                0.03617366                0.08437679                0.19628142               -0.01672848                0.21190293
               0.99305103                3.99671309               51.04769903                0.01000000               -0.01855537               -0.25199877                0.08551715                0.43180582               -0.05031915                0.22635380
               1.99283772                3.99283324               51.04962096                0.01000000               -0.07578492               -0.33724161                0.09937053                0.85030457               -0.08430904                0.16277975
               2.99153533                3.99296542               51.05126746                0.01000150               -0.19173300               -0.33030013                0.11804241                1.23117246               -0.08215528                0.09000808
               3.98900306                3.99667527               51.05286324                0.01000000               -0.29752205               -0.32110741                0.13110281                1.58741922               -0.06674287                0.04973500
               4.98558489                4.00326202               51.05438899                0.01000001               -0.35613689               -0.34282375                0.14019593                1.84510335               -0.06459401                0.06034817
               5.98188032                4.01135629               51.05581525                0.01000001               -0.37925429               -0.42347115                0.14436079                2.01937641               -0.07404402                0.12393486
               6.97799980                4.01977684               51.05709565                0.01001408               -0.28254973               -0.50017871                0.14565798                2.02096116               -0.07046253                0.21668591
               7.97622933                4.02525551               51.05856749                0.01000468               -0.15816116               -0.70491108                0.14918346                2.09978871               -0.04246700                0.34004957
               8.97483658                4.02622884               51.06029037                0.01000000                0.10227231               -0.83962376                0.15463879                1.48534709               -0.01796528                0.32466687
               9.97827478                4.01808571               51.06217948                0.01000003                0.34381975               -1.36561678                0.16447695                1.12340302                0.00149124                0.25032984
               0.00564587                5.00450863               51.04731425                0.01000003                0.00898352               -0.14987741                0.07955529                0.33864450               -0.05349430                0.22116128
               1.00573571                4.99362886               51.04978575                0.01000000               -0.01419842               -0.32757468                0.06791446                0.71416352               -0.12889385                0.27217381
               2.00536191                4.98903461               51.05130154                0.01000001               -0.10281344               -0.40619490                0.09206886                1.18185025               -0.14943329                0.14905186
               3.00367944                4.98910627               51.05267432                0.01000000               -0.21113771               -0.42063337                0.11520051                1.55478881               -0.08924311                0.05052585
               4.00113915                4.99294093               51.05413246                0.01000001               -0.29053974               -0.38970916                0.13393023                1.79788864               -0.03810248                0.02767738
               4.99786865                4.99937704               51.05581758                0.01000001               -0.32471343               -0.40002191                0.14505666                1.95746762                0.00103216                0.05627148
               5.99464488                5.00690609               51.05766406                0.01000001               -0.27418477               -0.45355381                0.15210043                1.97808240                0.02596800                0.13064445
               6.99238495                5.01376184               51.05961093                0.01001332               -0.16278234               -0.58270989                0.15713004                1.87927768                0.04031911                0.23325659
               7.99138924                5.01807344               51.06158212                0.01000000               -0.00254704               -0.69205676                0.16260393                1.55621962                0.04358701                0.31537402
               8.99233401                5.01767301               51.06345874                0.01000000                0.12045642               -0.75774671                0.17062319                1.02439998                0.03057246                0.34396750
               9.99379836                5.00946985               51.06503357                0.01000000                0.14643548               -0.60733351                0.18175545                0.49233919                0.02124516                0.29076648
               0.02174127                6.00173302               51.04818688                0.01000001                0.10670532               -0.65314817                0.10712608                0.73188369               -0.22664977                0.50919176
               1.02280832                5.99016159               51.05141915                0.01000001               -0.03719769               -0.38981736                0.04034655                1.01827121               -0.23781979                0.28029193
               2.02099732                5.98470934               51.05278467                0.01000000               -0.20417704               -0.44033879                0.08257067                1.58965721               -0.13817491                0.01766158
               3.01872478                5.98455276               51.05371834                0.01000001               -0.31536279               -0.41217292                0.12320993                1.69625843               -0.05515364               -0.01868900
               4.01469006                5.98888109               51.05522389                0.01000001               -0.39778505               -0.41102404                0.14078179                1.90000732                0.02861397               -0.02514572
               5.01076908                5.99526159               51.05722532                0.01000001               -0.38164439               -0.37752333                0.15240195                1.90699261                0.09785297                0.01928799
               6.00705717                6.00228521               51.05965378                0.01000340               -0.31755416               -0.41150451                0.16091043                1.78071339                0.14776305                0.11202808
               7.00441800                6.00812264               51.06231308                0.01000000               -0.18073103               -0.49698748                0.16705721                1.48955361                0.16724585                0.23176599
               8.00344255                6.01141438               51.06493276                0.01000000               -0.02449134               -0.59286094                0.17235811                1.10679618                0.14952738                0.33951585
               9.00392817                6.01107391               51.06713977                0.01000000                0.05426658               -0.56763940                0.17987480                0.60912396                0.09148785                0.39826597
              10.00452788                6.00593904               51.06855168                0.01000000                0.05997122               -0.23047598                0.19121334                0.28707050                0.05170567                0.36465109
               0.04342640                6.99144567               51.05241435                0.93715891               -0.03015907               -0.52795694                0.09011639                0.80547855               -0.01263266                0.18390056
               1.04312481                6.98583251               51.05276654                0.84986743               -0.03312576               -0.23330721                0.11086528                0.73702671               -0.01424910                0.03044739
               2.04276389                6.98022783               51.05309048                0.01000000               -0.48459756               -0.24411247                0.13053617                1.12144192                0.02927172               -0.03026837
               3.03343286                6.98086281               51.05432861                0.01000001               -0.71667094               -0.51999000                0.14001283                1.68630941                0.05194332               -0.08175192
               4.02843047                6.98472045               51.05598353                0.01000783               -0.54142428               -0.34847296                0.14929591                1.77939864                0.12126575               -0.09754252
               5.02260437                6.99182658               51.05846699                0.01001672               -0.55161870               -0.30072138                0.16175483                1.79287753                0.22359707               -0.04795121
               6.01739809                6.99867600               51.06163098                0.01000000               -0.47787575               -0.24764344                0.17059567                1.48013586                0.29949121                0.07118367
               7.01304686                7.00382209               51.06522538                0.01000000               -0.34120993               -0.30764580                0.17627974                1.02845658                0.32245304                0.22092942
               8.01057390                7.00621622               51.06878828                0.01000000               -0.15275143               -0.41944042                0.18006340                0.55863804                0.28595123                0.39248905
               9.00999183                7.00632022               51.07170329                0.01000002               -0.03821901               -0.41887445                0.18459894                0.21800445                0.17375481                0.50434161
              10.00980952                7.00486033               51.07311065                0.01000000               -0.01823155               -0.07006340                0.19352928                0.06144096                0.09211152                0.52272162
               0.04907716                7.99117388               51.05321648                1.00000000               -0.03104633               -0.02758705                0.09284118                0.00050984               -0.00304271                0.01608331
               1.04876670                7.98549545               51.05356836                0.99999999               -0.03406523               -0.03409549                0.11365837                0.00017389               -0.00341512                0.00386182
               2.04839586                7.97982709               51.05391289                0.22819497               -0.04041713               -0.04063811                0.13416207               -0.00059649                0.00388827               -0.00702531
               3.04795835                7.97415296               51.05442242                0.01000000               -0.45407940               -0.35876631                0.15680020                1.11510520                0.08592246               -0.06770170
               4.03931427                7.98191163               51.05642887                0.01001546               -0.76436352               -0.39948351                0.15973961                1.93374280                0.23110561               -0.22113538
               5.03267108                7.98924716               51.05948192                0.01000000               -0.73249467               -0.08663560                0.17318335                1.60303193                0.38704746               -0.12475008
               6.02466437                7.99733235               51.06350590                0.01000000               -0.76120909                0.00473414                0.18257725                1.14329207                0.46359447                0.02631499
               7.01744690                8.00196973               51.06810707                0.01000000               -0.62735961               -0.04285894                0.18513885                0.54372179                0.50978234                0.18663542
               8.01211718                8.00302557               51.07339176                0.01000002               -0.39013733               -0.15184508                0.18498915               -0.01119188                0.47696743                0.38356570
               9.00964416                8.00269642               51.07755592                0.01000000               -0.17203454               -0.26906370                0.18473103               -0.38164349                0.31154953                0.80668615
              10.00867649                8.00453777               51.07970751                0.01000001               -0.09676647               -0.23125222                0.18849879               -0.29019134                0.19706004                0.71755588
               0.05479346                8.99089393               51.05408275                1.00000000               -0.03183862               -0.02839993                0.09547362                0.00056321                0.00294156                0.01599066
               1.05447508                8.98515060               51.05439190                0.99999999               -0.03495070               -0.03495951                0.11650690                0.00011720                0.00320829                0.00314281
               2.05409445                8.97941507               51.05470302                1.00000000               -0.04123263               -0.04148004                0.13768044               -0.00002982               -0.00100083               -0.00536646
               3.05365042                8.97368748               51.05493556                0.01951882               -0.10416640               -0.04743485                0.15900927                0.43815644                0.04687902               -0.02607132
               4.05201112                8.97673078               51.05622272                0.01000000               -0.72030628               -0.20671560                0.15828939                1.46352137                0.42351586               -0.29141336
               5.03924430                8.99009386               51.06073506                0.01000000               -1.22348773                0.24682932                0.20424299                1.22819758                0.58586964               -0.13501571
               6.02754137                8.99877068               51.06521689                0.01000000               -1.05081138                0.21435699                0.19321772                0.65139761                0.56700066                0.00691142
               7.01822807                9.00296491               51.07057613                0.01000002               -0.89590002                0.16324598                0.19304964                0.19238360                0.62897959                0.11312314
               8.00962337                9.00317932               51.07709343                0.01000007               -0.86906545                0.14600834                0.18886850               -0.23370957                0.88883921                0.25889240
               9.00084676                9.00093895               51.08793981                1.00000000               -0.46501897               -0.11406559                0.17549011               -0.55222109                0.55035493                0.52842203
              10.00032299                9.00023528               51.08777045                1.00000000               -0.05237752               -0.24098027                0.17346968               -0.45286240               -0.00041823                0.41152134
               0.06057508                9.99060588               51.05487474                1.00000000               -0.03271795               -0.02880474                0.09831662               -0.00280056                0.01369704                0.01286363
               1.06024790                9.98479626               51.05518273                0.99999999               -0.03583519               -0.03543432                0.11940644               -0.00313700                0.01819595                0.00149771
               2.05985838                9.97899749               51.05557350                0.99999999               -0.04210633               -0.04175772                0.14054004               -0.00320711                0.01830245               -0.00192115
               3.05940578                9.97320426               51.05588787                0.98489531               -0.38400308               -0.04832248                0.16159632                0.51452654                0.17781617               -0.00530205
               4.05217832                9.97777732               51.05948504                0.01002618               -1.21053201                0.10465426                0.22959525                1.06569377                0.65312918               -0.26198202
               5.03519513                9.99418374               51.06276478                0.01000001               -1.36785189                0.40898813                0.20133741                0.78719196                0.47446057               -0.07135207
               6.02482128               10.00161949               51.06684966                0.01000000               -0.91546018                0.28488077                0.20347086                0.28053625                0.49425959                0.01485346
               7.01688593               10.00523465               51.07201453                0.01000001               -0.76761615                0.22697342                0.19734497                0.08209860                0.61970214                0.06666120
               8.00946895               10.00594574               51.07916108                0.01000000               -0.76710795                0.27664153                0.18976354               -0.25641810                0.78565681                0.17769393
               9.00154377               10.00041511               51.08776396                0.99999999               -0.42211913               -0.05238418                0.17351833               -0.24167761                0.43904166                0.00043005
              10.00102657                9.99971816               51.08759459                1.00000000               -0.05172000               -0.05171201                0.17149791                0.00066430                0.00041520               -0.00041487
              -0.02611270                0.00284678               52.04109171                0.99183617               -0.02329898               -0.02193692                0.07178993                0.00239368               -0.00804356                0.00775652
               0.97365431                0.00013774               52.04373166                1.00000000               -0.02503063               -0.02561208                0.08360879                0.00189691               -0.00860818               -0.00149070
               1.97338669               -0.00255978               52.04636003                0.01152074               -0.00463049               -0.02927571                0.09540431                0.07335074               -0.03501540               -0.00362617
               2.97356170               -0.00381569               52.04846707                0.01000000               -0.01102444               -0.00232124                0.12283470                0.08649721               -0.06601857               -0.01560331
               3.97316620               -0.00110881               52.05011361                0.01000000               -0.11662413                0.03794992                0.11693603                0.20818249               -0.07908126                0.01116469
               4.97122922                0.00637498               52.05138553                0.01000000               -0.42897173                0.10217315                0.11492914                0.54445428               -0.10982148               -0.01899531
               5.96458677                0.02240410               52.05145486                0.01542767               -0.53336955               -0.00908220                0.10911554                0.64285817                0.14424385               -0.14862463
               6.96056183                0.03131707               52.05499558                0.97222966               -0.21577108               -0.02930068                0.09338618                0.33055757                0.04905530               -0.00112995
               7.96027135                0.03367050               52.05757777                1.00000000               -0.03015209               -0.03162993                0.10083983                0.00116120                0.00169834                0.00006564
               8.95995879                0.03605134               52.06016763                1.00000000               -0.03236206               -0.03385278                0.10826807                0.00117767                0.00189821                0.00114963
               9.95962410                0.03846125               52.06274691                1.00000000               -0.03346837               -0.03618202                0.11575374               -0.00023330                0.00186130                0.00302904
              -0.02337972                1.00262741               52.04150721                1.00000000               -0.02437217               -0.02241889                0.07526281                0.00062231                0.00134859                0.00821785
               0.97637656                0.99988162               52.04414812                0.01000000               -0.02616855               -0.02623173                0.08712273                0.00013943                0.00416924               -0.00443042
               1.97609691                0.99714747               52.04684757                0.01000000               -0.13376856               -0.00770130                0.09905395                0.10089980               -0.02400338               -0.08625244
               2.97370119                0.99616110               52.04892280                0.01000001               -0.29721117               -0.00048575                0.13916130                0.20821444               -0.02728276                0.02220328
               3.97015269                0.99927069               52.05098086                0.01000000               -0.43919392                0.03390802                0.12563018                0.48438742               -0.02842391               -0.00146911
               4.96491731                1.00739672               52.05257441                0.01000000               -0.58041903                0.04992296                0.13555368                0.92885821               -0.04814733               -0.05586489
               5.95854431                1.02231328               52.05310234                0.01000001               -0.33415544               -0.26155989                0.15759804                1.06536998               -0.03421360               -0.12217730
               6.95823420                1.03102406               52.05455760                0.95171702               -0.03142427               -0.03062198                0.10234959                0.32044246               -0.05589024               -0.00118045
               7.95791582                1.03335420               52.05714266                0.99999999               -0.03295066               -0.03294882                0.10983069                0.00002914                0.00056487                0.00018636
               8.95757519                1.03571281               52.05973049                0.99999999               -0.03519842               -0.03519571                0.11732694                0.00002266                0.00037701                0.00170465
               9.95721185                1.03809943               52.06231203                0.99999999               -0.03633354               -0.03752519                0.12484211               -0.00136080                0.00018708                0.00458794
              -0.02060866                2.00239840               52.04193509                0.01000001               -0.02542911                0.04883752                0.07876085                0.05335926                0.00327187                0.09609991
               0.97913705                1.99961310               52.04450443                0.01000000               -0.01330663               -0.07331919                0.09058552                0.05967757               -0.06682046                0.07231991
               1.97912521                1.99728620               52.04567626                0.01000001               -0.17671414               -0.09253461                0.12481052                0.12214579               -0.05232892                0.02994587
               2.97560277                1.99617459               52.05000717                0.01000000               -0.37534379               -0.05245216                0.13311784                0.45277847                0.03458590                0.03666672
               3.97161833                1.99956935               52.05187622                0.01000000               -0.44194816               -0.03870274                0.12899350                0.91991852               -0.05188545               -0.00038225
               4.96676380                2.00737344               52.05343971                0.01000001               -0.46757535               -0.10461783                0.13170280                1.30143389               -0.07095700               -0.04335819
               5.96226682                2.01717290               52.05458777                0.01000000               -0.54170255               -0.37702864                0.12989265                1.65608872               -0.20996487                0.00365067
               6.95592975                2.03070463               52.05412039                0.01000000               -0.33418219               -0.36112490                0.11128072                1.04876365               -0.15284311                0.13665278
               7.95558318                2.03301153               52.05670863                0.24185145               -0.03578695               -0.03550127                0.11882211               -0.00003261               -0.00042870                0.00941354
               8.95521401                2.03534742               52.05930004                0.99999995               -0.03797703               -0.03784615                0.12639934                0.00005797               -0.00023408                0.00132623
               9.95482364                2.03771075               52.06190038                0.99999999               -0.03903730               -0.04024968                0.13394402               -0.00134873               -0.00002148                0.00474510
              -0.01674193                3.00360416               52.04411359                0.01000005               -0.05757495                0.11882152                0.07936930                0.04681597               -0.01158880                0.18798913
               0.98268232                2.99841523               52.04645698                0.01000001               -0.06398659               -0.14319260                0.08713817                0.14991382               -0.01201904                0.17050775
               1.98197834                2.99529677               52.04897009                0.01000000               -0.11043582               -0.23854069                0.10372456                0.39184782               -0.02665621                0.17863036
               2.98047360                2.99511205               52.05092296                0.01000000               -0.23130638               -0.19366706                0.11677454                0.83556284               -0.05178724                0.04226940
               3.97735221                2.99849664               52.05293133                0.01000930               -0.35655795               -0.18653893                0.12581971                1.26672425               -0.05530082                0.01905710
               4.97334244                3.00530436               52.05449329                0.01000000               -0.45086546               -0.24620087                0.13151974                1.64679040               -0.10015268                0.01679733
               5.96833490                3.01477270               52.05557892                0.01000001               -0.49857973               -0.31771184                0.13235998                1.79846005               -0.14847590                0.06814776
               6.96337085                3.02380156               52.05644724                0.01000001               -0.75312621               -0.55258573                0.13315123                1.89036070               -0.20931239                0.22126606
               7.95327238                3.03264418               52.05646293                0.01000000               -0.52468614               -0.37891988                0.12797563                1.48610542               -0.14057572                0.21109825
               8.95287713                3.03495588               52.05885775                0.01000000               -0.04070755               -0.44347761                0.13549773                1.11149893               -0.01163789                0.17255031
               9.95245823                3.03729444               52.06146691                0.99999997               -0.04189016               -0.98224626                0.14305441                1.30995841               -0.00148590                0.14455367
              -0.00929448                4.00477483               52.04615238                0.01000000               -0.02628035                0.06790276                0.08226187                0.16673242               -0.01288943                0.18809189
               0.99044271                3.99674925               52.04848465                0.01000000               -0.02200870               -0.22900846                0.07878887                0.39256570               -0.03201973                0.17340638
               1.99026534                3.99251538               52.05051975                0.01000000               -0.06642776               -0.33210449                0.09223962                0.81837073               -0.05236236                0.11161247
               2.98911416                3.99230125               52.05241327                0.01000358               -0.17524165               -0.33903000                0.11105217                1.21398995               -0.05498465                0.06675601
               3.98676051                3.99583857               52.05414273                0.01000000               -0.28453062               -0.32565698                0.12540732                1.59807138               -0.05702870                0.03619238
               4.98342355                4.00244943               52.05577255                0.01000001               -0.35108432               -0.34113319                0.13546231                1.88526260               -0.06364043                0.05426033
               5.97973882                4.01081866               52.05725125                0.01000001               -0.37790278               -0.42560729                0.14184108                2.09098911               -0.07958310                0.12456099
               6.97586549                4.01965291               52.05855789                0.01000606               -0.27939291               -0.51714164                0.14613473                2.10060560               -0.07760430                0.22268564
               7.97415097                4.02543313               52.06007600                0.01000001               -0.15358800               -0.73134185                0.15188098                2.16964763               -0.04892570                0.35406353
               8.97279373                4.02647787               52.06186142                0.01000000                0.10973671               -0.86450936                0.15907212                1.53019971               -0.02132223                0.33780354
               9.97634570                4.01806582               52.06385683                0.01000000                0.35519692               -1.40610491                0.17085886                1.15417950               -0.00026651                0.26710611
               0.00264388                5.00496222               52.04799337                0.01000003                0.01492013               -0.16033694                0.08640651                0.32729600               -0.02850194                0.20530831
               1.00279308                4.99383506               52.05026082                0.01000000                0.00749334               -0.36027307                0.06446330                0.70262385               -0.04732548                0.15692214
               2.00279375                4.98865468               52.05213370                0.01000001               -0.06814371               -0.41956419                0.08581311                1.15459703               -0.06015035                0.09413186
               3.00143021                4.98833145               52.05376445                0.01000000               -0.18141432               -0.44057549                0.11011522                1.55978362               -0.05070316                0.04180192
               3.99916546                4.99198350               52.05544916                0.01000001               -0.26813007               -0.40801026                0.13081928                1.82887464               -0.02259013                0.02715547
               4.99606761                4.99848170               52.05726324                0.01000001               -0.31071331               -0.41734400                0.14391616                2.01639190                0.00254766                0.06001327
               5.99295120                5.00626056               52.05919076                0.01000001               -0.26495564               -0.47059823                0.15237880                2.05828132                0.02101563                0.13782480
               6.99076850                5.01345873               52.06119695                0.01000888               -0.15554127               -0.60143668                0.15869936                1.96363662                0.03314764                0.24150236
               7.98984037                5.01801734               52.06322776                0.01000000                0.00399652               -0.71166332                0.16539612                1.62542827                0.03633700                0.32525918
               8.99084843                5.01766570               52.06518711                0.01000000                0.12627673               -0.77772972                0.17476694                1.06608994                0.02589743                0.35300712
               9.99236591                5.00917234               52.06688690                0.01000000                0.15174802               -0.62676411                0.18894447                0.51138769                0.01798247                0.30150176
               0.01950574                6.00156810               52.05006880                0.01000003                0.12969804               -0.71036518                0.15615399                0.80753987               -0.00598626                0.24477264
               1.02080272                5.98954379               52.05191666                0.01000001               -0.03224250               -0.43936441                0.07490831                1.11512856               -0.00490167                0.11841534
               2.01886089                5.98412410               52.05347448                0.01000000               -0.19108540               -0.46539755                0.08546896                1.66617217               -0.03750682                0.04134477
               3.01698102                5.98348974               52.05492204                0.01000001               -0.28365668               -0.43133997                0.12177979                1.72913352               -0.01154869               -0.00774275
               4.01318776                5.98767837               52.05663478                0.01000001               -0.37533456               -0.44481030                0.14251869                1.94665660                0.03883748               -0.01653269
               5.00947433                5.99410255               52.05876956                0.01000001               -0.36301715               -0.41424785                0.15656570                1.98055510                0.09692200                0.03110514
               6.00592742                6.00140670               52.06128960                0.01000000               -0.30464434               -0.43972404                0.16510028                1.87507540                0.14071311                0.12589708
               7.00338144                6.00762418               52.06400914                0.01000000               -0.17374278               -0.51592224                0.17061074                1.58212690                0.15687884                0.24416551
               8.00245256                6.01119986               52.06667948                0.01000000               -0.02104547               -0.60495058                0.17571512                1.17926384                0.13947062                0.34976553
               9.00296053                6.01092327               52.06896289                0.01000000                0.05538024               -0.57559473                0.18393940                0.64923633                0.08493366                0.40447073
              10.00356017                6.00553054               52.07050117                0.01000000                0.05996373               -0.23396842                0.19823101                0.30533081                0.04763126                0.36824097
               0.04284329                6.99075491               52.05331353                0.93736661               -0.03036399               -0.55412741                0.08973078                0.88350356               -0.01274007                0.13329374
               1.04253965                6.98504778               52.05388345                0.82613797               -0.03360257               -0.24184723                0.11250388                0.80343641               -0.01496087                0.06002865
               2.04217124                6.97934673               52.05441302                0.01000000               -0.50405206               -0.25938051                0.13393080                1.18495183                0.02128516                0.00048863
               3.03245861                6.97970465               52.05572274                0.01000001               -0.73427238               -0.51655557                0.14251042                1.71077789                0.04862393               -0.06238952
               4.02748579                6.98308729               52.05749985                0.01000326               -0.52541138               -0.40703550                0.16033987                1.81892743                0.12001207               -0.08610973
               5.02195038                6.99019674               52.06014222                0.01000829               -0.52773592               -0.36066443                0.17267044                1.88660612                0.21847671               -0.02850411
               6.01693107                6.99746608               52.06339300                0.01000000               -0.46662564               -0.27995613                0.18029674                1.59436223                0.28595815                0.09248186
               7.01261787                7.00314028               52.06702852                0.01000000               -0.34022606               -0.32258156                0.18254209                1.12977210                0.30717122                0.23744855
               8.01012655                7.00591833               52.07061602                0.01000000               -0.15576979               -0.42379477                0.18413284                0.63336082                0.27249883                0.40357987
               9.00950247                7.00615380               52.07357324                0.01000002               -0.04342815               -0.41336560                0.18828167                0.25860975                0.16508996                0.50790237
              10.00925799                7.00449297               52.07508021                0.01000000               -0.02444845               -0.05797026                0.19951161                0.07874803                0.08687855                0.51820571
               0.04859009                7.99048555               52.05413993                1.00000000               -0.03104574               -0.02725579                0.09183478                0.00039856               -0.00318220                0.01578670
               1.04827963                7.98470685               52.05470970                0.99999999               -0.03435194               -0.03437629                0.11460746                0.00017165               -0.00371562                0.00374081
               2.04790305                7.97893649               52.05526871                0.24170081               -0.04118094               -0.04149329                0.13701428               -0.00058482                0.00334874               -0.00629961
               3.04745602                7.97315863               52.05599119                0.01000000               -0.44144141               -0.35121388                0.15874941                1.06984778                0.07960364               -0.05934732
               4.03907422                7.97953766               52.05809639                0.01000001               -0.73141755               -0.53793449                0.16777441                1.92210551                0.21896695               -0.22277122
               5.03282766                7.98688926               52.06133158                0.01000000               -0.71015535               -0.15929070                0.19876119                1.72493262                0.36964711               -0.09334282
               6.02487112                7.99580758               52.06540966                0.01000000               -0.76515182               -0.01546748                0.19513370                1.27551570                0.43930746                0.04942797
               7.01752463                8.00117255               52.07000923                0.01000000               -0.63824291               -0.04953670                0.19364161                0.63952928                0.48843370                0.20396618
               8.01210626                8.00272397               52.07527272                0.01000002               -0.39832732               -0.15115779                0.18967938                0.05752670                0.46084128                0.39428783
               9.00955808                8.00265596               52.07942188                0.01000004               -0.18247353               -0.25123930                0.18742522               -0.34167181                0.30197064                0.80430818
              10.00845679                8.00437114               52.08161295                0.01000001               -0.11012928               -0.20380928                0.19192280               -0.26647101                0.19200912                0.70341899
               0.05440867                8.99020980               52.05502971                1.00000000               -0.03165236               -0.02789153                0.09387513                0.00047225                0.00293058                0.01576199
               1.05409214                8.98436025               52.05555858                0.99999999               -0.03504546               -0.03504976                0.11682493                0.00012902                0.00328505                0.00310625
               2.05370776                8.97851687               52.05609068                1.00000000               -0.04188737               -0.04214851                0.13988853                0.00002769               -0.00079378               -0.00502145
               3.05325440                8.97268038               52.05654551                0.02356941               -0.07552402               -0.04867843                0.16309169                0.27392517                0.04878047               -0.02532175
               4.05219728                8.97232860               52.05808785                0.01000000               -0.65376377               -0.38490831                0.29983215                1.49168989                0.37826372               -0.32736092
               5.04017912                8.98701092               52.06286515                0.01000000               -1.20195889                0.21578304                0.20334087                1.39702600                0.54419112               -0.11868956
               6.02815810                8.99715673               52.06720841                0.01000000               -1.08435277                0.21465851                0.20739971                0.76022335                0.52402415                0.02360238
               7.01849206                9.00214955               52.07255959                0.01000002               -0.91822137                0.16412054                0.20019902                0.25216349                0.60380000                0.12443784
               8.00979367                9.00289517               52.07900931                0.01000000               -0.87350978                0.14621133                0.19307001               -0.18554824                0.86807029                0.26534450
               9.00102187                9.00112902               52.08969458                1.00000000               -0.46477243               -0.10254236                0.17546846               -0.51544736                0.54331311                0.52383085
              10.00049822                9.00041679               52.08950488                0.99999997               -0.05236459               -0.22357080                0.17341397               -0.43355318               -0.00042257                0.40393183
               0.06029863                9.98992772               52.05584713                1.00000000               -0.03234866               -0.02820821                0.09611138               -0.00318998                0.01370443                0.01275323
               1.05997515                9.98400585               52.05637565                1.00000000               -0.03575762               -0.03544004                0.11914884               -0.00340952                0.01826094                0.00151100
               2.05958348                9.97809352               52.05698758                0.99999998               -0.04261813               -0.04233481                0.14225170               -0.00346702                0.01838628               -0.00186433
               3.05912278                9.97218506               52.05752249                0.99999995               -0.25030029               -0.04953135                0.16532978                0.27413756                0.21589983               -0.00541604
               4.05457747                9.97183949               52.06210034                0.01000000               -1.15913616               -0.04891088                0.20931315                1.18901256                0.69859216               -0.21213185
               5.03594006                9.99120492               52.06465833                0.01000001               -1.48202571                0.41939939                0.19762666                0.98915665                0.39641223               -0.08772263
               6.02493696               10.00010075               52.06889507                0.01000000               -0.95553045                0.29440191                0.20074330                0.34038809                0.46076376                0.02572682
               7.01682945               10.00445496               52.07400011                0.01000001               -0.77605661                0.23054082                0.19787222                0.11111106                0.59210085                0.07012038
               8.00941583               10.00564819               52.08107002                0.01000000               -0.75509650                0.27530201                0.19060937               -0.23027648                0.76587205                0.17763531
               9.00172752               10.00060512               52.08949942                0.99999997               -0.41028211               -0.05239012                0.17357609               -0.21685844                0.43138575                0.00043109
              10.00121019                9.99989972               52.08930971                0.99999996               -0.05173354               -0.05170665                0.17152162                0.00065673                0.00041717               -0.00041693
              -0.02889265                0.00249136               53.04181130                0.99243203               -0.02328002               -0.02209663                0.07211555                0.00233095               -0.00812150                0.00772113
               0.97087455               -0.00031147               53.04456564                1.00000000               -0.02489518               -0.02554865                0.08318207                0.00177367               -0.00869659               -0.00149558
               1.97060944               -0.00310164               53.04730799                0.01000001                0.01009336               -0.02899584                0.09422095                0.07430994               -0.04131526               -0.00350945
               2.97107641               -0.00442717               53.04940497                0.01000000                0.01984739               -0.00530036                0.10711209                0.06883169               -0.05531745                0.01187655
               3.97100639               -0.00196981               53.05131395                0.01000000               -0.06955931                0.02222348                0.11394163                0.18071172               -0.06623345                0.00176337
               4.96968523                0.00490193               53.05256918                0.01000000               -0.31104056                0.07327368                0.11432791                0.42023466               -0.08182423               -0.00698091
               5.96478558                0.01842259               53.05281148                0.01025564               -0.58659875                0.04308290                0.14208995                0.66182884                0.18281421               -0.19675921
               6.95795325                0.03169895               53.05592805                0.97179933               -0.35604796               -0.02938931                0.09311441                0.54837847                0.02417270               -0.00110530
               7.95766462                0.03406118               53.05858215                1.00000000               -0.02988735               -0.03156545                0.10004664                0.00108203                0.00159242                0.00004535
               8.95735551                0.03645464               53.06124363                0.99995003               -0.03194407               -0.03363433                0.10694198                0.00111643                0.00178847                0.00113946
               9.95702574                0.03888088               53.06389521                1.00000000               -0.03297666               -0.03577429                0.11390084               -0.00048158                0.00177685                0.00297403
              -0.02606651                1.00227040               53.04226328                0.99999999               -0.02447041               -0.02262571                0.07594360                0.00067171                0.00137309                0.00817902
               0.97368878                0.99943305               53.04501936                0.01000000               -0.02615483               -0.02621752                0.08706278                0.00012493                0.00423810               -0.00443946
               1.97341039                0.99660840               53.04783448                0.01000000               -0.12449846               -0.05371560                0.09819656                0.01202096               -0.01820107               -0.01382416
               2.97119882                0.99551983               53.05013887                0.01000001               -0.26307167               -0.00548738                0.12014479                0.16787891               -0.03924840                0.00481524
               3.96814896                0.99825243               53.05223647                0.01000000               -0.37537203                0.02201324                0.11326056                0.42719152               -0.02064204               -0.01414111
               4.96369137                1.00563467               53.05386400                0.01000000               -0.50717994                0.04506260                0.11156358                0.78577142               -0.00456309               -0.06381673
               5.95800536                1.01885342               53.05469347                0.01000001               -0.40368163               -0.12946491                0.12977354                1.03821425                0.04621910               -0.17562969
               6.95561774                1.03140505               53.05558519                0.94639601               -0.13538823               -0.03086718                0.10316020                0.51213103               -0.08765071               -0.00116696
               7.95529760                1.03374553               53.05824247                0.99999999               -0.03304602               -0.03303434                0.11013582                0.00002547                0.00058977                0.00016475
               8.95495682                1.03611829               53.06090278                0.99999999               -0.03514555               -0.03515003                0.11714628                0.00002194                0.00040387                0.00169050
               9.95459468                1.03852313               53.06355702                1.00000000               -0.03621374               -0.03726408                0.12414697               -0.00152862                0.00020615                0.00457231
              -0.02320451                2.00203885               53.04272753                0.01000242               -0.02564463                0.05286292                0.07976577                0.05419518                0.00335862                0.09455138
               0.97653904                1.99916418               53.04541266                0.01000000               -0.10162039               -0.06671386                0.09091535                0.01008978                0.00569345                0.07025966
               1.97476308                1.99582405               53.04814845                0.01000001               -0.18745358               -0.10499262                0.19386637                0.12487792               -0.05619503               -0.00047611
               2.97278997                1.99546308               53.05105192                0.01000000               -0.26638481               -0.06841357                0.10275382                0.46743177               -0.01154971                0.01696999
               3.96943538                1.99847046               53.05311763                0.01000000               -0.39951526               -0.03873598                0.11358954                0.86010806               -0.03978561               -0.01631388
               4.96479966                2.00580318               53.05468077                0.01000001               -0.48279520               -0.06990256                0.11401882                1.23342046               -0.06701793               -0.05887810
               5.95977948                2.01583329               53.05579338                0.01000000               -0.57479483               -0.23892161                0.10975007                1.65608791               -0.22711541               -0.01593391
               6.95330377                2.03108160               53.05524271                0.01000000               -0.34137946               -0.38259071                0.11314735                1.13720755               -0.16046940                0.14231396
               7.95295189                2.03340049               53.05790387                0.25377015               -0.03627151               -0.03596319                0.12023131               -0.00020597               -0.00024638                0.00966642
               8.95257834                2.03575164               53.06056870                0.99999994               -0.03832005               -0.03815915                0.12735756               -0.00005997               -0.00014993                0.00130827
               9.95218549                2.03813559               53.06324220                0.99999999               -0.03928483               -0.04031648                0.13438154               -0.00153927                0.00001081                0.00482732
              -0.01923327                3.00332766               53.04491216                0.01002422               -0.06613489                0.12868838                0.08143512                0.05166170               -0.00704196                0.18195709
               0.98010538                2.99809877               53.04736056                0.01000001               -0.05788414               -0.13934076                0.09296205                0.13425545               -0.01256834                0.15276683
               1.97960905                2.99450855               53.04980801                0.01000000               -0.11021686               -0.19610856                0.09220774                0.45757795               -0.00895196                0.09615741
               2.97790104                2.99415156               53.05211780                0.01000000               -0.22990126               -0.20020156                0.11384119                0.84959216               -0.03403482                0.02968173
               3.97501102                2.99747771               53.05412983                0.01001242               -0.34520476               -0.17945818                0.11473548                1.25764434               -0.05241262                0.00981563
               4.97099695                3.00423662               53.05575515                0.01000000               -0.45811621               -0.21129517                0.11998405                1.65005911               -0.10143161                0.01646391
               5.96584870                3.01407499               53.05686507                0.01000001               -0.51011284               -0.27988091                0.12466168                1.86202362               -0.15039804                0.07529427
               6.96079469                3.02375324               53.05777716                0.01000001               -0.76126277               -0.58003796                0.13261202                1.96352368               -0.21611846                0.23205248
               7.95062344                3.03302626               53.05775880                0.01000000               -0.52870853               -0.39142685                0.13195643                1.52986340               -0.14602725                0.21807531
               8.95022052                3.03535511               53.06022303                0.01000000               -0.04137293               -0.45480419                0.13762165                1.13707534               -0.01198136                0.17989247
               9.94979598                3.03771680               53.06290577                0.99962200               -0.04245374               -1.00638773                0.14467304                1.34082587               -0.00161320                0.15493115
              -0.01171350                4.00461262               53.04697609                0.01000000               -0.02432424                0.06853610                0.08599722                0.16518532               -0.00669402                0.18192718
               0.98804325                3.99637737               53.04927481                0.01000000               -0.02123244               -0.23817399                0.08463437                0.39163759               -0.01132035                0.14027013
               1.98786185                3.99190188               53.05146576                0.01000000               -0.06152996               -0.32730160                0.09537893                0.80639580               -0.02422884                0.09289351
               2.98681266                3.99145905               53.05348851                0.01000819               -0.16793189               -0.33590110                0.10777122                1.22141462               -0.03381181                0.05167554
               3.98450321                3.99488129               53.05537139                0.01000000               -0.28045449               -0.32428567                0.12082661                1.61478806               -0.04620453                0.03599854
               4.98120357                4.00157728               53.05709823                0.01000001               -0.34999413               -0.33281603                0.12978026                1.92677150               -0.06176777                0.06153428
               5.97750333                4.01023567               53.05865207                0.01000001               -0.37903001               -0.42253817                0.13778779                2.15931743               -0.08277208                0.13557393
               6.97362297                4.01948084               53.06001835                0.01000000               -0.27780209               -0.53063039                0.14521637                2.17762463               -0.08216418                0.23313840
               7.97194729                4.02557196               53.06160511                0.01001602               -0.14968319               -0.75255594                0.15339870                2.23385436               -0.05367520                0.36708425
               8.97062930                4.02665555               53.06347181                0.01000000                0.11656674               -0.88617186                0.16284276                1.57040884               -0.02390880                0.35137667
               9.97427862                4.01800784               53.06559666                0.01000001                0.36493191               -1.44306316                0.17730653                1.18335041               -0.00221403                0.28797931
               0.00054094                5.00469838               53.04904238                0.01000000                0.01079332               -0.16521527                0.10157779                0.34565712               -0.00205968                0.18654639
               1.00064887                4.99333529               53.05107501                0.01000000                0.00571685               -0.37350476                0.08950816                0.72627473               -0.00783746                0.12591723
               2.00065528                4.98796252               53.05301780                0.01000001               -0.06494753               -0.43224776                0.09613279                1.17390972               -0.01750833                0.07649967
               2.99934992                4.98743354               53.05487662                0.01000000               -0.17333594               -0.45097257                0.11395146                1.57751650               -0.01922717                0.04241843
               3.99718856                4.99099199               53.05674885                0.01000001               -0.25859619               -0.41907725                0.13023511                1.86314210               -0.00900341                0.03817142
               4.99417800                4.99758030               53.05869591                0.01000001               -0.30285377               -0.42862895                0.14240530                2.07406793                0.00357998                0.07667387
               5.99113148                5.00562422               53.06071163                0.01000000               -0.25835477               -0.48173808                0.15056375                2.13444320                0.01447818                0.15541117
               6.98901090                5.01314063               53.06278491                0.01000001               -0.15028305               -0.61532311                0.15714836                2.04468277                0.02334029                0.25692398
               7.98812582                5.01797514               53.06489004                0.01000000                0.00909561               -0.72752618                0.16541566                1.69109845                0.02666925                0.33820427
               8.98919281                5.01763167               53.06695408                0.01000000                0.13162990               -0.79391823                0.17766292                1.10281244                0.01989917                0.36327038
               9.99075842                5.00885554               53.06881245                0.01000000                0.15656042               -0.64486446                0.19592479                0.52865344                0.01415115                0.31451649
               0.01792582                6.00130831               53.05130996                0.01000002                0.13787891               -0.73289843                0.11337828                0.83443732                0.00200359                0.22322550
               1.01930461                5.98890727               53.05291732                0.01000001               -0.03420123               -0.45476211                0.10429271                1.15129252                0.00765584                0.12856981
               2.01724180                5.98325692               53.05449405                0.01000000               -0.19855492               -0.47595728                0.10975662                1.71136758                0.00027839                0.05004515
               3.01533351                5.98243960               53.05615394                0.01000001               -0.28112516               -0.44438328                0.12800341                1.76057053                0.01352395                0.01191837
               4.01161929                5.98649975               53.05807427                0.01000001               -0.36404081               -0.47276779                0.14664664                1.98938841                0.04873732                0.01039628
               5.00805269                5.99300470               53.06035663                0.01000000               -0.34937181               -0.44429096                0.15934921                2.05019592                0.09332528                0.05968778
               6.00463186                6.00060091               53.06295579                0.01000001               -0.29434966               -0.46093245                0.16627454                1.96345798                0.12792595                0.15394027
               7.00216570                6.00717438               53.06572529                0.01000000               -0.16768216               -0.52848310                0.17031842                1.66884442                0.14068598                0.26627542
               8.00127821                6.01102143               53.06844706                0.01000000               -0.01802740               -0.61402799                0.17558462                1.24780699                0.12471050                0.36543043
               9.00180515                6.01077719               53.07081856                0.01000000                0.05628720               -0.58061958                0.18547888                0.68628700                0.07545185                0.41298646
              10.00240396                6.00511055               53.07251630                0.01000000                0.05988036               -0.23714360                0.20390609                0.32207260                0.04202703                0.37309412
               0.04203177                6.99004041               53.05420897                0.93839014               -0.03056559               -0.57674362                0.08936728                0.91737193               -0.01278524                0.11483858
               1.04172611                6.98424005               53.05501662                0.80089997               -0.03407355               -0.25060688                0.11413831                0.83309812               -0.01574843                0.06555915
               2.04135030                6.97844337               53.05576910                0.01000000               -0.52038021               -0.26167462                0.13725012                1.21226813                0.01362869                0.01683221
               3.03131851                6.97854587               53.05717882                0.01000001               -0.74695346               -0.51481814                0.14913221                1.72412492                0.05017416               -0.03881882
               4.02641123                6.98153664               53.05919033                0.01000001               -0.51188777               -0.48157743                0.16986929                1.84412680                0.11905599               -0.05650145
               5.02108075                6.98869448               53.06192040                0.01000001               -0.50901336               -0.41736641                0.18222188                1.97834987                0.20368085                0.02120314
               6.01623096                6.99640557               53.06523692                0.01000000               -0.45567408               -0.30477073                0.18481718                1.70087525                0.26220579                0.13124596
               7.01196727                7.00257097               53.06887622                0.01000000               -0.33759030               -0.33282011                0.18444643                1.22379154                0.28223402                0.26568418
               8.00947915                7.00569458               53.07247094                0.01000003               -0.15689169               -0.42516999                0.18471564                0.70457302                0.25193416                0.42113100
               9.00882944                7.00601928               53.07546892                0.01000002               -0.04730039               -0.40579721                0.18923407                0.29781360                0.15234886                0.51412707
              10.00853315                7.00411267               53.07710088                0.01000000               -0.02962903               -0.04645371                0.20342675                0.09586815                0.07971314                0.51363290
               0.04787399                7.98977344               53.05505318                1.00000000               -0.03103779               -0.02692224                0.09081007                0.00029749               -0.00331628                0.01547709
               1.04756361                7.98389513               53.05586050                0.99999999               -0.03463260               -0.03466362                0.11555755                0.00018400               -0.00404285                0.00358163
               2.04718133                7.97802343               53.05665317                0.25402958               -0.04204319               -0.04238031                0.13989143               -0.00052749                0.00224108               -0.00551831
               3.04672274                7.97214324               53.05759741                0.01000000               -0.44140563               -0.34480607                0.16337177                1.00775624                0.07077560               -0.05147745
               4.03835322                7.97686820               53.05978436                0.01000000               -0.69859945               -0.76785129                0.20617886                1.96798295                0.21810079               -0.07297885
               5.03275076                7.98465737               53.06345715                0.01000000               -0.67901767               -0.21505775                0.20822578                1.87820553                0.34137525               -0.03729632
               6.02477287                7.99450550               53.06740857                0.01000000               -0.76991160               -0.03241275                0.20269396                1.39785294                0.39336167                0.09482856
               7.01735252                8.00051798               53.07197990                0.01000003               -0.64257538               -0.05540879                0.19709416                0.72742185                0.45589577                0.23149982
               8.01192136                8.00251803               53.07718535                0.01000002               -0.40045916               -0.15028359                0.19097738                0.12569489                0.43657820                0.41111150
               9.00934334                8.00266124               53.08130442                0.01000002               -0.18934065               -0.23406273                0.18778877               -0.29742703                0.28828700                0.80306353
              10.00813455                8.00418148               53.08354596                0.01000001               -0.12087925               -0.17477574                0.19379176               -0.23993777                0.18560879                0.68686332
               0.05379433                8.98950197               53.05596025                1.00000000               -0.03145288               -0.02736733                0.09220045                0.00038865                0.00290354                0.01552816
               1.05347980                8.98354677               53.05672839                0.99999999               -0.03513443               -0.03513960                0.11713064                0.00014342                0.00332285                0.00307313
               2.05309164                8.97759577               53.05750079                1.00000000               -0.04254687               -0.04285084                0.14215823                0.00004496               -0.00063873               -0.00467764
               3.05262886                8.97164975               53.05819739                0.07454464                0.00825563               -0.05006310                0.16733155                0.02360574                0.16085154               -0.02415212
               4.05325675                8.96617961               53.06221937                0.01000000               -0.58106494               -0.56792413                0.24866736                1.67023370                0.29132547               -0.19125203
               5.04100756                8.98439332               53.06480187                0.01000000               -1.24646711                0.20927851                0.22080707                1.65778000                0.37244806               -0.05546122
               6.02832741                8.99575732               53.06936489                0.01000000               -1.12521962                0.21276043                0.21182402                0.84956883                0.47883607                0.05185046
               7.01850317                9.00146279               53.07458011                0.01000002               -0.92388121                0.16190200                0.20241803                0.30660351                0.56554497                0.14165142
               8.00984979                9.00268891               53.08095483                0.01000000               -0.86428599                0.14294988                0.19414356               -0.13795203                0.84214191                0.27495667
               9.00121745                9.00133803               53.09144918                1.00000000               -0.45779305               -0.09236003                0.17545652               -0.47416534                0.53480101                0.51836434
              10.00069393                9.00061715               53.09123873                1.00000000               -0.05235261               -0.20406562                0.17335417               -0.40809827               -0.00042690                0.39489620
               0.05979214                9.98922609               53.05679697                1.00000000               -0.03194673               -0.02758720                0.09379952               -0.00359391                0.01371096                0.01263884
               1.05947267                9.98319234               53.05756570                0.99999999               -0.03564418               -0.03544321                0.11883409               -0.00369658                0.01834586                0.00154030
               2.05907926                9.97716641               53.05841854                0.99999999               -0.04308303               -0.04293533                0.14393139               -0.00375646                0.01856876               -0.00178864
               3.05861101                9.97114198               53.05919446                0.99999999               -0.00324680               -0.05077710                0.16904460                0.01538021                0.19902666               -0.00553168
               4.05901432                9.96550972               53.06367130                0.01000000               -1.11411830               -0.06698954                0.11232654                1.46080513                0.51830321               -0.24052559
               5.03632865                9.98884294               53.06671731                0.01000001               -1.71597749                0.44496206                0.20389882                1.19465784                0.34159538               -0.02642454
               6.02469477                9.99876071               53.07086453                0.01000000               -0.98878234                0.30033868                0.19421269                0.38238999                0.41660399                0.03177672
               7.01655300               10.00375602               53.07597197                0.01000001               -0.77038433                0.22932257                0.19470184                0.13579915                0.56649709                0.07710528
               8.00928709               10.00537703               53.08297326                0.01000000               -0.73106050                0.26881190                0.18907923               -0.20336889                0.74685064                0.17771624
               9.00193179               10.00081404               53.09123548                0.99999999               -0.39363779               -0.05239840                0.17363790               -0.19240940                0.42406501                0.00043219
              10.00141433               10.00010016               53.09102502                0.99999995               -0.05174611               -0.05169893                0.17153556                0.00065248                0.00041923               -0.00041897
              -0.03178379                0.00209725               54.04253402                0.99328071               -0.02325099               -0.02224790                0.07241310                0.00224953               -0.00814836                0.00769009
               0.96798370               -0.00079963               54.04539530                1.00000000               -0.02475778               -0.02545656                0.08272889                0.00163374               -0.00872205               -0.00150854
               1.96772105               -0.00368294               54.04824445                0.01000000                0.02328485               -0.02865409                0.09303054                0.07691711               -0.03328883               -0.00351307
               2.96844939               -0.00504596               54.05060931                0.01000005                0.04781383               -0.03435871                0.13406080                0.04470184               -0.08394692               -0.01215363
               3.96867733               -0.00291858               54.05239245                0.01000000               -0.01770942                0.01027671                0.09873801                0.16832243               -0.08414897               -0.00661294
               4.96809521                0.00364571               54.05367209                0.01000000               -0.18965770                0.03630721                0.10830321                0.30855921               -0.09406529               -0.00417632
               5.96488417                0.01470493               54.05429666                0.01000002               -0.64102939                0.11138576                0.15826369                0.70308194                0.05020141               -0.08914924
               6.95527462                0.03198069               54.05685787                0.97138480               -0.49482778               -0.02946261                0.09283737                0.74804954               -0.00698649               -0.00109681
               7.95498762                0.03435076               54.05957870                1.00000000               -0.02965621               -0.03149929                0.09928287                0.00099726                0.00147776                0.00005874
               8.95468149                0.03675582               54.06230647                1.00000000               -0.03155692               -0.03342733                0.10563616                0.00103915                0.00161467                0.00113291
               9.95435648                0.03919711               54.06502493                1.00000000               -0.03250136               -0.03532217                0.11204169               -0.00077013                0.00158252                0.00277463
              -0.02886442                1.00187477               54.04302608                1.00000000               -0.02454503               -0.02283490                0.07659785                0.00070563                0.00137850                0.00815498
               0.97089013                0.99894580               54.04588938                0.01000000               -0.02610966               -0.02616342                0.08692641                0.00010214                0.00424851               -0.00444968
               1.97061339                0.99603052               54.04881150                0.01000000               -0.11879494               -0.05069562                0.09724007                0.01528246               -0.01304680                0.00557386
               2.96851423                0.99461045               54.05132570                0.01000001               -0.22993350               -0.02094906                0.11553362                0.15534366               -0.02550008               -0.01242130
               3.96601472                0.99718419               54.05324607                0.01000000               -0.30725924                0.01341445                0.09509315                0.39573843               -0.04946692               -0.01585932
               4.96236905                1.00400879               54.05480569                0.01000000               -0.41336057                0.03295116                0.08844445                0.66435429               -0.05629930               -0.03424355
               5.95774750                1.01581878               54.05569781                0.01000001               -0.47184258               -0.00111478                0.09853465                0.99778422               -0.05186988               -0.06086016
               6.95293219                1.03168607               54.05662080                0.94066073               -0.25687395               -0.03108803                0.10390676                0.67761196               -0.08931960               -0.00114454
               7.95261003                1.03403577               54.05934537                0.99999999               -0.03317402               -0.03311188                0.11048475                0.00000636                0.00071200                0.00017642
               8.95226871                1.03642155               54.06207341                0.99999999               -0.03512663               -0.03512442                0.11703146               -0.00003473                0.00045745                0.00169564
               9.95190749                1.03884389               54.06479497                0.99999995               -0.03612203               -0.03692799                0.12337844               -0.00174792                0.00021276                0.00439056
              -0.02591175                2.00164055               54.04353040                0.01000001               -0.02582561                0.05599879                0.08078409                0.05789818                0.00335369                0.09388547
               0.97382999                1.99867710               54.04632273                0.01000000               -0.08630989               -0.06686910                0.09111049                0.01537887                0.02509617                0.07053265
               1.97236205                1.99530314               54.04955359                0.01000001               -0.17136980               -0.10639484                0.12262963                0.11433143                0.03400763                0.03845217
               2.97040260                1.99453506               54.05206225                0.01000000               -0.25841422               -0.06706778                0.10047704                0.45017071               -0.01662563                0.00654311
               3.96719377                1.99734971               54.05414801                0.01000000               -0.38274493               -0.03724972                0.09999227                0.82107871               -0.04976224               -0.00477225
               4.96274770                2.00430474               54.05572008                0.01000001               -0.50155930               -0.03963044                0.09977962                1.17712278               -0.09356674               -0.01968397
               5.95716258                2.01468263               54.05678277                0.01000000               -0.60689139               -0.11994454                0.09717371                1.63058064               -0.22647021                0.02755304
               6.95060987                2.03135893               54.05638334                0.01000000               -0.34551583               -0.40095467                0.11490143                1.21142259               -0.15589895                0.14619537
               7.95025226                2.03368853               54.05911326                0.26633316               -0.03685922               -0.03656637                0.12169649               -0.00048316                0.00017024                0.01108492
               8.94987268                2.03605333               54.06184719                0.99999997               -0.03877078               -0.03854631                0.12845043               -0.00040830               -0.00001346                0.00131719
               9.94947685                2.03845855               54.06458801                0.99999999               -0.03958374               -0.04026413                0.13462420               -0.00182880                0.00000086                0.00480072
              -0.02177956                3.00299474               54.04574229                0.01000000               -0.06853276                0.13213089                0.08492581                0.05566532                0.00052955                0.18126138
               0.97753511                2.99760842               54.04831622                0.01000001               -0.05891915               -0.14184497                0.09536275                0.14022616               -0.00335273                0.13985371
               1.97704206                2.99390262               54.05081425                0.01000000               -0.10320158               -0.20698445                0.10218899                0.44328482               -0.00983730                0.07866105
               2.97547108                2.99326910               54.05319978                0.01000000               -0.21877207               -0.19795589                0.10653152                0.83331357               -0.02392678                0.03914638
               3.97266661                2.99643919               54.05522604                0.01001618               -0.34462486               -0.17050875                0.10796246                1.24900039               -0.05572788                0.02310438
               4.96857858                3.00321618               54.05689297                0.01000000               -0.46808449               -0.17826926                0.11117827                1.65702530               -0.10491853                0.03918962
               5.96330492                3.01341989               54.05807216                0.01000001               -0.52119165               -0.24995283                0.11880274                1.92257413               -0.14963645                0.10202433
               6.95815475                3.02366697               54.05909948                0.01000001               -0.76994819               -0.60255008                0.13273597                2.02719252               -0.21480200                0.24488671
               7.94790596                3.03330444               54.05910206                0.01000000               -0.53321113               -0.40224799                0.13886150                1.56776931               -0.14959707                0.22428369
               8.94749053                3.03565062               54.06161018                0.01000000               -0.04227356               -0.46394877                0.14005003                1.15927407               -0.01342598                0.18733578
               9.94706049                3.03803860               54.06436038                0.99999997               -0.04300375               -1.02699110                0.14597814                1.36754156               -0.00181685                0.16727098
              -0.01402580                4.00428317               54.04787232                0.01000000               -0.02475585                0.06822664                0.09028016                0.17155240               -0.00241506                0.17821153
               0.98572664                3.99584020               54.05017733                0.01000000               -0.02035642               -0.24487601                0.09385423                0.40030426               -0.00518274                0.12983459
               1.98556707                3.99116346               54.05242733                0.01000000               -0.05971732               -0.33731174                0.10007963                0.81678287               -0.01196591                0.08782880
               2.98453229                3.99057594               54.05456870                0.01001143               -0.16701870               -0.33773542                0.10951905                1.23098132               -0.02417906                0.05567161
               3.98222669                3.99393953               54.05655927                0.01000000               -0.28123939               -0.31975730                0.11819236                1.63314543               -0.04196654                0.05136800
               4.97890750                4.00073935               54.05836816                0.01000001               -0.35317138               -0.32297007                0.12528113                1.96709384               -0.06372774                0.08227395
               5.97516327                4.00968357               54.06000700                0.01000001               -0.38191683               -0.41774126                0.13290478                2.22077040               -0.08655975                0.15540383
               6.97126917                4.01930793               54.06146221                0.01001676               -0.27696343               -0.53883554                0.14195593                2.24310680               -0.08631477                0.24563992
               7.96962400                4.02564357               54.06314397                0.01001528               -0.14725806               -0.76824827                0.15247084                2.28825304               -0.05682551                0.37608663
               8.96832401                4.02677436               54.06511827                0.01000000                0.12138590               -0.90331310                0.16541085                1.60543159               -0.02526700                0.36391597
               9.97205172                4.01791873               54.06740296                0.01000000                0.37277100               -1.47477852                0.18581108                1.20802118               -0.00468012                0.31407360
              -0.00146258                5.00435928               54.05002493                0.01000000                0.01234907               -0.17085776                0.09643437                0.35300765               -0.00129744                0.18488864
               0.99866091                4.99271090               54.05205099                0.01000000                0.00522778               -0.38333101                0.10062866                0.74211096               -0.00088930                0.12658475
               1.99864197                4.98715638               54.05405636                0.01000001               -0.06731403               -0.43948733                0.10792471                1.19331302               -0.00458797                0.08110181
               2.99731463                4.98651439               54.05604347                0.01000000               -0.17379292               -0.45750145                0.11936187                1.60133255               -0.00700522                0.05596566
               3.99516611                4.99004405               54.05805386                0.01000001               -0.25691027               -0.42473598                0.13124317                1.89877538               -0.00432762                0.06057162
               4.99217642                4.99675678               54.06011134                0.01000001               -0.30071791               -0.43337686                0.14039655                2.12864127               -0.00096161                0.10343354
               5.98915175                5.00506507               54.06220203                0.01000627               -0.25597647               -0.48616759                0.14649429                2.20437450                0.00233024                0.18056718
               6.98705689                5.01289026               54.06433992                0.01000000               -0.14735814               -0.62247734                0.15169108                2.11545643                0.00738888                0.27805262
               7.98620459                5.01793948               54.06653607                0.01000000                0.01335539               -0.73579948                0.16019104                1.74618059                0.01244134                0.35261812
               8.98732400                5.01758436               54.06874037                0.01000000                0.13637927               -0.80530976                0.17626362                1.13399381                0.01119124                0.37480075
               9.98893218                5.00854303               54.07080540                0.01000000                0.16081784               -0.66073635                0.20229270                0.54354236                0.00889333                0.33001534
               0.01633110                6.00086601               54.05233636                0.01000000                0.14406500               -0.75254039                0.09945052                0.85250077               -0.00043380                0.20592823
               1.01777175                5.98817358               54.05400251                0.01000001               -0.03506299               -0.46475652                0.10990967                1.17556730                0.00476671                0.13149962
               2.01562984                5.98237371               54.05566961                0.01000000               -0.20502350               -0.48160646                0.12099393                1.74459851                0.00599913                0.06724902
               3.01367128                5.98142591               54.05748211                0.01000001               -0.28350115               -0.45147930                0.13566044                1.78986733                0.02239771                0.03605284
               4.00995982                5.98544482               54.05956771                0.01000001               -0.36059846               -0.48984405                0.14979080                2.03025636                0.05003244                0.04495499
               5.00645931                5.99207181               54.06195655                0.01000300               -0.34212724               -0.46182457                0.15940765                2.11581972                0.08250415                0.10091691
               6.00311727                5.99996022               54.06461510                0.01000001               -0.28777128               -0.47134294                0.16366063                2.04270898                0.10760471                0.19061179
               7.00070388                6.00685838               54.06741551                0.01000000               -0.16318804               -0.53454514                0.16552799                1.74694963                0.11680038                0.29666767
               7.99985351                6.01092758               54.07019117                0.01000000               -0.01517782               -0.61684093                0.17035449                1.30888615                0.10378845                0.38621269
               9.00040033                6.01066816               54.07267247                0.01000003                0.05758538               -0.58169420                0.18281592                0.71859660                0.06262327                0.42427363
              10.00100522                6.00470400               54.07457929                0.01000000                0.06048902               -0.24035336                0.20767968                0.33639128                0.03501800                0.37919907
               0.04097229                6.98930847               54.05510088                0.94014793               -0.03077365               -0.59111009                0.08904395                0.93963070               -0.01277476                0.10726486
               1.04066455                6.98341577               54.05616622                0.77397591               -0.03453410               -0.25534402                0.11577891                0.85214089               -0.01666512                0.06802345
               2.04028161                6.97752426               54.05715802                0.01000000               -0.53118444               -0.26396371                0.14039069                1.23250802                0.00675337                0.02753356
               3.03004087                6.97748480               54.05870539                0.01000001               -0.75781352               -0.51576992                0.15416454                1.73959844                0.04971545               -0.01245343
               4.02512534                6.98024717               54.06089723                0.01000689               -0.50317283               -0.51978864                0.17391073                1.88260847                0.11615044                0.01851731
               5.01997741                6.98752028               54.06378666                0.01000000               -0.49529862               -0.44049805                0.18365584                2.04813444                0.18402517                0.07820830
               6.01521937                6.99563821               54.06708935                0.01000000               -0.44744406               -0.31920225                0.18315140                1.78886981                0.23019095                0.18004408
               7.01102853                7.00219936               54.07071745                0.01000000               -0.33234160               -0.33798669                0.18134117                1.30631671                0.25063364                0.30226447
               8.00857253                7.00560266               54.07431033                0.01000004               -0.15545093               -0.42326383                0.18093211                0.77054553                0.22536731                0.44504190
               9.00791951                7.00595048               54.07735792                0.01000002               -0.04921014               -0.39655943                0.18646416                0.33480927                0.13598055                0.52376199
              10.00758833                7.00373597               54.07914874                0.01000000               -0.03311777               -0.03667245                0.20478288                0.11258213                0.07088299                0.50882519
               0.04690911                7.98904381               54.05595613                1.00000000               -0.03103275               -0.02659498                0.08979864                0.00019687               -0.00343674                0.01512760
               1.04659878                7.98306670               54.05702085                0.99999999               -0.03490707               -0.03496291                0.11652374                0.00020665               -0.00438655                0.00342462
               2.04621097                7.97709443               54.05806654                0.26521975               -0.04292221               -0.04331532                0.14279053               -0.00059039                0.00143227               -0.00452475
               3.04574034                7.97111052               54.05925863                0.01000000               -0.43172303               -0.34422605                0.16992750                0.98332941                0.09588359               -0.04427104
               4.03757651                7.97504904               54.06221997                0.01002044               -0.68546894               -0.78152724                0.21469807                1.92226511                0.20880994               -0.02648244
               5.03203096                7.98326185               54.06549609                0.01000000               -0.66804558               -0.24393746                0.20210338                1.95161421                0.27265453                0.05798600
               6.02421559                7.99357618               54.06946354                0.01000000               -0.75825951               -0.04502133                0.20114820                1.47870042                0.34635276                0.14527317
               7.01686577                8.00009865               54.07395112                0.01000034               -0.63511454               -0.06044237                0.19491991                0.80353057                0.41630717                0.26637695
               8.01151330                8.00246230               54.07909226                0.01000002               -0.39512797               -0.14981329                0.18860876                0.19166176                0.40795485                0.43325810
               9.00896321                8.00273697               54.08317766                0.01000002               -0.19137105               -0.21926145                0.18559600               -0.24886348                0.27205286                0.80479585
              10.00768588                8.00397055               54.08548878                0.01000001               -0.12773254               -0.14501566                0.19367067               -0.21053029                0.17874674                0.66933146
               0.05293045                8.98877657               54.05687372                1.00000000               -0.03123836               -0.02683778                0.09047929                0.00030796                0.00286007                0.01523195
               1.05261806                8.98271651               54.05790119                0.99999999               -0.03522294               -0.03523327                0.11742790                0.00015465                0.00333854                0.00305414
               2.05222599                8.97665795               54.05893385                1.00000000               -0.04326080               -0.04360960                0.14448277               -0.00005496               -0.00049484               -0.00428364
               3.05175285                8.97060028               54.05989214                0.09357917               -0.04033423               -0.05151163                0.17176746                0.00344440                0.10525787               -0.02332606
               4.05141930                8.96461662               54.06306120                0.01000000               -0.56351430               -0.54619676                0.14061386                1.59427178                0.21712746               -0.02571696
               5.04048256                8.98264154               54.06728130                0.01000000               -1.17313612                0.17918485                0.21796081                1.68344720                0.33203387                0.02421896
               6.02795658                8.99473778               54.07144489                0.01000003               -1.11347724                0.20804097                0.20569405                0.90738810                0.40647872                0.08460262
               7.01821302                9.00099051               54.07660795                0.01000002               -0.90945679                0.15573500                0.19986972                0.35267518                0.52909305                0.16249810
               8.00976744                9.00260639               54.08289218                0.01000001               -0.83895123                0.13516806                0.19234845               -0.09246175                0.81459379                0.28745142
               9.00143399                9.00156525               54.09320371                1.00000000               -0.44284341               -0.08479083                0.17545375               -0.42884437                0.52672157                0.51332392
              10.00091058                9.00083565               54.09297197                0.99999999               -0.05234148               -0.18258934                0.17329024               -0.37527938               -0.00043105                0.38530435
               0.05903538                9.98850705               54.05772312                1.00000000               -0.03148854               -0.02695151                0.09138329               -0.00400850                0.01364390                0.01245184
               1.05872049                9.98236204               54.05875233                0.99999999               -0.03546412               -0.03544776                0.11844273               -0.00399738                0.01837455                0.00157725
               2.05832610                9.97622224               54.05986621                1.00000000               -0.04349713               -0.04357058                0.14553228               -0.00407665                0.01878939               -0.00168289
               3.05785055                9.97008028               54.06090338                0.99999997               -0.04527035               -0.05200011                0.17271092                0.00491374                0.13463954               -0.00570972
               4.05742069                9.96412511               54.06434687                0.01000001               -1.11359046               -0.04915145                0.12861532                1.43840215                0.26285166               -0.01752709
               5.03557874                9.98684555               54.06873630                0.01000001               -1.67031544                0.42040153                0.18046324                1.19021260                0.31578521               -0.00542715
               6.02401438                9.99773700               54.07277932                0.01000000               -0.97640418                0.29992140                0.18765411                0.42417000                0.37232013                0.04619405
               7.01605066               10.00321335               54.07789415                0.01000001               -0.74625245                0.22228379                0.18942856                0.15519760                0.54417012                0.08444227
               8.00908933               10.00516566               54.08485160                0.01000000               -0.69467980                0.25592674                0.18628099               -0.17642075                0.73132957                0.17888451
               9.00215706               10.00104116               54.09297218                0.99999999               -0.37249237               -0.05240895                0.17370380               -0.17003778                0.41804911                0.00043338
              10.00163949               10.00031876               54.09274042                0.99999994               -0.05175777               -0.05168898                0.17154029                0.00065136                0.00042116               -0.00042100
              -0.03477817                0.00166105               55.04325957                0.99421733               -0.02321465               -0.02239329                0.07268707                0.00218077               -0.00814647                0.00767177
               0.96498968               -0.00132979               55.04622021                0.99999882               -0.02460862               -0.02535939                0.08224396                0.00151309               -0.00872090               -0.00151864
               1.96472965               -0.00430600               55.04916860                0.01705525                0.01298995               -0.02832535                0.09178925                0.05968685               -0.01060999               -0.00350084
               2.96524948               -0.00610301               55.05208619                0.01000000                0.07654899               -0.00785236                0.07742359                0.12531096               -0.09094709               -0.04892981
               3.96626063               -0.00380931               55.05328871                0.01000000                0.03251159               -0.00110120                0.09926310                0.17461104               -0.12167920                0.00226649
               4.96589971                0.00255121               55.05473524                0.01003750               -0.18284003                0.03505922                0.11082816                0.30372529               -0.10706297                0.00232062
               5.96260383                0.01383731               55.05597675                0.01000000               -0.66841164                0.13127947                0.14784278                0.73489708               -0.09088170                0.00590800
               6.95253148                0.03215113               55.05778480                0.97094914               -0.51791327               -0.02944415                0.09263511                0.79981547               -0.04766837               -0.00126037
               7.95224557                0.03452901               55.06056780                1.00000000               -0.02949516               -0.03145099                0.09852032                0.00097973                0.00140630                0.00001294
               8.95194157                0.03694341               55.06335635                0.99999496               -0.03125429               -0.03319199                0.10442323                0.00084304                0.00136317                0.00113261
               9.95162048                0.03939628               55.06613604                1.00000000               -0.03210925               -0.03484106                0.11038555               -0.00117979                0.00122968                0.00226904
              -0.03176553                1.00143712               55.04379524                1.00000000               -0.02461360               -0.02303488                0.07722480                0.00075374                0.00137935                0.00814323
               0.96798834                0.99841662               55.04675789                0.01000000               -0.02606696               -0.02611091                0.08678014                0.00008655                0.00424686               -0.00445708
               1.96771313                0.99541074               55.04977928                0.01000000               -0.08670459               -0.05518253                0.09632618                0.01879554               -0.01022049                0.00738406
               2.96625424                0.99381847               55.05244954                0.01000001               -0.20167505               -0.00885623                0.08942472                0.16912392               -0.03261457               -0.02792706
               3.96367963                0.99617967               55.05413833                0.01000000               -0.30702961                0.01021786                0.09476126                0.38025057               -0.09117109                0.00199191
               4.96011365                1.00290181               55.05563289                0.01000000               -0.42633940                0.03855044                0.09175644                0.66821442               -0.12216994                0.00717074
               5.95515284                1.01515010               55.05666417                0.01000001               -0.49649354                0.00863478                0.10341230                1.04689356               -0.16570735                0.03742285
               6.95018378                1.03185669               55.05766332                0.93360575               -0.26468096               -0.03121501                0.10447292                0.71941110               -0.08843265               -0.00136294
               7.94985923                1.03421450               55.06045216                0.99999999               -0.03337047               -0.03317520                0.11083439                0.00003390                0.00098898                0.00038784
               8.94951637                1.03661149               55.06324341                0.99999999               -0.03517017               -0.03510992                0.11688206               -0.00024463                0.00051975                0.00188805
               9.94915582                1.03904786               55.06602459                1.00000000               -0.03605505               -0.03650342                0.12250778               -0.00219361                0.00011472                0.00369661
              -0.02872210                2.00120035               55.04434321                0.01000001               -0.02601173                0.05869263                0.08176834                0.06451378                0.00335586                0.09448021
               0.97101778                1.99814799               55.04723487                0.01000000               -0.07870920               -0.06876873                0.09132064                0.01840146                0.02689728                0.07031217
               1.96970372                1.99459035               55.05060105                0.01000001               -0.15773773               -0.11013594                0.10021145                0.11937384                0.01913906                0.03264590
               2.96786303                1.99371987               55.05306146                0.01000000               -0.24607052               -0.06952147                0.10135230                0.42805831               -0.03727880                0.00984079
               3.96478231                1.99639504               55.05511748                0.01000000               -0.37847291               -0.03255657                0.09779637                0.80630008               -0.07380017                0.01940175
               4.96029357                2.00332222               55.05667636                0.01000001               -0.50977434               -0.02647359                0.09884118                1.17768844               -0.12781276                0.03286871
               5.95458682                2.01401000               55.05773685                0.01000000               -0.62191338               -0.11294300                0.10212418                1.68506099               -0.22568169                0.07447841
               6.94785530                2.03152683               55.05754074                0.01000000               -0.35476872               -0.41422971                0.11626941                1.25702338               -0.14817385                0.14912607
               7.94749144                2.03386551               55.06033780                0.28089510               -0.03759926               -0.03666392                0.12351136               -0.00120206                0.00108672                0.01585960
               8.94710332                2.03624121               55.06313771                1.00000000               -0.03937888               -0.03903752                0.12996015               -0.00109922                0.00021978                0.00188067
               9.94670387                2.03866621               55.06593469                0.99999999               -0.03994507               -0.04002969                0.13427106               -0.00232897               -0.00012424                0.00401123
              -0.02437053                3.00261097               55.04661068                0.01000000               -0.06630963                0.13469280                0.08722844                0.06054064                0.00291824                0.18132343
               0.97496637                2.99704124               55.04926782                0.01000001               -0.05503642               -0.14543517                0.09525221                0.14819307                0.00104383                0.13691996
               1.97452874                2.99320803               55.05185179                0.01000000               -0.09778272               -0.20870024                0.10279310                0.44571220               -0.00780445                0.07193732
               2.97301072                2.99242804               55.05424843                0.01000000               -0.21627305               -0.19955368                0.10509029                0.83273143               -0.03101956                0.04870218
               3.97020328                2.99552854               55.05628908                0.01002004               -0.34791275               -0.16571055                0.10749537                1.25132062               -0.06793564                0.04539708
               4.96605246                3.00237233               55.05797871                0.01000000               -0.47769115               -0.16589196                0.11012872                1.67752019               -0.11390443                0.07001785
               5.96064945                3.01289124               55.05924112                0.01000001               -0.52918569               -0.23980655                0.11616190                1.96455101               -0.15062305                0.13065626
               6.95546875                3.02357210               55.06043188                0.01000001               -0.77643257               -0.61868128                0.13167103                2.07471891               -0.20847472                0.25526359
               7.94512080                3.03348122               55.06053603                0.01000000               -0.53875299               -0.41029145                0.15407266                1.59609595               -0.14681695                0.22427470
               8.94469369                3.03583074               55.06302404                0.01000000               -0.04307724               -0.47187628                0.14351186                1.17638524               -0.01707544                0.19392913
               9.94425926                3.03824727               55.06582533                1.00000000               -0.04344294               -1.04109595                0.14618995                1.38724162               -0.00200334                0.18319994
              -0.01637183                4.00389421               55.04878169                0.01000000               -0.02435783                0.06605701                0.09144968                0.17617879               -0.00219227                0.17627992
               0.98338459                3.99523929               55.05115189                0.01000000               -0.01985001               -0.24997190                0.09915363                0.40777117               -0.00446645                0.12910877
               1.98323117                3.99041634               55.05346735                0.01000000               -0.05937238               -0.34328746                0.10602959                0.82658959               -0.01189954                0.09101706
               2.98219714                3.98972879               55.05567889                0.01001463               -0.16833726               -0.33943008                0.11259725                1.24330442               -0.02565383                0.06811325
               3.97986442                3.99308083               55.05773524                0.01000000               -0.28579333               -0.31667801                0.11849498                1.65532252               -0.04694950                0.07281736
               4.97648127                4.00000438               55.05960385                0.01000001               -0.35931725               -0.31558784                0.12347687                2.00455854               -0.07280380                0.10824926
               5.97267808                4.00921387               55.06131017                0.01000001               -0.38607861               -0.41318842                0.12788052                2.27244408               -0.09788638                0.17738178
               6.96875970                4.01915321               55.06285747                0.01003773               -0.27616789               -0.54118548                0.13425762                2.29008489               -0.09826554                0.25580696
               7.96715472                4.02565968               55.06465453                0.01007293               -0.14473644               -0.77504582                0.14398812                2.32519399               -0.06792220                0.37620842
               8.96586497                4.02680369               55.06678003                0.01000000                0.12304624               -0.91286270                0.16447358                1.63191183               -0.03083018                0.38147639
               9.96961564                4.01784429               55.06931288                0.01000000                0.37506700               -1.49838785                0.19673418                1.23140778               -0.01023508                0.35271776
              -0.00353712                5.00393211               55.05097106                0.01000000                0.01367798               -0.17716400                0.09487481                0.35880325               -0.00255264                0.18011502
               0.99659966                4.99204180               55.05308759                0.01000000                0.00540743               -0.39086281                0.10545018                0.75461368               -0.00282603                0.13032239
               1.99657103                4.98634228               55.05517630                0.01000001               -0.06936719               -0.44580498                0.11437104                1.21243213               -0.00498546                0.09171995
               2.99521231                4.98563944               55.05726386                0.01000000               -0.17684459               -0.46150226                0.12374876                1.62694652               -0.00711024                0.07476738
               3.99303414                4.98919498               55.05937371                0.01000001               -0.26008619               -0.42626783                0.13262450                1.93511136               -0.00916385                0.08700158
               4.99001059                4.99606058               55.06150384                0.01000001               -0.30423122               -0.43283318                0.13861226                2.18033049               -0.01398432                0.13403767
               5.98694951                5.00462747               55.06364152                0.01000000               -0.25929753               -0.48440184                0.14105732                2.26673604               -0.01946655                0.20942189
               6.98482464                5.01274839               55.06581874                0.01000001               -0.14876554               -0.62115019                0.14101132                2.17593810               -0.02010388                0.30186858
               7.98397420                5.01798031               55.06809387                0.01000000                0.01613361               -0.73441227                0.14603072                1.78837014               -0.01150552                0.36827183
               8.98514731                5.01757349               55.07047935                0.01000000                0.14160073               -0.80792917                0.16759810                1.15518661               -0.00078630                0.39035578
               9.98680622                5.00827951               55.07285831                0.01000000                0.16589027               -0.67465500                0.21062402                0.55435413                0.00374458                0.35062867
               0.01458484                6.00035093               55.05329897                0.01000001                0.14818539               -0.76830864                0.09593714                0.86624650               -0.00310203                0.19659430
               1.01606669                5.98742203               55.05511551                0.01000001               -0.03513311               -0.47298116                0.11242868                1.19426634               -0.00057988                0.13648139
               2.01388218                5.98150024               55.05691393                0.01000000               -0.20916646               -0.48725790                0.12622153                1.77259391                0.00301460                0.08367964
               3.01188337                5.98049875               55.05886715                0.01000001               -0.28683361               -0.45595748                0.13964966                1.82082595                0.02025857                0.06134408
               4.00814551                5.98455548               55.06107008                0.01000001               -0.36139869               -0.49701282                0.15048994                2.07338988                0.04279218                0.08302208
               5.00465539                5.99134772               55.06354478                0.01000001               -0.34102601               -0.46707407                0.15731480                2.17644550                0.06509216                0.14170805
               6.00132499                5.99952584               55.06622900                0.01000003               -0.28648794               -0.47347322                0.15852111                2.11684816                0.07906649                0.23053325
               6.99892563                6.00673020               55.06903585                0.01000000               -0.16139830               -0.53338675                0.15705150                1.81899579                0.08306684                0.33254770
               7.99809702                6.01097143               55.07185415                0.01000000               -0.01280681               -0.61429880                0.15913937                1.36433655                0.07263600                0.41490908
               8.99866950                6.01064511               55.07447487                0.01000000                0.05968275               -0.57920755                0.17316248                0.74715378                0.04315214                0.44248355
               9.99929068                6.00435119               55.07666989                0.01000000                0.06211784               -0.24499142                0.20942614                0.34875541                0.02572979                0.38549700
               0.03964560                6.98856594               55.05598985                0.94239945               -0.03099279               -0.60238867                0.08881453                0.95617352               -0.01278161                0.10310094
               1.03933567                6.98258218               55.05733220                0.74444562               -0.03497028               -0.25966919                0.11741068                0.86649799               -0.01787189                0.07033933
               2.03894619                6.97659712               55.05857691                0.01000000               -0.53810343               -0.26715692                0.14314002                1.25140615               -0.00129303                0.03709621
               3.02857360                6.97652029               55.06026211                0.01000001               -0.76466161               -0.52138418                0.15748610                1.76306129                0.04513050                0.01407475
               4.02365296                6.97925473               55.06266854                0.01002771               -0.50022304               -0.51904469                0.17371740                1.91726290                0.10726873                0.06241844
               5.01856914                6.98671910               55.06559351                0.01001732               -0.48744847               -0.45126299                0.17770011                2.11040823                0.15728116                0.13003238
               6.01390399                6.99515801               55.06889994                0.01000000               -0.44050900               -0.32352096                0.17803334                1.86407353                0.19663342                0.22670971
               7.00975896                7.00208065               55.07250304                0.01000000               -0.32789808               -0.33875934                0.17522757                1.38303155                0.21417479                0.34365865
               8.00734603                7.00569433               55.07608958                0.01000945               -0.15241646               -0.41850441                0.17380250                0.83327913                0.19290551                0.47655013
               9.00671063                7.00598934               55.07919820                0.01000002               -0.04884353               -0.38668652                0.17969086                0.37018700                0.11547640                0.54028475
              10.00636916                7.00337969               55.08119654                0.01000000               -0.03414730               -0.03031511                0.20202480                0.12886282                0.06030342                0.50577163
               0.04567582                7.98830315               55.05684915                1.00000000               -0.03103485               -0.02631623                0.08885805                0.00009850               -0.00352195                0.01472120
               1.04536547                7.98222865               55.05819098                0.99999999               -0.03518119               -0.03529038                0.11754629                0.00023594               -0.00471664                0.00335043
               2.04497220                7.97615710               55.05950898                0.27559166               -0.04392445               -0.04433477                0.14572621               -0.00064930                0.00203779               -0.00297840
               3.04448698                7.97007106               55.06099596                0.01000000               -0.43401217               -0.34909069                0.18018213                1.00252715                0.08923157               -0.03550835
               4.03629195                7.97417458               55.06407832                0.01007504               -0.67633559               -0.78581763                0.18183634                1.94042935                0.18154536                0.02850112
               5.03096027                7.98232246               55.06749921                0.01000000               -0.65235272               -0.25408027                0.19644690                1.97881231                0.24267018                0.10114070
               6.02324490                7.99305542               55.07143154                0.01000000               -0.74551638               -0.05122094                0.19323974                1.54294470                0.30641763                0.19198110
               7.01604994                7.99995502               55.07587830                0.01000693               -0.61954911               -0.06554625                0.18979557                0.87123543                0.37958071                0.30320182
               8.01085392                8.00260134               55.08095753                0.01000002               -0.38310320               -0.15078628                0.18415207                0.25781186                0.37749871                0.46039579
               9.00838788                8.00291138               55.08501634                0.01000002               -0.18833408               -0.20896756                0.18175676               -0.19474948                0.25467715                0.81182927
              10.00708724                8.00374489               55.08741938                0.01000001               -0.13006445               -0.11540436                0.19200493               -0.17766738                0.17222374                0.65281117
               0.05179658                8.98803961               55.05776983                1.00000000               -0.03101395               -0.02634200                0.08876589                0.00021557                0.00278095                0.01480170
               1.05148644                8.98187637               55.05907695                0.99999999               -0.03528925               -0.03535182                0.11774439                0.00012101                0.00335332                0.00306001
               2.05109079                8.97571042               55.06039044                0.99999999               -0.04398855               -0.04445329                0.14686204               -0.00030544               -0.00021652               -0.00373604
               3.05060667                8.96953847               55.06163274                0.11562011               -0.04403215               -0.05328807                0.17669941                0.00820551                0.10302872               -0.02360580
               4.05021015                8.96353837               55.06503164                0.01000000               -0.56710579               -0.57933698                0.22601291                1.61227496                0.25988912               -0.01206912
               5.03926455                8.98163749               55.06916109                0.01000000               -1.15399111                0.17509604                0.18813600                1.69234217                0.30221766                0.05723848
               6.02713033                8.99413359               55.07347877                0.01000294               -1.08134045                0.19801541                0.19806061                0.94353356                0.37405640                0.11449600
               7.01763774                9.00076973               55.07857751                0.01000002               -0.87922102                0.14587311                0.19486332                0.39295966                0.49732699                0.18426180
               8.00954591                9.00267860               55.08480180                0.01000001               -0.79828218                0.12172694                0.18932357               -0.04890064                0.79010346                0.30260098
               9.00167210                9.00180999               55.09495825                1.00000000               -0.41985590               -0.08128015                0.17545963               -0.37954676                0.52006334                0.50997879
              10.00114879                9.00107160               55.09470454                1.00000000               -0.05233095               -0.15950287                0.17322228               -0.33388756               -0.00043505                0.37625764
               0.05800661                9.98777631               55.05862463                1.00000000               -0.03095269               -0.02632975                0.08894336               -0.00446709                0.01331582                0.01206880
               1.05769708                9.98152161               55.05993456                0.99999999               -0.03513089               -0.03547609                0.11792829               -0.00434947                0.01811622                0.00160562
               2.05730399                9.97526804               55.06132918                0.99999995               -0.04369690               -0.04423842                0.14678432               -0.00449580                0.01887855               -0.00156315
               3.05682314                9.96900530               55.06264868                0.99999997               -0.04327783               -0.05331703                0.17612538               -0.01236223                0.12864889               -0.00596682
               4.05643843                9.96258784               55.06624361                0.01000000               -1.13056232               -0.09505312                0.21575991                1.46378238                0.28744262               -0.01449758
               5.03421190                9.98582438               55.07032658                0.01000001               -1.67275504                0.41868901                0.16789382                1.21612869                0.28500127                0.02739448
               6.02298333                9.99701572               55.07461761                0.01000000               -0.94238861                0.28821336                0.18194520                0.43770546                0.35857244                0.05785804
               7.01536413               10.00287248               55.07976054                0.01000001               -0.70738439                0.21027511                0.18547988                0.17364610                0.52814561                0.09379363
               8.00883565               10.00503588               55.08669888                0.01000000               -0.64800873                0.23572784                0.18380617               -0.15036152                0.72042347                0.18131408
               9.00240395               10.00128577               55.09470955                0.99999999               -0.34746923               -0.05242142                0.17377367               -0.15086754                0.41365345                0.00043438
              10.00188626               10.00055483               55.09445583                0.99993651               -0.05176893               -0.05167697                0.17153633                0.00065278                0.00042337               -0.00042275
              -0.03786802                0.00117933               56.04398777                0.99517785               -0.02317343               -0.02253472                0.07294873                0.00211827               -0.00813535                0.00765718
               0.96190025               -0.00190536               56.04704018                1.00000000               -0.02445502               -0.02526328                0.08174677                0.00139560               -0.00871139               -0.00152535
               1.96164288               -0.00497432               56.05008023                0.01000000                0.03050484               -0.02799331                0.09053567                0.06514963               -0.05718803               -0.00349424
               2.96251034               -0.00675127               56.05215778                0.01000001                0.09759058               -0.01720928                0.05921442                0.11934552               -0.05897131                0.04249640
               3.96359469               -0.00457249               56.05437771                0.01000000                0.03777798               -0.00322467                0.10204436                0.17372994               -0.09481765                0.00768008
               4.96326590                0.00189682               56.05588865                0.01000002               -0.17888559                0.03142533                0.11378691                0.31442868               -0.12788633                0.01496148
               5.96001698                0.01344826               56.05725351                0.01000001               -0.67678505                0.13588817                0.11917081                0.75367549               -0.12655954                0.01457554
               6.94973020                0.03219844               56.05871057                0.97093738               -0.52863933               -0.02955692                0.09265285                0.82123646               -0.06818142               -0.00183219
               7.94944419                0.03458230               56.06154911                1.00000000               -0.02948420               -0.03087737                0.09827624                0.00084856                0.00124298                0.00012852
               8.94914052                0.03700436               56.06439494                0.99997596               -0.03112508               -0.03264042                0.10378663                0.00077091                0.00130026                0.00114709
               9.94882169                0.03946539               56.06723264                1.00000000               -0.03188258               -0.03462175                0.10933611               -0.00132337                0.00106809                0.00146264
              -0.03476214                1.00095399               56.04457058                1.00000000               -0.02468307               -0.02323118                0.07784099                0.00080505                0.00138244                0.00813550
               0.96499103                0.99784201               56.04762498                0.01000000               -0.02602653               -0.02606082                0.08663736                0.00008080                0.00424516               -0.00446086
               1.96471733                0.99474575               56.05073802                0.01000000               -0.07440711               -0.05710641                0.09542538                0.02549998               -0.02951699                0.00493771
               2.96350289                0.99307664               56.05311419                0.01000001               -0.18546911               -0.01578748                0.07941289                0.16398790               -0.08842030                0.02143315
               3.96100795                0.99539526               56.05514130                0.01000000               -0.30515368                0.00797436                0.09955957                0.38213006               -0.10593329                0.01370451
               4.95739981                1.00221108               56.05664082                0.01000000               -0.43025098                0.03597331                0.10453073                0.68590227               -0.14788554                0.02667209
               5.95240293                1.01480714               56.05776605                0.01000001               -0.50121341                0.00734926                0.11069562                1.07296934               -0.17744451                0.04476573
               6.94737554                1.03190287               56.05871026                0.92442333               -0.26766038               -0.03127734                0.10511891                0.73908142               -0.09395273               -0.00212297
               7.94704972                1.03427353               56.06156206                0.99999999               -0.03344316               -0.03302235                0.11041038                0.00039594                0.00137131                0.00065202
               8.94670668                1.03667795               56.06441106                0.99999999               -0.03511473               -0.03470186                0.11620067               -0.00073370                0.00059964                0.00233062
               9.94634742                1.03911917               56.06724513                0.99999999               -0.03592568               -0.03636808                0.12185349               -0.00294240                0.00007790                0.00225626
              -0.03162796                2.00071471               56.04516577                0.01000000               -0.02619440                0.06143712                0.08274154                0.07220489                0.00335347                0.09479883
               0.96811010                1.99757342               56.04814915                0.01000000               -0.07269004               -0.07061041                0.09153582                0.02463484                0.02443545                0.06990807
               1.96691824                1.99388355               56.05155781                0.01000001               -0.14847547               -0.11353431                0.09584039                0.12737916                0.01112149                0.03627445
               2.96514059                1.99293298               56.05408930                0.01000000               -0.24076931               -0.07254642                0.10109457                0.43069721               -0.05043449                0.03014590
               3.96210286                1.99558699               56.05610394                0.01000000               -0.37842624               -0.03329411                0.10170684                0.81264910               -0.09792316                0.03299886
               4.95757207                2.00261629               56.05769691                0.01000001               -0.51591422               -0.02610167                0.10606815                1.19784483               -0.14477298                0.05701868
               5.95178457                2.01359524               56.05882525                0.01000000               -0.62633120               -0.11737204                0.11223727                1.71964852               -0.23542200                0.09052629
               6.94504544                2.03157289               56.05870873                0.01000000               -0.35537727               -0.42236777                0.11645617                1.28207073               -0.14695665                0.14867142
               7.94467703                2.03392185               56.06158348                0.30065891               -0.03826226               -0.04001589                0.12626765                0.00325896                0.00204640                0.03034124
               8.94428020                2.03631032               56.06444639                0.99999999               -0.03983120               -0.03955351                0.13129713               -0.00153968                0.00053777                0.00391265
               9.94388040                2.03873803               56.06727343                0.99999999               -0.03997934               -0.03973845                0.13322714               -0.00370907               -0.00055428                0.00164159
              -0.02703547                3.00218273               56.04748686                0.01000002               -0.06496524                0.13668358                0.08848885                0.06560206                0.00258408                0.18151622
               0.97231488                2.99642980               56.05022126                0.01000001               -0.05295929               -0.14854078                0.09579894                0.15669428               -0.00083998                0.13775644
               1.97190535                2.99247506               56.05287011                0.01000000               -0.09507454               -0.21121346                0.10207340                0.45398782               -0.01331521                0.07536305
               2.97041339                2.99162571               56.05530159                0.01000000               -0.21638629               -0.20051027                0.10667218                0.84325271               -0.04118274                0.05732427
               3.96757762                2.99472938               56.05737595                0.01002063               -0.35324668               -0.16378679                0.11072894                1.26616060               -0.08020249                0.06423513
               4.96334846                3.00168904               56.05909554                0.01000000               -0.48691645               -0.16185392                0.11439813                1.70173757               -0.12796888                0.09204217
               5.95783929                3.01245970               56.06039539                0.01000001               -0.53290548               -0.23822175                0.11849418                1.99669139               -0.15904435                0.14499551
               6.95269035                3.02345551               56.06173290                0.01000001               -0.77309123               -0.62678389                0.12134750                2.09637830               -0.20729876                0.25474577
               7.94237747                3.03347321               56.06218351                0.01000007               -0.54153180               -0.41559790                0.18708093                1.60486679               -0.15739171                0.23528808
               8.94185971                3.03588688               56.06448042                0.01012957               -0.04798218               -0.46808762                0.14820484                1.18100247               -0.02713747                0.19946686
               9.94141782                3.03832441               56.06728417                1.00000000               -0.04418866               -1.03989627                0.14414065                1.38879715               -0.00118129                0.20232807
              -0.01881005                4.00344838               56.04970131                0.01000000               -0.02382970                0.06307852                0.09355980                0.17986159               -0.00313037                0.17476093
               0.98095165                3.99460261               56.05216041                0.01000000               -0.01939327               -0.25380324                0.10197883                0.41475855               -0.00638287                0.13188555
               1.98080208                3.98965928               56.05454792                0.01000000               -0.06001608               -0.34654293                0.10898699                0.83904055               -0.01561385                0.09771909
               2.97975133                3.98892278               56.05682064                0.01001772               -0.17196727               -0.34021173                0.11540781                1.26067966               -0.03162090                0.08167253
               3.97736274                3.99231126               56.05892916                0.01000000               -0.29374186               -0.31400724                0.12123005                1.68108349               -0.05659212                0.09252074
               4.97387649                3.99937921               56.06083769                0.01000001               -0.37054049               -0.30962209                0.12532206                2.04000097               -0.08853035                0.13051411
               5.96995193                4.00883081               56.06256461                0.01000001               -0.39584983               -0.40625127                0.12557933                2.31331187               -0.12296631                0.19551797
               6.96595950                4.01903722               56.06414737                0.01005982               -0.28044678               -0.53531351                0.12160848                2.31456043               -0.13516768                0.26394551
               7.96434299                4.02560990               56.06602373                0.01000002               -0.14552232               -0.76839581                0.11251830                2.34238758               -0.09731012                0.36887149
               8.96304905                4.02694857               56.06840774                0.01000000                0.12191552               -0.90951274                0.14928766                1.65071630               -0.04649764                0.40797274
               9.96678130                4.01794011               56.07133764                0.01000003                0.37322532               -1.50629047                0.23063832                1.24072003               -0.02271256                0.41957758
              -0.00574668                5.00344430               56.05192243                0.01000000                0.01458328               -0.18346354                0.09725290                0.36324464               -0.00449414                0.17594742
               0.99439915                4.99135373               56.05415999                0.01000000                0.00563343               -0.39720036                0.10887690                0.76467221               -0.00665773                0.13487774
               1.99436599                4.98554420               56.05634378                0.01000001               -0.07120696               -0.45062978                0.11808353                1.23020783               -0.01010626                0.10295136
               2.99297501                4.98482148               56.05851845                0.01000000               -0.18115631               -0.46341174                0.12682772                1.65369973               -0.01291287                0.09301423
               3.99074286                4.98844923               56.06070635                0.01000001               -0.26730436               -0.42504155                0.13444463                1.97252055               -0.01928248                0.11156384
               4.98762892                4.99549660               56.06288359                0.01000001               -0.31476665               -0.42814547                0.13903355                2.23055928               -0.03403559                0.16197561
               5.98444753                5.00433467               56.06502318                0.01001442               -0.27132279               -0.47591738                0.13761282                2.32541227               -0.05545622                0.23799922
               6.98220247                5.01274924               56.06716014                0.01000002               -0.15668305               -0.61060925                0.12840151                2.22755969               -0.07069496                0.33074946
               7.98131387                5.01810529               56.06945669                0.01000000                0.01706806               -0.71899270                0.12094330                1.82358019               -0.06221951                0.39531445
               8.98254383                5.01769663               56.07209233                0.01000000                0.14676439               -0.80747936                0.14143374                1.17459408               -0.03131310                0.41470014
               9.98424915                5.00819860               56.07501788                0.01000002                0.17053244               -0.69321977                0.22447743                0.56762027               -0.00597473                0.36175239
               0.01263598                5.99977911               56.05425510                0.01000001                0.15092154               -0.78119963                0.09738822                0.87688117               -0.00597929                0.18802360
               1.01414519                5.98665860               56.05625109                0.01000001               -0.03487410               -0.48033221                0.11499648                1.20942404               -0.00671978                0.14099411
               2.01193849                5.98064669               56.05819404                0.01000000               -0.21124472               -0.49365395                0.12893786                1.79778954               -0.00366150                0.09908731
               3.00992030                5.97965454               56.06027511                0.01000001               -0.29002342               -0.45919968                0.14050830                1.85202870                0.01284228                0.08391130
               4.00613803                5.98381043               56.06257751                0.01000001               -0.36590307               -0.49809690                0.15064060                2.11791061                0.03066783                0.11361334
               5.00260224                5.99081630               56.06510284                0.01000774               -0.34652477               -0.46650506                0.15581897                2.23823705                0.04237146                0.17670981
               5.99920753                5.99931246               56.06778552                0.01000001               -0.29310827               -0.46824053                0.15515303                2.19018535                0.04306172                0.26942054
               6.99674007                6.00682503               56.07055654                0.01000000               -0.16701595               -0.52595806                0.14950150                1.89187504                0.03509198                0.37612608
               7.99586721                6.01123004               56.07337396                0.01000000               -0.01462206               -0.60375033                0.14509140                1.41977851                0.02218613                0.46078036
               8.99644763                6.01079898               56.07613572                0.01000003                0.06312820               -0.57409641                0.15402443                0.77119591                0.00863999                0.48116912
               9.99712978                6.00407571               56.07876782                0.01000000                0.06821460               -0.25483413                0.19743424                0.35510163                0.00824296                0.39933020
               0.03803197                6.98782031               56.05687717                0.94508351               -0.03119114               -0.61104321                0.08887750                0.96862967               -0.01291732                0.09961366
               1.03772005                6.98174709               56.05851443                0.71116723               -0.03530668               -0.26348235                0.11894633                0.87751198               -0.01976071                0.07270798
               2.03732583                6.97567113               56.06002082                0.01000000               -0.54341031               -0.27126759                0.14483790                1.26993210               -0.01017437                0.04719079
               3.02685185                6.97563748               56.06185511                0.01000001               -0.76932586               -0.53124113                0.15912545                1.79257489                0.03444370                0.04522036
               4.02193931                6.97848729               56.06437158                0.01004680               -0.49801093               -0.52772320                0.16958093                1.95475757                0.09182014                0.09109127
               5.01689163                6.98616650               56.06734066                0.01000002               -0.48484044               -0.45496058                0.17327080                2.17057406                0.13418110                0.16932977
               6.01224251                6.99496986               56.07065001                0.01000000               -0.43846207               -0.32377437                0.17362008                1.94104564                0.16139790                0.27055384
               7.00812239                7.00223008               56.07422200                0.01000000               -0.32535109               -0.33684055                0.17025817                1.46258741                0.17372981                0.38810171
               8.00573548                7.00603029               56.07778638                0.01000792               -0.15001536               -0.41360254                0.16745942                0.90213216                0.15374977                0.51993674
               9.00512208                7.00621470               56.08095174                0.01000002               -0.04688764               -0.37927367                0.17238810                0.41094481                0.09010762                0.57239065
              10.00479773                7.00310191               56.08318924                0.01000000               -0.03243495               -0.02784686                0.19761881                0.14844688                0.04763285                0.50694787
               0.04415501                7.98755825               56.05773329                1.00000000               -0.03103942               -0.02615952                0.08809959                0.00006372               -0.00366337                0.01424013
               1.04384461                7.98138895               56.05937177                0.99999999               -0.03541340               -0.03564776                0.11849457                0.00037789               -0.00489996                0.00339437
               2.04344674                7.97522134               56.06098106                0.28649893               -0.04444934               -0.04540489                0.14877549               -0.00095959                0.00690791               -0.00035778
               3.04295563                7.96902972               56.06286227                0.01000000               -0.43712891               -0.35810184                0.20123737                1.01774984                0.07235204               -0.02011497
               4.03470416                7.97325596               56.06585669                0.01000002               -0.67122397               -0.81386696                0.18363998                1.99183943                0.15925674                0.07225551
               5.02953115                7.98171709               56.06942503                0.01000000               -0.63696508               -0.26037789                0.18746205                2.03845863                0.21748766                0.13704553
               6.02196486                7.99283697               56.07332834                0.01000000               -0.72998762               -0.05641173                0.18807957                1.60749567                0.27438874                0.22777682
               7.01493139                8.00008822               56.07774703                0.01000223               -0.60198118               -0.07182886                0.18595605                0.94175746                0.34677014                0.33987352
               8.00992524                8.00295799               56.08277531                0.01000002               -0.36682476               -0.15566157                0.18084991                0.32892868                0.34842928                0.49280767
               9.00759490                8.00321351               56.08681279                0.01000002               -0.18004738               -0.20715455                0.17918666               -0.13143881                0.23809753                0.82640365
              10.00632429                8.00351877               56.08932888                0.01000001               -0.12706107               -0.08887796                0.19044906               -0.13889483                0.16711821                0.64034554
               0.05037183                8.98729712               56.05864903                0.99999999               -0.03073075               -0.02597084                0.08725115                0.00004353                0.00259919                0.01415694
               1.05006452                8.98103413               56.06025608                0.99999999               -0.03529795               -0.03550092                0.11793837               -0.00002168                0.00342021                0.00310372
               2.04966587                8.97476303               56.06187109                0.99999999               -0.04461514               -0.04539205                0.14936792               -0.00079396                0.00086789               -0.00298574
               3.04917222                8.96847545               56.06342613                0.18161237               -0.02885679               -0.05503307                0.18247632                0.00002019                0.12681306               -0.02654275
               4.04908873                8.96220995               56.06758146                0.01000000               -0.55462151               -0.59223695                0.21297187                1.66354902                0.22412302                0.01758922
               5.03807979                8.98095894               56.07104402                0.01000000               -1.15337223                0.16726877                0.19433162                1.75026469                0.25536951                0.07564697
               6.02602129                8.99384163               56.07540610                0.01000425               -1.06216351                0.18897475                0.19219436                0.98107842                0.35195439                0.13617600
               7.01683652                9.00079351               56.08050522                0.01000002               -0.84162611                0.13174668                0.19177533                0.43381655                0.47456284                0.20572539
               8.00918877                9.00291706               56.08667865                0.01000001               -0.74519975                0.10198963                0.18722970               -0.00491719                0.77025645                0.31919524
               9.00193252                9.00207161               56.09671290                1.00000000               -0.38897305               -0.08331334                0.17547299               -0.32572072                0.51508821                0.50871762
              10.00140931                9.00132435               56.09643641                0.99999997               -0.05232171               -0.13555226                0.17315032               -0.28316968               -0.00043817                0.36820009
               0.05668185                9.98703883               56.05950199                1.00000000               -0.03035765               -0.02582866                0.08682035               -0.00498801                0.01240225                0.01137144
               1.05637827                9.98067893               56.06111090                1.00000000               -0.03461502               -0.03551993                0.11727863               -0.00489198                0.01702654                0.00159151
               2.05598955                9.97431350               56.06280189                1.00000000               -0.04345831               -0.04495315                0.14722091               -0.00512615                0.01825933               -0.00142781
               3.05550910                9.96792906               56.06442589                0.99999999               -0.02489490               -0.05463878                0.17821430               -0.01142525                0.14576182               -0.00606128
               4.05549165                9.96141122               56.06866207                0.01000001               -1.13021686               -0.07987316                0.20141591                1.49696158                0.23821274               -0.00216879
               5.03290477                9.98506247               56.07209418                0.01000001               -1.68698914                0.41035232                0.18753721                1.24276003                0.23681002                0.03421960
               6.02175187                9.99661647               56.07641823                0.01000000               -0.91862337                0.27748401                0.18321134                0.45609184                0.34250938                0.07024293
               7.01453230               10.00272315               56.08160374                0.01000001               -0.66015382                0.19296465                0.18524385                0.18864376                0.51786124                0.10230686
               8.00854879               10.00499778               56.08852772                0.01000000               -0.59295560                0.20807285                0.18406512               -0.12279347                0.71188976                0.18466996
               9.00267319               10.00154724               56.09644765                0.99999997               -0.31966907               -0.05243686                0.17384740               -0.13543659                0.41025721                0.00043611
              10.00215541               10.00080773               56.09617115                0.99999999               -0.05177796               -0.05166273                0.17152505                0.00065857                0.00042320               -0.00042501
              -0.04104571                0.00064857               57.04471854                0.99613940               -0.02313081               -0.02267471                0.07320503                0.00205703               -0.00812170                0.00764398
               0.95872298               -0.00252989               57.04785515                0.99999999               -0.02430013               -0.02516751                0.08124696                0.00127942               -0.00870116               -0.00153064
               1.95846829               -0.00569147               57.05097931                0.01001091                0.05247980               -0.02766153                0.08927976                0.08472884               -0.05070609               -0.00348881
               2.95977258               -0.00716590               57.05327047                0.01000003                0.10825618               -0.05184843                0.10482171                0.05642785               -0.07644862                0.01959393
               3.96063341               -0.00518289               57.05532960                0.01000000                0.03468003               -0.00895816                0.09860079                0.16569415               -0.10904630                0.01771109
               4.96046618                0.00134612               57.05701098                0.01000000               -0.16913414                0.02808751                0.10876434                0.32083181               -0.13328049                0.01631262
               5.95725073                0.01310374               57.05836017                0.01000002               -0.67969627                0.13699355                0.10795869                0.76682663               -0.14928329                0.01495315
               6.94687225                0.03211510               57.05963786                0.97186550               -0.53323358               -0.02990246                0.09304843                0.83374288               -0.07986843               -0.00173108
               7.94658606                0.03450567               57.06253333                1.00000000               -0.02941015               -0.03125067                0.09839515                0.00093107                0.00123509               -0.00100223
               8.94628405                0.03693412               57.06543209                1.00000000               -0.03098068               -0.03274655                0.10368543                0.00086846                0.00121925                0.00050235
               9.94596644                0.03940054               57.06832277                1.00000000               -0.03176072               -0.03483454                0.10898093               -0.00107837                0.00102399                0.00147981
              -0.03784668                1.00042182               57.04535206                1.00000000               -0.02475279               -0.02342596                0.07845442                0.00085749                0.00138632                0.00812746
               0.96190579                0.99721843               57.04849064                0.01000000               -0.02598713               -0.02601179                0.08649543                0.00007824                0.00424472               -0.00446216
               1.96163358                0.99403192               57.05168779                0.01000000               -0.09116130               -0.05623907                0.09452786                0.03074477               -0.03503557                0.00292277
               2.96008257                0.99231562               57.05403780                0.01000001               -0.17996174               -0.03493563                0.09725572                0.16156235               -0.10015925                0.01618898
               3.95803434                0.99472753               57.05612952                0.01000000               -0.27756916                0.00016278                0.10001458                0.39470995               -0.11562582                0.02300307
               4.95453118                1.00162700               57.05772351                0.01000000               -0.42499188                0.03308741                0.10879423                0.69783798               -0.15467079                0.03129831
               5.94953451                1.01447368               57.05887808                0.01000001               -0.50112339                0.00437239                0.11130921                1.09024539               -0.18799969                0.04457520
               6.94450872                1.03181607               57.05976570                0.91421047               -0.26743241               -0.03187390                0.10561419                0.75025883               -0.10044980               -0.00317202
               7.94418586                1.03419317               57.06266037                0.99999999               -0.03317088               -0.03273964                0.11056783               -0.00003856                0.00082910                0.00201115
               8.94384530                1.03660665               57.06556742                0.99999999               -0.03483126               -0.03420067                0.11583482               -0.00004440                0.00124068                0.00311850
               9.94348923                1.03905220               57.06846166                0.99999999               -0.03560659               -0.03702761                0.12143442               -0.00183220                0.00097864                0.00120548
              -0.03462178                2.00018005               57.04599804                0.01000001               -0.02637684                0.06419658                0.08371176                0.07993335                0.00334994                0.09532309
               0.96511445                1.99694987               57.04906559                0.01000000               -0.06961099               -0.07166599                0.09175227                0.03321158                0.02240375                0.06967573
               1.96398600                1.99318375               57.05251785                0.01000001               -0.14031181               -0.11533705                0.09702230                0.13670241                0.00440693                0.03679859
               2.96230821                1.99213539               57.05508335                0.01000000               -0.23848823               -0.07362217                0.10103027                0.46176358               -0.05922759                0.03806719
               3.95921623                1.99482037               57.05715161                0.01000000               -0.38157084               -0.03697558                0.10714877                0.83217031               -0.10704750                0.04402396
               4.95467680                2.00200787               57.05879773                0.01000001               -0.51748371               -0.02773039                0.11266760                1.21566345               -0.15271600                0.06616893
               5.94886656                2.01319119               57.05998160                0.01000000               -0.62594277               -0.12109402                0.11762073                1.73832254               -0.24200350                0.09358749
               6.94215794                2.03147762               57.05986986                0.01000000               -0.35359256               -0.42938512                0.11806516                1.28428133               -0.14738198                0.13962028
               7.94179471                2.03385088               57.06286316                0.59746133               -0.03669059               -0.02232158                0.12278813               -0.00939606                0.00416822                0.06521693
               8.94142413                2.03625010               57.06576365                0.99999999               -0.03780009               -0.03739630                0.12769111                0.00070458               -0.00077852                0.00762213
               9.94103871                2.03865999               57.06859923                0.99999999               -0.03854228               -0.04112913                0.13409591               -0.00206689               -0.00303297               -0.00127280
              -0.02978766                3.00170575               57.04838046                0.01000000               -0.06460217                0.13869052                0.09052978                0.07139371                0.00177971                0.18288048
               0.96956632                2.99578511               57.05118379                0.01000001               -0.05151169               -0.15057994                0.09632056                0.16576487               -0.00240480                0.13924690
               1.96918211                2.99172518               57.05389325                0.01000000               -0.09425490               -0.21433492                0.10260770                0.46653588               -0.01629645                0.07974438
               2.96768122                2.99084317               57.05638188                0.01000000               -0.21884188               -0.19950055                0.10912324                0.85690553               -0.04657462                0.06634136
               3.96480527                2.99398802               57.05850366                0.01002082               -0.36037939               -0.16097632                0.11524628                1.28642539               -0.08812158                0.07700720
               4.96047364                3.00107239               57.06026668                0.01000000               -0.49870327               -0.15906251                0.12080844                1.72310987               -0.13784485                0.10459319
               5.95483121                3.01205179               57.06161100                0.01000001               -0.54694918               -0.23473710                0.12449974                2.00992512               -0.17864135                0.14798472
               6.94953465                3.02322837               57.06285883                0.01000001               -0.78028763               -0.62363724                0.12348596                2.10671129               -0.19268779                0.24578790
               7.93922545                3.03374673               57.06427765                0.01000006               -0.52421872               -0.40434732                0.11076556                1.58918931               -0.13549303                0.19117129
               8.93905028                3.03585873               57.06598813                0.01023259               -0.02986670               -0.44494349                0.13937306                1.13399323               -0.06003260                0.18997012
               9.93862812                3.03822962               57.06870815                0.99999999               -0.04221581               -1.00789297                0.14660245                1.35023333               -0.00983001                0.25130286
              -0.02135263                4.00295386               57.05065289                0.01000000               -0.02370507                0.05957574                0.09796339                0.18271778               -0.00391129                0.17471494
               0.97841032                3.99393827               57.05319147                0.01000000               -0.01943593               -0.25682160                0.10370203                0.42110135               -0.00810542                0.13583345
               1.97825865                3.98889705               57.05564709                0.01000000               -0.06134198               -0.34849957                0.11004909                0.85177197               -0.01816356                0.10488835
               2.97718348                3.98814538               57.05798704                0.01002029               -0.17715627               -0.33989585                0.11776958                1.28070257               -0.03532462                0.09322053
               3.97471553                3.99160084               57.06015984                0.01000000               -0.30541311               -0.31050525                0.12551264                1.70796581               -0.06386335                0.10823963
               4.97107522                3.99882662               57.06211030                0.01000001               -0.39032248               -0.30187236                0.13108518                2.07175080               -0.10466864                0.14674617
               5.96690908                4.00849645               57.06382176                0.01000001               -0.42389956               -0.39426207                0.13102975                2.34554411               -0.15876380                0.20621020
               6.96259723                4.01900488               57.06528964                0.01008483               -0.29804695               -0.51370846                0.11441229                2.33550348               -0.21186741                0.26611490
               7.96094814                4.02576393               57.06690490                0.01000001               -0.14880587               -0.76051827                0.06216091                2.34592670               -0.21086443                0.35182430
               8.95962111                4.02735123               57.06976578                0.01000000                0.11767266               -0.88596071                0.07253109                1.63238907               -0.08408918                0.39552107
               9.96330159                4.01850213               57.07392565                0.01000000                0.36804818               -1.50726142                0.34416412                1.22546460               -0.05494754                0.43803391
              -0.00810213                5.00289727               57.05291612                0.01000000                0.01472816               -0.18986010                0.10391641                0.36643729               -0.00630313                0.17211029
               0.99204515                4.99064868               57.05526512                0.01000000                0.00562856               -0.40253986                0.11214633                0.77204809               -0.01032992                0.13961966
               1.99201044                4.98475519               57.05753797                0.01000001               -0.07268332               -0.45460524                0.11968886                1.24614273               -0.01441916                0.11318353
               2.99059149                4.98404526               57.05980042                0.01000000               -0.18635473               -0.46525329                0.12861786                1.67979956               -0.01760464                0.10759996
               3.98828335                4.98777792               57.06206260                0.01000001               -0.27892186               -0.42191656                0.13769901                2.01026406               -0.02810104                0.13107871
               4.98501305                4.99503494               57.06428451                0.01000001               -0.33597582               -0.42008897                0.14375923                2.28041153               -0.05435052                0.18432247
               5.98156383                5.00416655               57.06639378                0.01000000               -0.30179073               -0.46045160                0.14253031                2.38713530               -0.09981849                0.26178705
               6.97897723                5.01295420               57.06838677                0.01000001               -0.18831014               -0.59070040                0.12604646                2.29058091               -0.15653489                0.36821980
               7.97779763                5.01853637               57.07051273                0.01000000               -0.00086880               -0.69532927                0.10478040                1.85993663               -0.18004947                0.46773596
               8.97895986                5.01813951               57.07330803                0.01000000                0.15189929               -0.79710791                0.08841183                1.16876745               -0.14981121                0.50921310
               9.98083561                5.00808439               57.07734786                0.01000002                0.18757558               -0.71678508                0.15296739                0.53897531               -0.08856244                0.42637743
               0.01047329                5.99915666               57.05524673                0.01000001                0.15200724               -0.79086227                0.10365884                0.88382492               -0.00912377                0.17721212
               1.01199336                5.98588748               57.05741544                0.01000001               -0.03441803               -0.48665124                0.11830917                1.21999740               -0.01358932                0.14471654
               2.00978493                5.97980495               57.05949269                0.01000000               -0.21183097               -0.50006359                0.13051586                1.81722106               -0.01230764                0.11255472
               3.00775674                5.97884031               57.06167731                0.01000001               -0.29269022               -0.46038652                0.14214990                1.88388949                0.00502678                0.10203809
               4.00393113                5.98316251               57.06408289                0.01000001               -0.37309660               -0.49902755                0.15130117                2.16524932                0.02025342                0.13698436
               5.00029481                5.99042484               57.06666116                0.01000001               -0.35993014               -0.46257196                0.15840884                2.30430914                0.02142054                0.20389053
               5.99673252                5.99928741               57.06933206                0.01000002               -0.31278901               -0.45701429                0.15818354                2.27264047                0.00376373                0.30363814
               6.99403903                6.00719087               57.07202588                0.01000000               -0.18854806               -0.51510018                0.15245946                1.98449457               -0.02604464                0.42604347
               7.99296156                6.01185735               57.07475598                0.01000000               -0.02952959               -0.59223253                0.14082444                1.50559346               -0.05439787                0.53881230
               8.99344844                6.01140908               57.07755536                0.01004717                0.06148925               -0.56897162                0.14131354                0.82295745               -0.04749606                0.57324791
               9.99419135                6.00416643               57.08061858                0.01000000                0.07429070               -0.25634043                0.18775306                0.37629538               -0.01674035                0.41942582
               0.03611273                6.98708002               57.05776740                0.94856176               -0.03159245               -0.61702820                0.08956991                0.97617859               -0.01327331                0.09458492
               1.03579681                6.98091566               57.05971112                0.67259660               -0.03553532               -0.26662947                0.12039462                0.88501184               -0.02277584                0.07455248
               2.03540203                6.97475391               57.06147367                0.01000000               -0.54425469               -0.27526360                0.14416500                1.28783998               -0.02167183                0.05721306
               3.02491171                6.97483753               57.06344462                0.01000001               -0.76991090               -0.53712859                0.15131944                1.81725481                0.02128513                0.07737368
               4.02000381                6.97779736               57.06606016                0.01006831               -0.49686920               -0.53763497                0.17025888                1.99645884                0.07918937                0.11606652
               5.01497433                6.98578350               57.06905893                0.01000001               -0.48765977               -0.45324098                0.17211837                2.23862378                0.11314654                0.19655692
               6.01025061                6.99502627               57.07237235                0.01000000               -0.44385691               -0.32162752                0.17471960                2.02734261                0.13055911                0.30558001
               7.00609719                7.00265220               57.07590820                0.01000000               -0.32796618               -0.33607991                0.17228632                1.55823989                0.13316244                0.43259194
               8.00369129                7.00669172               57.07943877                0.01007812               -0.14936345               -0.41460623                0.16901359                0.99515298                0.11272582                0.57220618
               9.00310992                7.00676008               57.08264596                0.01000002               -0.04222387               -0.38653952                0.17368236                0.47068400                0.06589931                0.62031325
              10.00284681                7.00295758               57.08514891                0.01000000               -0.02631115               -0.04309027                0.19486405                0.18005402                0.03908993                0.52277277
               0.04232559                7.98681609               57.05861114                1.00000000               -0.03058882               -0.02629843                0.08830629               -0.00003380               -0.00381248                0.01340420
               1.04201971                7.98055489               57.06056087                0.99999999               -0.03528685               -0.03581646                0.11855475                0.00097826               -0.00517126                0.00350805
               2.04161986                7.97429968               57.06248449                0.30467161               -0.04806581               -0.04620199                0.15184224                0.00394649                0.02449600                0.00316835
               3.04105839                7.96809774               57.06502071                0.01000007               -0.43527648               -0.36967657                0.24193576                1.03154900                0.07931727               -0.01950288
               4.03291433                7.97240981               57.06775112                0.01000001               -0.66100032               -0.83562889                0.17803423                2.01665990                0.12852385                0.08727369
               5.02783838                7.98136002               57.07124846                0.01000000               -0.62518249               -0.26511106                0.18447182                2.10090098                0.19461631                0.16573697
               6.02041068                7.99285486               57.07519313                0.01000000               -0.71500024               -0.06295233                0.18679641                1.67834249                0.25128462                0.25649674
               7.01353838                8.00046927               57.07959742                0.01006967               -0.58269691               -0.08123390                0.18668827                1.02348095                0.31868553                0.37120749
               8.00875674                8.00356522               57.08457452                0.01000002               -0.34710607               -0.16908142                0.18302004                0.41305422                0.32215967                0.52250674
               9.00659626                8.00367829               57.08860008                0.01000002               -0.16796561               -0.22052997                0.18195062               -0.05772069                0.22330854                0.84228129
              10.00539743                8.00330463               57.09122836                0.01000001               -0.11988299               -0.06821253                0.19117543               -0.09505628                0.16277803                0.63016222
               0.04863447                8.98655405               57.05951486                1.00000000               -0.03016820               -0.02591316                0.08666793                0.00008988                0.00210045                0.01334311
               1.04833279                8.98019933               57.06143572                0.99999999               -0.03481847               -0.03555361                0.11750325               -0.00030870                0.00352457                0.00323437
               2.04793810                8.97382987               57.06337780                0.99999999               -0.04501143               -0.04609016                0.15093035               -0.00105032                0.00375626               -0.00183123
               3.04743256                8.96744400               57.06528227                0.23480142               -0.04316866               -0.06065932                0.18884105                0.00373647                0.10841364               -0.03861234
               4.04707473                8.96108479               57.06929108                0.01000000               -0.54426302               -0.60132795                0.18492644                1.68286784                0.18891747                0.02180123
               5.03654730                8.98048128               57.07304772                0.01000000               -1.11832573                0.15242102                0.19498560                1.80179944                0.23471250                0.09787538
               6.02470821                8.99376722               57.07732265                0.01005165               -1.03454239                0.17707371                0.19279705                1.02297607                0.32748344                0.15238443
               7.01585645                9.00102752               57.08241301                0.01000002               -0.79824281                0.11261486                0.19238907                0.48081711                0.45526763                0.22179077
               8.00874336                9.00331009               57.08854640                0.01000002               -0.68201727                0.07329575                0.18876294                0.03973773                0.75239161                0.33351496
               9.00221611                9.00234948               57.09846771                1.00000000               -0.35251753               -0.09266465                0.17549481               -0.26736742                0.51062699                0.50790228
              10.00169301                9.00159333               57.09816754                0.99999994               -0.05230999               -0.11138881                0.17307627               -0.22310017               -0.00044291                0.36057856
               0.05503685                9.98629783               57.06036104                1.00000000               -0.02991356               -0.02562234                0.08571394               -0.00516394                0.01050804                0.01036439
               1.05473771                9.97984381               57.06228013                0.99999995               -0.03413323               -0.03555123                0.11666474               -0.00550548                0.01465299                0.00173163
               2.05435418                9.97337787               57.06427360                0.99999989               -0.04297512               -0.04520004                0.14655574               -0.00635484                0.01622914               -0.00138603
               3.05387821                9.96688455               57.06621297                0.99999999               -0.04098907               -0.05594410                0.17788466               -0.00516617                0.11959110               -0.00544189
               4.05353440                9.96038325               57.07027193                0.01000002               -1.13431351               -0.07015331                0.18018594                1.52216157                0.19784762               -0.00192094
               5.03119194                9.98440844               57.07407732                0.01000001               -1.66052203                0.39271597                0.19373267                1.26511810                0.21459457                0.04317529
               6.02032396                9.99639634               57.07828184                0.01000000               -0.87900424                0.26291161                0.18971684                0.47723101                0.31849481                0.07721532
               7.01361185               10.00272157               57.08346542                0.01000001               -0.60472125                0.16940460                0.18961237                0.20728024                0.50604122                0.10886717
               8.00822953               10.00503114               57.09038019                0.01000000               -0.53230917                0.17210485                0.18714080               -0.09621084                0.70261204                0.18807232
               9.00296567               10.00182499               57.09818650                0.99999994               -0.28909035               -0.05244873                0.17392477               -0.12275798                0.40575383                0.00043276
              10.00244773               10.00107685               57.09788633                0.99998508               -0.05179422               -0.05164789                0.17150312                0.00065787                0.00043437               -0.00042344
              -0.04430367                0.00006518               58.04545187                0.99710502               -0.02308763               -0.02281406                0.07345895                0.00199642               -0.00810806                0.00763039
               0.95546545               -0.00320696               58.04866512                0.99999999               -0.02414469               -0.02507192                0.08074631                0.00116372               -0.00869174               -0.00153538
               1.95521343               -0.00646104               58.05186583                0.01000000                0.05828180               -0.02732976                0.08802346                0.09124835               -0.04966715               -0.00348384
               2.95663109               -0.00789404               58.05425422                0.01000000                0.12299146               -0.05184167                0.09688771                0.07483345               -0.09035631                0.00686094
               3.95767326               -0.00581813               58.05634972                0.01000000                0.04693163               -0.01485705                0.10147833                0.16824905               -0.10938162                0.01305490
               4.95756972                0.00079802               58.05806394                0.01000000               -0.16344140                0.02522737                0.10523473                0.32529365               -0.13948644                0.01876473
               5.95440443                0.01271150               58.05941269                0.01000002               -0.68050224                0.13657129                0.10457532                0.77513582               -0.16327537                0.01559053
               6.94395967                0.03190813               58.06057154                0.97249447               -0.53648833               -0.03007035                0.09318064                0.84229154               -0.08855761               -0.00138739
               7.94367467                0.03430817               58.06351701                1.00000000               -0.02921050               -0.03242475                0.09797939                0.00077109                0.00126917               -0.00017977
               8.94337546                0.03674373               58.06646865                0.99999997               -0.03069292               -0.03349696                0.10310106                0.00092537                0.00148784                0.00106838
               9.94306081                0.03921720               58.06941226                1.00000000               -0.03146550               -0.03503767                0.10815846               -0.00088207                0.00152500                0.00259147
              -0.04101158                0.99983704               58.04613967                1.00000000               -0.02482265               -0.02362012                0.07906626                0.00091019                0.00139068                0.00811830
               0.95874019                0.99654233               58.04935489                0.01000000               -0.02594827               -0.02596311                0.08635401                0.00007686                0.00424482               -0.00446261
               1.95846946                0.99326566               58.05262858                0.01000000               -0.08411162               -0.05624514                0.09363204                0.04102037               -0.03483212                0.00219411
               2.95705796                0.99158755               58.05505931                0.01000001               -0.17298667               -0.03778559                0.10133313                0.17294180               -0.08310239                0.01594708
               3.95500972                0.99403330               58.05714159                0.01000000               -0.27500614               -0.00442709                0.10365251                0.40185083               -0.11658209                0.02412826
               4.95155784                1.00105029               58.05881670                0.01000000               -0.42044933                0.02992392                0.10957420                0.70809775               -0.15761114                0.03479843
               5.94660074                1.01407722               58.05999224                0.01000001               -0.49867924                0.00112829                0.11149032                1.10125341               -0.19551158                0.04504124
               6.94158425                1.03160743               58.06082255                0.90598580               -0.26680791               -0.03179817                0.10611925                0.75816387               -0.10531868               -0.00164924
               7.94126458                1.03398392               58.06377342                0.99999999               -0.03270256               -0.03496258                0.11153855               -0.00033662                0.00072288                0.00026962
               8.94093020                1.03640876               58.06672775                0.99999999               -0.03430292               -0.03508368                0.11596460                0.00179931                0.00053461                0.00185678
               9.94057852                1.03886682               58.06967382                0.99999997               -0.03516839               -0.03755539                0.12088962                0.00019484                0.00031264                0.00388351
              -0.03769605                1.99959277               58.04684001                0.01000002               -0.02655898                0.06742282                0.08468065                0.08835252                0.00334576                0.09635183
               0.96203836                1.99627378               58.04998419                0.01000000               -0.06576659               -0.07267365                0.09196929                0.04175381                0.02165765                0.06922497
               1.96098862                1.99241406               58.05349826                0.01000001               -0.13580402               -0.11624732                0.09837727                0.14941741                0.00422932                0.03419390
               2.95932228                1.99135025               58.05610990                0.01000000               -0.23705444               -0.07693503                0.10470390                0.47464015               -0.06244905                0.04044811
               3.95624753                1.99409333               58.05824692                0.01000000               -0.38172598               -0.03860028                0.11148334                0.84834590               -0.10741271                0.05319634
               4.95168776                2.00139650               58.05995026                0.01000001               -0.51875806               -0.02909781                0.11739150                1.22835581               -0.15480370                0.07249594
               5.94587237                2.01273407               58.06117767                0.01000000               -0.62357584               -0.12489902                0.12140573                1.74746206               -0.24629505                0.09566413
               6.93921624                2.03127217               58.06107003                0.01000000               -0.35028835               -0.43279648                0.12123868                1.27302723               -0.15207825                0.14198484
               7.93886660                2.03360892               58.06403925                0.60793313               -0.03438457               -0.03645136                0.11792268                0.00218095                0.00100961                0.00496953
               8.93852855                2.03604206               58.06700021                0.99999999               -0.03590089               -0.03623019                0.12379444                0.00777628                0.00025742                0.00204226
               9.93814858                2.03846609               58.06995535                0.99999999               -0.03799684               -0.04213889                0.13591671                0.00253712               -0.00016742                0.00383075
              -0.03260655                3.00118549               58.04929745                0.01000035               -0.06394663                0.14071222                0.09171170                0.07686650                0.00209109                0.18592359
               0.96675399                2.99508885               58.05214767                0.01000001               -0.05060594               -0.15179182                0.09556183                0.17561027               -0.00045861                0.13860053
               1.96638134                2.99094072               58.05492226                0.01000000               -0.09412492               -0.21508600                0.10308802                0.48073067               -0.01381110                0.08006229
               2.96487149                2.99004885               58.05748405                0.01000000               -0.22254716               -0.19908002                0.11182104                0.87651970               -0.04449276                0.07163097
               3.96193039                2.99326130               58.05968087                0.01002354               -0.36936356               -0.15881107                0.12068766                1.30670914               -0.08807041                0.08625582
               4.95748422                3.00046834               58.06151171                0.01000000               -0.51280419               -0.15500992                0.12834680                1.73756890               -0.14110845                0.11386324
               5.95167431                3.01157924               58.06288539                0.01000001               -0.56571347               -0.22809139                0.13278225                2.01040519               -0.18379910                0.15141748
               6.94616995                3.02295150               58.06420262                0.01000001               -0.75680002               -0.62202938                0.13927424                2.05492128               -0.25688963                0.22422112
               7.93653831                3.03325490               58.06439883                0.01000002               -0.49706953               -0.35988107                0.02017900                1.47578080               -0.13890893                0.12983157
               8.93622856                3.03568416               58.06726788                0.01000000               -0.03785568               -0.42514799                0.12810098                1.02935540               -0.00570423                0.11770816
               9.93578119                3.03802404               58.07021622                0.99999998               -0.04473639               -1.02025088                0.15170731                1.19469023               -0.00232783                0.38971854
              -0.02396544                4.00240702               58.05166058                0.01000000               -0.02392175                0.05535846                0.10389951                0.18488251               -0.00288804                0.17846157
               0.97579534                3.99323795               58.05423445                0.01000000               -0.01956606               -0.25833479                0.10313743                0.42610168               -0.00536797                0.13884697
               1.97564324                3.98811234               58.05674891                0.01000000               -0.06316252               -0.34892185                0.10918867                0.86458395               -0.01321900                0.10856238
               2.97453209                3.98736865               58.05917604                0.01002075               -0.18405093               -0.33828188                0.11981320                1.30157852               -0.03068972                0.10067474
               3.97196222                3.99091711               58.06143942                0.01000000               -0.32054457               -0.30567751                0.13102440                1.73470018               -0.06274502                0.12006553
               4.96812120                3.99829630               58.06345940                0.01000001               -0.41824535               -0.29180766                0.14029187                2.09908255               -0.11098520                0.15933754
               5.96359731                4.00817224               58.06518521                0.01000001               -0.47410957               -0.37595623                0.14473690                2.36049355               -0.18747633                0.21322982
               6.95863901                4.01883158               58.06643561                0.01011215               -0.39738769               -0.47870528                0.13336937                2.35109613               -0.30892516                0.25629196
               7.95564956                4.02641130               58.06726695                0.01000001               -0.21462478               -0.68229827                0.09144647                2.24804120               -0.46955080                0.36872618
               8.95434651                4.02753910               58.06985836                0.01000000                0.08565278               -0.77964230                0.07810191                1.40668470               -0.80476787                0.76361201
               9.95736261                4.01806107               58.07822093                0.01000002                0.30161015               -1.39954131                0.05429372                0.98304995               -0.72233234                1.32475455
              -0.01057075                5.00229266               58.05400075                0.01000000                0.01414543               -0.19674708                0.11662126                0.36702596               -0.00679617                0.16859024
               0.98957070                4.98992216               58.05640292                0.01000000                0.00565306               -0.40655070                0.11404040                0.77508639               -0.01108890                0.14410882
               1.98954231                4.98396228               58.05873756                0.01000001               -0.07362087               -0.45751268                0.11801137                1.25741405               -0.01254339                0.12165229
               2.98809829                4.98328321               58.06109081                0.01000000               -0.19227820               -0.46587748                0.12927158                1.70420012               -0.01382615                0.12019910
               3.98569675                4.98714775               58.06346033                0.01000001               -0.29437734               -0.41822773                0.14230051                2.04730020               -0.02760607                0.14572640
               4.98221074                4.99463219               58.06575877                0.01000001               -0.36739228               -0.40883034                0.15296684                2.32863223               -0.06346971                0.20085863
               5.97834890                5.00406011               58.06787379                0.01002274               -0.36289620               -0.43827931                0.15813518                2.45329889               -0.13201881                0.27893604
               6.97495282                5.01337739               58.06968107                0.01000000               -0.27786424               -0.55035599                0.15212794                2.38525352               -0.23134247                0.38998384
               7.97279162                5.01960893               58.07155230                0.01000000               -0.11201683               -0.66655235                0.13735475                2.01570676               -0.37434999                0.60553733
               8.97271248                5.02009131               58.07386056                0.01000000                0.08033131               -0.73065473                0.10063474                1.28564414               -0.35072858                0.81171071
               9.97439824                5.01003322               58.07807723                0.01000000                0.16857635               -0.66989511                0.14002389                0.65948679               -0.17558148                0.46384879
               0.00811609                5.99847208               58.05632828                0.01000002                0.15113645               -0.79725312                0.11805886                0.88597571               -0.01201731                0.16126306
               1.00962745                5.98510693               58.05861727                0.01000001               -0.03428102               -0.49147246                0.12240531                1.22387846               -0.02048979                0.14749462
               2.00743047                5.97896208               58.06080436                0.01000000               -0.20984137               -0.50693493                0.12976393                1.82803772               -0.01549383                0.12430647
               3.00543062                5.97805110               58.06311810                0.01000001               -0.29356104               -0.47208228                0.14174101                1.90916243                0.00192064                0.11166212
               4.00155925                5.98255256               58.06560353                0.01000001               -0.38245721               -0.50036764                0.15462076                2.21403212                0.01582284                0.15652017
               4.99778148                5.99011969               58.06827102                0.01001513               -0.38205818               -0.45609198                0.16561619                2.37428665                0.00956070                0.22329822
               5.99391808                5.99940666               58.07094919                0.01000001               -0.34931106               -0.44198583                0.17053234                2.36801382               -0.02272750                0.32606106
               6.99079526                6.00782446               58.07360573                0.01000000               -0.23341535               -0.50335043                0.17149273                2.12199970               -0.08034078                0.46849168
               7.98924978                6.01308025               58.07619045                0.01000000               -0.05800749               -0.59765321                0.16493491                1.67810833               -0.12201536                0.62202720
               8.98963511                6.01292600               58.07896199                0.01000005                0.07093807               -0.62575289                0.16720672                0.98001811               -0.08109268                0.69451544
               9.99066854                6.00466317               58.08252288                0.01000000                0.10334277               -0.35428142                0.19002453                0.48248632               -0.01590079                0.51444458
               0.03387905                6.98634760               58.05866857                0.95352520               -0.03207862               -0.61966021                0.09143624                0.97767132               -0.01293629                0.08569005
               1.03355827                6.98009271               58.06092232                0.62835304               -0.03600784               -0.26862081                0.12106832                0.88581824               -0.02698765                0.07438600
               2.03315890                6.97382358               58.06290412                0.01000000               -0.54336024               -0.27907546                0.14334836                1.28976045               -0.04050484                0.06835716
               3.02269106                6.97384156               58.06488150                0.01000000               -0.76250499               -0.56245401                0.15713488                1.85807655                0.01424386                0.13528474
               4.01790880                6.97714039               58.06777676                0.01009017               -0.49243441               -0.53910211                0.16530461                2.05782150                0.07324443                0.12923058
               5.01284237                6.98551035               58.07078303                0.01000003               -0.49521924               -0.45383290                0.17602361                2.31399933                0.09659285                0.21650532
               6.00800441                6.99522039               58.07414441                0.01000000               -0.45615800               -0.31950276                0.18261627                2.12617702                0.11041381                0.32789432
               7.00371921                7.00331038               58.07766773                0.01000000               -0.33760851               -0.34084501                0.18464834                1.67819621                0.10437003                0.46349895
               8.00125224                7.00765587               58.08116665                0.01000001               -0.14946457               -0.43898766                0.18398191                1.11909347                0.08455532                0.61485622
               9.00072992                7.00757625               58.08442539                0.01000002               -0.03393044               -0.43443079                0.18791709                0.55319240                0.04771194                0.66307732
              10.00057363                7.00294759               58.08708652                0.01000000               -0.01562901               -0.07798918                0.20084674                0.21987095                0.03050907                0.53186483
               0.04017930                7.98607887               58.05949942                1.00000000               -0.03114616               -0.02667602                0.08986517                0.00021744               -0.00542078                0.01220215
               1.03986784                7.97973452               58.06174287                0.99999998               -0.03512383               -0.03565738                0.11874314                0.00077534               -0.00464434                0.00261081
               2.03947682                7.97338057               58.06401791                0.54015130               -0.02962474               -0.04431429                0.14653261               -0.00984700                0.06681444                0.00876728
               3.03927534                7.96680202               58.06770099                0.01000007               -0.42149637               -0.36653096                0.15474662                1.05630455                0.04583700                0.01818115
               4.03104689                7.97177051               58.06941738                0.01000001               -0.66469368               -0.85076095                0.17861402                2.07169235                0.06927962                0.10730851
               5.02598147                7.98104304               58.07311447                0.01000000               -0.62026541               -0.27113805                0.18431523                2.15730888                0.18724520                0.17864460
               6.01864159                7.99301660               58.07706426                0.01000000               -0.70288777               -0.07098922                0.19019259                1.75828898                0.23441693                0.27365559
               7.01192371                8.00100756               58.08148079                0.01000590               -0.56379044               -0.09745292                0.19230325                1.11414067                0.30174849                0.39093678
               8.00736578                8.00430050               58.08643571                0.01000002               -0.32582381               -0.19370863                0.19163014                0.50797432                0.30473771                0.54221212
               9.00540724                8.00423739               58.09045180                0.01000003               -0.15212457               -0.24665118                0.19089260                0.02984421                0.21280932                0.84862670
              10.00432328                8.00310339               58.09315239                0.01000001               -0.10839509               -0.05348164                0.19447874               -0.04204218                0.15859153                0.61884950
               0.04657211                8.98581408               58.06038239                0.99999997               -0.03000430               -0.02625607                0.08785094                0.00027455                0.00053663                0.01185558
               1.04627207                8.97937956               58.06260615                0.99999999               -0.03388319               -0.03548867                0.11685171                0.00070747                0.00324862                0.00377869
               2.04589445                8.97293729               58.06488970                0.99999999               -0.04224298               -0.04432008                0.14696243                0.00179279                0.00947827               -0.00184096
               3.04542721                8.96651094               58.06720295                0.30995128               -0.03964114               -0.04216016                0.18329136               -0.00924300                0.10302534               -0.07527025
               4.04510163                8.96012518               58.07127999                0.01000000               -0.53423735               -0.61797021                0.19876109                1.70569974                0.16981959                0.04845413
               5.03474246                8.98008758               58.07494373                0.01000000               -1.09479805                0.14118689                0.18846387                1.84403574                0.21218574                0.10318433
               6.02320567                8.99380061               58.07926204                0.01000005               -1.00121682                0.16129048                0.19420746                1.06829095                0.31511329                0.16164638
               7.01471813                9.00136133               58.08435300                0.01000002               -0.75118829                0.08940636                0.19660906                0.53060737                0.44278754                0.23069067
               8.00818190                9.00378169               58.09045391                0.01000000               -0.60971055                0.03955791                0.19341351                0.08980361                0.73526656                0.34130231
               9.00252392                9.00264323               58.10022280                1.00000000               -0.30905569               -0.10595342                0.17551660               -0.20144270                0.50422021                0.50380236
              10.00200079                9.00187796               58.09989794                1.00000000               -0.05231305               -0.08708485                0.17299142               -0.15446942               -0.00043810                0.35166266
               0.05305383                9.98555375               58.06121627                1.00000000               -0.02950567               -0.02603273                0.08678172               -0.00472968                0.00819532                0.00877429
               1.05275877                9.97902474               58.06344419                0.99994183               -0.03362666               -0.03548171                0.11578656               -0.00430915                0.01121134                0.00252750
               2.05238129                9.97249417               58.06573301                1.00000000               -0.04280848               -0.04431221                0.14566672               -0.00461200                0.01409709               -0.00209507
               3.05190260                9.96595882               58.06798358                0.99999999               -0.03985229               -0.05521258                0.18149795               -0.00661433                0.11430211               -0.01331942
               4.05158425                9.95941111               58.07226578                0.01000001               -1.13579261               -0.07140658                0.19869214                1.54365975                0.18585706               -0.00064147
               5.02918675                9.98386677               58.07596883                0.01000001               -1.64252919                0.37791890                0.18947173                1.28599325                0.19205119                0.04796735
               6.01873366                9.99624241               58.08021256                0.01000001               -0.83159859                0.24417993                0.19484636                0.49924534                0.30871345                0.07963101
               7.01255478               10.00279569               58.08539599                0.01000001               -0.54268592                0.14343616                0.19775901                0.22612705                0.49321219                0.11257076
               8.00787994               10.00509166               58.09227054                0.01000000               -0.46363278                0.13099622                0.19164252               -0.06406408                0.69016497                0.18774515
               9.00328212               10.00211832               58.09992615                1.00000000               -0.25577506               -0.05249117                0.17400379               -0.11067808                0.39949689                0.00045599
              10.00276444               10.00136169               58.09960121                0.99999990               -0.05176765               -0.05162662                0.17149417                0.00070285                0.00038213               -0.00043815
              -0.04763438               -0.00057443               59.04618772                0.99808601               -0.02304394               -0.02295287                0.07370898                0.00193608               -0.00809581                0.00761536
               0.95213518               -0.00394014               59.04947008                0.99999999               -0.02398893               -0.02497581                0.08024340                0.00104810               -0.00868334               -0.00154033
               1.95188585               -0.00728665               59.05273978                0.01000001                0.06731871               -0.02699834                0.08676733                0.09973119               -0.04911112               -0.00347900
               2.95348156               -0.00863885               59.05520823                0.01000001                0.13751064               -0.05822678                0.09560853                0.08165227               -0.08807855                0.00843709
               3.95463606               -0.00650551               59.05735916                0.01000000                0.05659649               -0.01815807                0.10046844                0.17366280               -0.11325990                0.01472702
               4.95461349                0.00021590               59.05911567                0.01000000               -0.15792157                0.02207501                0.10492491                0.32958057               -0.14491118                0.02058184
               5.95147763                0.01225645               59.06045168                0.01000003               -0.68083556                0.13530666                0.10549399                0.78255180               -0.17800388                0.01719621
               6.94099678                0.03158533               59.06150147                0.97156922               -0.53816477               -0.03007334                0.09244084                0.84907889               -0.09636769               -0.00086210
               7.94071433                0.03398926               59.06449292                1.00000000               -0.02891067               -0.03129383                0.09690125                0.00067513                0.00147873                0.00090690
               8.94041856                0.03643727               59.06749411                0.99999999               -0.03023037               -0.03250518                0.10137334                0.00070254                0.00189250                0.00174500
               9.94010972                0.03892925               59.07048594                0.99999247               -0.03088397               -0.03424722                0.10568569               -0.00143898                0.00212498                0.00391709
              -0.04424931                0.99919605               59.04693338                0.99999999               -0.02489194               -0.02381383                0.07967529                0.00096287                0.00139488                0.00810795
               0.95550178                0.99581011               59.05021772                0.01000000               -0.02590891               -0.02591394                0.08621166                0.00007449                0.00424561               -0.00446234
               1.95523252                0.99244337               59.05356043                0.01000000               -0.07971302               -0.05697018                0.09273784                0.05139012               -0.03461991                0.00206777
               2.95390751                0.99077888               59.05606446                0.01000001               -0.16436033               -0.04207685                0.10130429                0.18492768               -0.08608270                0.01514778
               3.95194531                0.99331291               59.05820257                0.01000000               -0.26896015               -0.00747376                0.10617650                0.41246676               -0.11895122                0.02791221
               4.94852831                1.00043665               59.05991499                0.01000000               -0.41634407                0.02734395                0.10937899                0.71665457               -0.16085628                0.04011391
               5.94361843                1.01360952               59.06110789                0.01000001               -0.49535756               -0.00225662                0.11119890                1.10956047               -0.20370707                0.04810726
               6.93862116                1.03128460               59.06188809                0.90191132               -0.26616589               -0.03240442                0.10738590                0.76624138               -0.10949365                0.00017813
               7.93829511                1.03367632               59.06489114                0.99999995               -0.03327836               -0.03321988                0.11133664               -0.00009948                0.00061448               -0.00159664
               8.93795559                1.03611222               59.06788672                0.99999999               -0.03458774               -0.03432256                0.11546398                0.00025356               -0.00033688                0.00058742
               9.93760336                1.03858678               59.07087945                0.99995982               -0.03522377               -0.03675253                0.12006764               -0.00177586               -0.00054504                0.00705403
              -0.04084324                1.99894930               59.04769165                0.01000000               -0.02674115                0.07038022                0.08564865                0.09938041                0.00334130                0.09672778
               0.95888935                1.99554159               59.05090497                0.01000000               -0.06059422               -0.07516188                0.09218708                0.05276092                0.02151368                0.06766212
               1.95794488                1.99157395               59.05448540                0.01000001               -0.12893860               -0.11837958                0.09985613                0.16575075                0.00738842                0.03118834
               2.95631058                1.99051961               59.05717743                0.01000000               -0.23586265               -0.07846085                0.10862401                0.49481521               -0.05852158                0.04131816
               3.95322762                1.99334501               59.05938128                0.01000000               -0.38303043               -0.03961355                0.11586426                0.86570308               -0.10596143                0.05960332
               4.94864997                2.00076278               59.06114556                0.01000001               -0.52033680               -0.02980677                0.12096157                1.23924720               -0.15480753                0.08221591
               5.94282089                2.01221132               59.06240971                0.01000000               -0.61975846               -0.12684554                0.12433207                1.75101746               -0.24778779                0.10412048
               6.93625480                2.03093724               59.06229463                0.01000000               -0.34680853               -0.44686931                0.12254930                1.26879037               -0.15782900                0.14766404
               7.93588472                2.03332486               59.06522161                0.36869059               -0.03708106               -0.02803313                0.12479453               -0.00497561               -0.00309226               -0.04776252
               8.93551318                2.03575082               59.06823954                1.00000000               -0.03798128               -0.03787423                0.12865325                0.00162696                0.00101626               -0.00371351
               9.93512509                2.03819420               59.07131756                0.99999999               -0.03880871               -0.04141858                0.13500600               -0.00158616                0.00279757                0.00964228
              -0.03544627                3.00060365               59.05021469                0.01000000               -0.06213867                0.14352461                0.09172854                0.08457769                0.00392388                0.18921508
               0.96393234                2.99430687               59.05309503                0.01000001               -0.04921096               -0.15408082                0.09453121                0.18987089                0.00645644                0.13111663
               1.96356951                2.99007578               59.05595501                0.01000000               -0.09497913               -0.21604709                0.10450553                0.50053009               -0.00310755                0.07366441
               2.96203276                2.98920966               59.05861830                0.01000000               -0.22766526               -0.19837453                0.11627811                0.90067266               -0.03475040                0.07212751
               3.95901620                2.99252063               59.06091742                0.01002858               -0.37929046               -0.15611580                0.12727133                1.32902467               -0.08066526                0.09401329
               4.95444695                2.99984051               59.06283361                0.01000000               -0.52759453               -0.14982346                0.13627009                1.75058640               -0.13605474                0.12494133
               5.94846431                3.01107261               59.06426665                0.01000001               -0.57817633               -0.22193370                0.14310397                1.99345743               -0.17833275                0.16167775
               6.94288342                3.02234721               59.06564432                0.01000000               -0.75411475               -0.61424892                0.14306516                2.00626180               -0.30182222                0.22765873
               7.93338202                3.03311566               59.06468123                0.01000001               -0.48823139               -0.36699388                0.12113702                1.26285904               -0.15674094                0.13282649
               8.93311879                3.03535474               59.06855015                0.05001642               -0.03485716                0.01399842                0.14106311                0.08506746                0.04023130                0.11355901
               9.93268487                3.03775841               59.07174229                0.99999997               -0.04339203               -0.05289909                0.14969173                0.09060380                0.00593288                0.15207045
              -0.02655812                4.00181979               59.05273088                0.01000000               -0.02272400                0.04988610                0.10254555                0.18421278                0.00391090                0.18335586
               0.97321464                3.99245997               59.05525422                0.01000000               -0.01945959               -0.25794169                0.09819538                0.42937257                0.00795133                0.13294102
               1.97305269                3.98725301               59.05783086                0.01000000               -0.06677315               -0.34714998                0.10811417                0.87971618                0.00565202                0.10219050
               2.97187917                3.98655212               59.06038331                0.01002577               -0.19377106               -0.33512445                0.12319197                1.32645585               -0.01326849                0.10176770
               3.96917726                3.99022270               59.06278032                0.01000000               -0.33847247               -0.29961527                0.13823239                1.76306231               -0.05003132                0.12828509
               4.96510972                3.99776631               59.06491613                0.01000001               -0.44969635               -0.28000100                0.15111046                2.12165986               -0.10265249                0.17095714
               5.96018334                4.00777264               59.06671649                0.01000001               -0.53863719               -0.35456563                0.16214367                2.37113987               -0.18436531                0.22354325
               6.95433698                4.01865226               59.06795702                0.01000000               -0.60244835               -0.43817245                0.17026774                2.30003976               -0.31214983                0.25900629
               7.94813437                4.02598499               59.06873383                0.01000001               -1.08826011               -0.56960209                0.21488574                2.50638245               -0.47127074                0.42201388
               8.93257178                4.03603079               59.07132782                0.01000000               -0.80022728               -0.50423193                0.09750416                2.17263966               -0.98802802                0.69838838
               9.93212982                4.03713622               59.07501152                0.01000001               -0.04419542               -1.23494980               -0.14567639                1.92083191               -1.09304015                1.33772301
              -0.01304238                5.00160137               59.05524855                0.01000003                0.01289482               -0.20528423                0.13582238                0.36532072               -0.00201041                0.17578878
               0.98708657                4.98914803               59.05754593                0.01000000                0.00570291               -0.40710035                0.10878875                0.77121303                0.00084554                0.14563716
               1.98707168                4.98313278               59.05989820                0.01000001               -0.07471923               -0.45642460                0.11081478                1.26403357                0.00784522                0.12185834
               2.98559219                4.98250717               59.06238585                0.01000000               -0.20042117               -0.46346267                0.12963296                1.72561792                0.00636523                0.12533414
               3.98306326                4.98652833               59.06490861                0.01000001               -0.31309955               -0.41231040                0.14850439                2.08253614               -0.01296886                0.15681371
               4.97933020                4.99424049               59.06734385                0.01000001               -0.40310527               -0.39498814                0.16438971                2.37418040               -0.05434206                0.21296853
               5.97500115                5.00398129               59.06955648                0.01003887               -0.43291610               -0.41173141                0.17752338                2.50515970               -0.12504377                0.28912736
               6.97067188                5.01358376               59.07142932                0.01000281               -0.44350077               -0.50391080                0.19466554                2.52981501               -0.22256407                0.39014574
               7.96613114                5.02172362               59.07325983                0.01000000               -0.26257608               -0.56507248                0.19683069                2.43584794               -0.37666437                0.60514017
               8.96542035                5.02527010               59.07532072                0.01000000                0.13797581               -1.06481137                0.21782098                2.21290856               -0.32439432                0.79094899
               9.96889065                5.01305941               59.08014834                0.01000001                0.34703009               -1.58450949                0.19153476                1.51001823               -0.12745175                0.65724107
               0.00565497                5.99771410               59.05760791                0.01000002                0.14525239               -0.79893434                0.15356077                0.87982931               -0.01598531                0.13028699
               1.00710749                5.98431796               59.05986355                0.01000001               -0.03403732               -0.49351284                0.12411217                1.21726713               -0.02307102                0.14616896
               2.00497422                5.97812452               59.06208796                0.01000000               -0.20557538               -0.51126343                0.12248015                1.82629862               -0.00890139                0.13734426
               3.00299598                5.97728286               59.06451213                0.01000001               -0.29397768               -0.47734159                0.13852215                1.92918666                0.01424194                0.13293859
               3.99909467                5.98197649               59.06717531                0.01000001               -0.39278070               -0.49801007                0.15873919                2.25437910                0.02544886                0.16630252
               4.99514037                5.98986654               59.06997349                0.01003317               -0.40757021               -0.44851665                0.17517962                2.43849349                0.01375481                0.23648486
               5.99094326                5.99953802               59.07274271                0.01000003               -0.39747061               -0.42561080                0.18729106                2.46402706               -0.02136643                0.33371703
               6.98719096                6.00857405               59.07545574                0.01000000               -0.28891353               -0.47683240                0.19684455                2.28179959               -0.08112823                0.46903942
               7.98516499                6.01468354               59.07805468                0.01000000               -0.08484002               -0.64900173                0.20773928                1.93270576               -0.12069008                0.62048024
               8.98549416                6.01473456               59.08089950                0.01000829                0.07932851               -0.83691421                0.21241413                1.17432151               -0.08470782                0.69834993
               9.98675156                6.00544603               59.08441907                0.01000000                0.12574058               -0.50470232                0.20089188                0.53334992               -0.03018758                0.49287240
               0.03134650                6.98562268               59.05959612                0.96023431               -0.03249935               -0.61838971                0.09425502                0.96927501               -0.01278412                0.06786189
               1.03102150                6.97927778               59.06213249                0.57959647               -0.03568724               -0.26973415                0.12109796                0.87928346               -0.02957795                0.07250794
               2.03063275                6.97290751               59.06434064                0.01000000               -0.53487765               -0.28175359                0.14050221                1.28531850               -0.04308348                0.07604659
               3.02032395                6.97296034               59.06658732                0.01000000               -0.75327956               -0.55714773                0.15664748                1.86201451                0.00383988                0.10071858
               4.01556716                6.97656813               59.06936625                0.01011056               -0.48927060               -0.54618677                0.16239247                2.10507956                0.05877963                0.14816923
               5.01053854                6.98527016               59.07257940                0.01000001               -0.49964844               -0.45471639                0.18214257                2.38484918                0.09223071                0.22842168
               6.00557419                6.99546908               59.07602467                0.01000000               -0.46880960               -0.31638399                0.19291427                2.22831914                0.10577137                0.33359805
               7.00116235                7.00404711               59.07960117                0.01000000               -0.34747276               -0.34856572                0.20084003                1.81427287                0.10022349                0.46518476
               7.99862474                7.00874358               59.08311841                0.01000002               -0.15090282               -0.47806656                0.20561167                1.26000964                0.08005628                0.61405083
               8.99814429                7.00853181               59.08640431                0.01000002               -0.02450085               -0.49405771                0.20777557                0.64316940                0.04592613                0.65578311
               9.99813472                7.00296537               59.08916585                0.01000000               -0.00095702               -0.12879141                0.20988311                0.26418169                0.02989586                0.52313216
               0.03773028                7.98534631               59.06040844                1.00000000               -0.03219477               -0.02741857                0.09281969                0.00025675               -0.00550655                0.01076061
               1.03740833                7.97892328               59.06293573                0.99999998               -0.03661265               -0.03521001                0.11868514                0.00060431               -0.00850462                0.00102311
               2.03699803                7.97248944               59.06541515                0.51206777               -0.04163388               -0.04147792                0.13901062                0.00573684                0.00038640                0.01027743
               3.03657566                7.96613991               59.06811564                0.01000933               -0.40557951               -0.36521737                0.08428386                1.06710650                0.02473178                0.03321802
               4.02888644                7.97105275               59.07132340                0.01000001               -0.63196266               -0.86813321                0.17334763                2.08977446                0.10694823                0.11368575
               5.02393640                7.98077222               59.07493476                0.01000000               -0.60768735               -0.27897791                0.18429617                2.22140013                0.17385550                0.18290111
               6.01673269                7.99321034               59.07899698                0.01000000               -0.68672475               -0.08086137                0.19520279                1.84287642                0.23035262                0.27594566
               7.01020191                8.00160273               59.08344349                0.01000708               -0.54261037               -0.11604881                0.20088762                1.21349285                0.29539242                0.39196422
               8.00588048                8.00512220               59.08840713                0.01000002               -0.30330728               -0.22211413                0.20186941                0.61024151                0.29918018                0.54181465
               9.00413576                8.00485341               59.09241793                0.01000004               -0.13561953               -0.27903138                0.20065737                0.12300953                0.20761918                0.83576520
              10.00316809                8.00287020               59.09511793                0.01000000               -0.09676693               -0.03938041                0.19920109                0.01164142                0.15224320                0.59529171
               0.04419770                8.98507431               59.06127188                1.00000000               -0.03072406               -0.02703750                0.09107118                0.00065796               -0.00085869                0.01051499
               1.04389046                8.97857358               59.06377275                0.99999999               -0.03334191               -0.03525020                0.11649693                0.00202520                0.00038564                0.00232089
               2.04353086                8.97207795               59.06631705                1.00000000               -0.03938411               -0.04200480                0.13962393                0.00905573                0.00745256                0.00188316
               3.04310277                8.96565599               59.06894809                0.40579459               -0.04002575               -0.05415042                0.17586026                0.00916647                0.10065432               -0.00610505
               4.04273034                8.95920546               59.07326630                0.01000000               -0.51469083               -0.63269605                0.18748154                1.72072313                0.15775535                0.03532569
               5.03280896                8.97969060               59.07681700                0.01000000               -1.05645693                0.12726777                0.18267007                1.88980836                0.19804084                0.10536515
               6.02160121                8.99385185               59.08120680                0.01000946               -0.96443113                0.14387919                0.19688486                1.11869587                0.30936236                0.16142176
               7.01352033                9.00172614               59.08634520                0.01000002               -0.70111569                0.06421338                0.20169800                0.58328317                0.43619035                0.23176507
               8.00757889                9.00430130               59.09241467                0.01000000               -0.53319252                0.00152892                0.19835755                0.14236225                0.72089732                0.33912697
               9.00285648                9.00295119               59.10197805                1.00000000               -0.26224636               -0.12129977                0.17559580               -0.13171853                0.49531712                0.49422593
              10.00233396                9.00217776               59.10162737                0.99999999               -0.05225206               -0.06043333                0.17292214               -0.08048567               -0.00046369                0.34062075
               0.05074491                9.98480556               59.06209668                0.99998474               -0.02997137               -0.02687527                0.09018939               -0.00400710                0.00523701                0.00751122
               1.05044520                9.97821827               59.06459586                0.99999999               -0.03240920               -0.03553029                0.11554643               -0.00233638                0.00873921                0.00189391
               2.05009673                9.97164935               59.06718694                0.99999998               -0.04068623               -0.04286035                0.14091459               -0.00148172                0.01733813                0.00152829
               3.04963147                9.96505690               59.06984293                1.00000000               -0.04152184               -0.05990908                0.18560598               -0.00965592                0.11283349               -0.00119744
               4.04926629                9.95839883               59.07424577                0.01000001               -1.12726452               -0.08066330                0.18763168                1.56662831                0.17210906                0.01143594
               5.02708618                9.98331757               59.07786676                0.01000001               -1.60976097                0.36269713                0.18531451                1.31217704                0.18148809                0.04663383
               6.01707107                9.99608792               59.08217876                0.01000001               -0.78340317                0.22360694                0.20076898                0.52545809                0.30349317                0.07893240
               7.01141812               10.00288700               59.08742060                0.01000001               -0.47841966                0.11608632                0.20583840                0.24302168                0.48453934                0.11223677
               8.00750268               10.00515278               59.09421304                0.01000000               -0.38965924                0.08514820                0.19739087               -0.03060059                0.67284209                0.18335542
               9.00362494               10.00242741               59.10166658                0.99999999               -0.21987206               -0.05237730                0.17407012               -0.09771736                0.39044300                0.00033093
              10.00310524               10.00166154               59.10131621                0.99999999               -0.05196975               -0.05162226                0.17139959                0.00053949                0.00066886               -0.00037709
              -0.05103030               -0.00127385               60.04692605                0.99912202               -0.02299755               -0.02308933                0.07394858                0.00187466               -0.00808404                0.00759917
               0.94873972               -0.00473305               60.05026999                0.99999999               -0.02383195               -0.02487669                0.07973525                0.00093135               -0.00867522               -0.00154566
               1.94849306               -0.00817191               60.05360118                0.01000000                0.07552066               -0.02666911                0.08551774                0.10849045               -0.04734685               -0.00347518
               2.95025013               -0.00943776               60.05616639                0.01000000                0.15037816               -0.06409347                0.09681830                0.09247805               -0.08868598                0.00958716
               3.95150062               -0.00721041               60.05835909                0.01000000                0.06644239               -0.02201632                0.10243493                0.18039445               -0.11939327                0.01740867
               4.95157898               -0.00038898               60.06016244                0.01000000               -0.15210309                0.02116650                0.09861980                0.33331289               -0.16170173                0.03056074
               5.94845856                0.01174301               60.06152257                0.01000003               -0.67939507                0.13383158                0.11010366                0.78482577               -0.19539468                0.02213430
               6.93799108                0.03111766               60.06242035                0.97044405               -0.53734762               -0.02998309                0.09168874                0.85134686               -0.10569631               -0.00048789
               7.93771161                0.03352986               60.06545504                1.00000000               -0.02853928               -0.03065591                0.09534496                0.00045104                0.00176485                0.00002006
               8.93742029                0.03599341               60.06849611                0.99999998               -0.02959776               -0.03183357                0.09893347                0.00041837                0.00204029                0.00119897
               9.93711965                0.03850850               60.07152597                1.00000000               -0.03006439               -0.03322289                0.10244850               -0.00224182                0.00226613                0.00430519
              -0.04755235                0.99849526               60.04773317                1.00000000               -0.02495813               -0.02400655                0.08027897                0.00101435                0.00139899                0.00809696
               0.95219806                0.99501818               60.05107912                0.01000000               -0.02586651               -0.02586171                0.08606321                0.00006533                0.00424738               -0.00446137
               1.95193032                0.99156140               60.05448334                0.01000000               -0.07519516               -0.05924275                0.09184526                0.06369986               -0.03279517                0.00334708
               2.95069416                0.98992130               60.05708539                0.01000000               -0.15750725               -0.04697296                0.10416550                0.20069336               -0.08558782                0.01741668
               3.94878017                0.99256943               60.05926512                0.01000000               -0.26293798               -0.01095188                0.10928057                0.42804688               -0.12724058                0.03485472
               4.94543540                0.99982269               60.06100428                0.01000000               -0.41133365                0.02555862                0.10481380                0.72480454               -0.17553481                0.05418662
               5.94055350                1.01308133               60.06221621                0.01000001               -0.49121386               -0.00426471                0.10586830                1.11520580               -0.20631967                0.05658497
               6.93561112                1.03081783               60.06297026                0.90025190               -0.26376299               -0.03242200                0.10862922                0.76993292               -0.11377057               -0.00044460
               7.93527824                1.03322330               60.06600015                1.00000000               -0.03379851               -0.03331351                0.11171340                0.00027478               -0.00008307               -0.00036056
               8.93493515                1.03567508               60.06903703                0.99999999               -0.03480484               -0.03445308                0.11533982               -0.00071973                0.00012232                0.00128942
               9.93458214                1.03817627               60.07207517                0.99999999               -0.03530129               -0.03562025                0.11899086               -0.00343857                0.00019883                0.00669119
              -0.04405586                1.99824602               60.04855298                0.01000001               -0.02692507                0.07176546                0.08662204                0.11354962                0.00333550                0.09644141
               0.95567489                1.99474971               60.05182793                0.01000000               -0.05401031               -0.08281215                0.09240506                0.06709709                0.02277551                0.06560656
               1.95486393                1.99064323               60.05549538                0.01000001               -0.12094595               -0.12464289                0.10385941                0.18693329                0.01267148                0.02902924
               2.95325597                1.98962278               60.05828238                0.01000000               -0.23518800               -0.08178939                0.11411249                0.52236202               -0.05430298                0.04343915
               3.95016017                1.99257056               60.06056420                0.01000000               -0.38463958               -0.04134555                0.12182252                0.89105103               -0.10610549                0.06987653
               4.94556318                2.00012220               60.06236949                0.01000001               -0.51963181               -0.03130499                0.12580369                1.25328242               -0.15789929                0.09896100
               5.93976754                2.01165772               60.06366431                0.01000000               -0.61577054               -0.12876582                0.12495123                1.75452358               -0.25425915                0.12350605
               6.93324777                2.03046922               60.06352101                0.01000003               -0.34538421               -0.44877716                0.12456221                1.26568370               -0.16006777                0.14884817
               7.93285985                2.03286359               60.06653514                0.36865032               -0.03974215               -0.04120434                0.13144792                0.00272749               -0.00220068               -0.01393342
               8.93245292                2.03530435               60.06957328                0.99999993               -0.04056832               -0.04040099                0.13409422               -0.00152626               -0.00063516               -0.00067476
               9.93204848                2.03779610               60.07265547                0.99999999               -0.04044383               -0.04023905                0.13456407               -0.00415391                0.00050495                0.00768458
              -0.03828875                2.99993057               60.05113202                0.01000001               -0.05684597                0.13971295                0.09189427                0.09923493                0.00420665                0.18294724
               0.96114279                2.99336194               60.05403830                0.01000000               -0.04576679               -0.16519245                0.09896024                0.21587343                0.01486810                0.11515771
               1.96079592                2.98906854               60.05701237                0.01000000               -0.09643565               -0.22151351                0.11081279                0.53434171                0.01220379                0.06159095
               2.95921408                2.98828552               60.05980961                0.01000000               -0.23470716               -0.19931619                0.12440564                0.93676355               -0.02060125                0.07050520
               3.95610177                2.99174252               60.06222630                0.01003399               -0.39000949               -0.15394696                0.13598817                1.35898351               -0.07020022                0.10216818
               4.95141389                2.99919659               60.06423711                0.01000000               -0.54024133               -0.14584938                0.14465515                1.76661462               -0.12674710                0.14074843
               5.94529695                3.01050601               60.06574747                0.01000001               -0.58474814               -0.21522197                0.15126920                1.98736381               -0.17142006                0.18054743
               6.93971893                3.02184228               60.06706393                0.01000000               -0.73996462               -0.61212597                0.15135275                1.95120581               -0.26453896                0.26104455
               7.93049766                3.03239921               60.06682157                0.01000236               -0.48734051               -0.32953052                0.19260100                1.15091349               -0.15066531                0.18573799
               8.92997212                3.03486706               60.07008914                0.05894798               -0.04910429               -0.02840281                0.15426691                0.04138067                0.00714272                0.05652821
               9.92951557                3.03737149               60.07321006                0.99584151               -0.04565482               -0.06933038                0.14955849                0.05473938               -0.00173889                0.08365495
              -0.02893390                4.00104028               60.05371149                0.01000000               -0.02117129                0.05004180                0.09878946                0.19470927                0.01509936                0.18696493
               0.97085438                3.99144587               60.05619836                0.01000000               -0.02194538               -0.25681831                0.09570786                0.44839269                0.03323218                0.09697975
               1.97062719                3.98621296               60.05891119                0.01000000               -0.07685616               -0.34630986                0.11319661                0.91269853                0.04065783                0.07570744
               2.96931726                3.98563645               60.06163987                0.01002609               -0.20992105               -0.33122251                0.13248458                1.36398735                0.01447991                0.09509404
               3.96642877                3.98949162               60.06420407                0.01000000               -0.35926405               -0.29267416                0.14803691                1.79731750               -0.03006189                0.13435126
               4.96213198                3.99720521               60.06648161                0.01000001               -0.47798258               -0.26811927                0.16179607                2.14618994               -0.08335536                0.18248393
               5.95686912                4.00735328               60.06842808                0.01000001               -0.58766494               -0.33447816                0.17535481                2.37435447               -0.15480201                0.23860994
               6.95037868                4.01822670               60.06984097                0.01000005               -0.70078843               -0.40803460                0.19677984                2.29994794               -0.21056853                0.28271083
               7.94285335                4.02627298               60.07156467                0.01000001               -1.10352133               -0.50041638                0.23990941                2.36894361               -0.32952650                0.42679490
               8.92830825                4.03473629               60.07180845                0.01000000               -0.73594734               -0.42642220                0.08560824                1.97502394               -0.19144051                0.30113387
               9.92813440                4.03640949               60.07530740                0.01000001               -0.01738532               -1.18004991                0.06685991                1.80123996               -0.02848204                0.37232174
              -0.01520573                5.00093140               60.05671720                0.01000003                0.01436941               -0.21550208                0.10999724                0.34036745                0.04010506                0.16314898
               0.98493796                4.98822557               60.05857869                0.01000000                0.00325146               -0.40010553                0.09089924                0.75212662                0.06498566                0.11110638
               1.98485930                4.98214234               60.06095385                0.01000001               -0.08613940               -0.44732182                0.11135414                1.27060774                0.06659551                0.09749962
               2.98321518                4.98166107               60.06368347                0.01000000               -0.21899639               -0.45640267                0.13495936                1.75287755                0.04874552                0.12133810
               3.98047937                4.98588904               60.06643042                0.01000001               -0.33695725               -0.40353245                0.15784693                2.11756212                0.01285996                0.16305161
               4.97647603                4.99383420               60.06904657                0.01000001               -0.43584119               -0.37956856                0.17503173                2.41423044               -0.03228730                0.22152756
               5.97176255                5.00381645               60.07142425                0.01006004               -0.48389217               -0.38702357                0.19185088                2.54933867               -0.08705422                0.29166611
               6.96679819                5.01368159               60.07357438                0.01000001               -0.51978076               -0.45966487                0.21481279                2.60282406               -0.15466206                0.38291379
               7.96136693                5.02239088               60.07548891                0.01000000               -0.37310523               -0.53208502                0.22587075                2.55979445               -0.18250355                0.46585505
               8.95933608                5.02633861               60.07821698                0.01000000                0.04135231               -0.94634397                0.24692305                2.23239597               -0.16740562                0.59207769
               9.96219398                5.01377049               60.08190792                0.01000001                0.28578953               -1.54531923                0.14996746                1.48775019               -0.15338090                0.55784655
               0.00328511                5.99673024               60.05939950                0.01000002                0.14008670               -0.80135508                0.25011775                0.85917008                0.02134978                0.10068576
               1.00468598                5.98344375               60.06109951                0.01000001               -0.03406295               -0.48774471                0.11105413                1.19102596               -0.00775964                0.15014700
               2.00260385                5.97726653               60.06325396                0.01000000               -0.20289292               -0.50625060                0.09753579                1.80238717                0.04241615                0.13384983
               3.00062812                5.97650840               60.06588855                0.01000001               -0.29984895               -0.47043195                0.13973924                1.93407545                0.05053509                0.14074457
               3.99660687                5.98142097               60.06877832                0.01000001               -0.40694699               -0.49666758                0.16518409                2.28591862                0.04642403                0.17323479
               4.99248918                5.98961384               60.07177461                0.01005285               -0.42991854               -0.43583492                0.18328739                2.48721869                0.03210156                0.24164073
               5.98800850                5.99961280               60.07469501                0.01000000               -0.43142270               -0.40891821                0.19847368                2.53775418                0.00184381                0.32963285
               6.98386073                6.00903340               60.07754262                0.01000000               -0.33081427               -0.45276309                0.21215469                2.39251152               -0.03282861                0.43620407
               7.98139222                6.01563128               60.08034523                0.01000000               -0.11420814               -0.64032243                0.22848622                2.07296568               -0.06298462                0.54773573
               8.98157656                6.01580941               60.08321028                0.01000523                0.08167129               -0.85825647                0.23025588                1.30683751               -0.05304413                0.57313929
               9.98302564                6.00550311               60.08654071                0.01000000                0.14490797               -0.55295636                0.20375301                0.64209339               -0.02366801                0.44167861
               0.02855064                6.98490430               60.06055367                0.96866585               -0.03284463               -0.60559537                0.09729837                0.94311133               -0.01180548                0.02636702
               1.02822219                6.97847068               60.06334428                0.52748707               -0.03541223               -0.26645211                0.12084539                0.85590466               -0.03301968                0.07029484
               2.02784240                6.97201733               60.06571416                0.01000001               -0.52399742               -0.28284087                0.13483085                1.27412684               -0.05623142                0.08774431
               3.01774225                6.97225243               60.06801445                0.01000000               -0.73750438               -0.57013967                0.14557411                1.85859756                0.00451478                0.10026405
               4.01309231                6.97595568               60.07102461                0.01000000               -0.48568388               -0.56383949                0.16694184                2.13124735                0.06887458                0.14547203
               5.00802857                6.98511751               60.07442588                0.01000000               -0.49971204               -0.45751890                0.18589544                2.44891088                0.09586172                0.23547982
               6.00309807                6.99563808               60.07800269                0.01000000               -0.46993103               -0.31297122                0.19908782                2.31201166                0.11757737                0.32362694
               6.99862995                7.00462633               60.08168453                0.01000000               -0.35239175               -0.34652903                0.21058240                1.92535216                0.11781276                0.44284325
               7.99605023                7.00958443               60.08527888                0.01000899               -0.15144721               -0.48953728                0.21845388                1.37649382                0.09702054                0.57093670
               8.99560100                7.00917348               60.08858090                0.01000002               -0.02008832               -0.52152319                0.21860806                0.71995918                0.05387143                0.60604048
               9.99564847                7.00271137               60.09128418                0.01000000                0.00474623               -0.14777042                0.21022289                0.30091322                0.02685022                0.48947894
               0.03501459                7.98461833               60.06135581                0.99999999               -0.03235447               -0.02840786                0.09651620               -0.00023466               -0.00635340                0.01018785
               1.03469104                7.97811471               60.06411657                0.99999999               -0.03549733               -0.03524153                0.11792761                0.00018989               -0.01071491               -0.00124118
               2.03430464                7.97160971               60.06679812                0.49490466               -0.04146624               -0.04070826                0.13646735                0.00083320               -0.01765361                0.00967049
               3.03386172                7.96510561               60.06938666                0.01000004               -0.39689499               -0.37954342                0.13624205                1.06416334                0.02302570                0.03094828
               4.02636674                7.97014418               60.07288433                0.01000001               -0.60383587               -0.90231804                0.16368170                2.13266857                0.12060219                0.11189223
               5.02178500                7.98046346               60.07680039                0.01000000               -0.58134153               -0.29273065                0.18209060                2.29717073                0.17964927                0.18053957
               6.01473991                7.99335338               60.08096832                0.01000000               -0.66817921               -0.08954095                0.19854456                1.92030062                0.23167242                0.26815029
               7.00842142                8.00210282               60.08549855                0.01000000               -0.51824853               -0.13034072                0.20680681                1.30456369                0.29754921                0.37642714
               8.00437494                8.00584053               60.09047309                0.01000002               -0.27863015               -0.24130549                0.20787740                0.70964481                0.30050585                0.51905101
               9.00284881                8.00537895               60.09446495                0.01000000               -0.12034002               -0.29471932                0.20551522                0.21618600                0.20634418                0.80240001
              10.00196814                8.00254770               60.09713641                0.01000000               -0.08806739               -0.01096375                0.20130085                0.06909426                0.14616578                0.56572222
               0.04155319                8.98433615               60.06220382                0.99999999               -0.03185729               -0.02819776                0.09560474                0.00025044               -0.00180845                0.00987032
               1.04123461                8.97776585               60.06493608                0.99999999               -0.03425109               -0.03491549                0.11653587                0.00096359               -0.00240248                0.00117083
               2.04086816                8.97120317               60.06768218                0.99999999               -0.03717838               -0.04123741                0.13622378                0.00360309                0.01056072               -0.00049089
               3.04049104                8.96466156               60.07072016                0.76746457               -0.02401677               -0.04802039                0.15777031               -0.00275623                0.08596782                0.01417152
               4.04038783                8.95790932               60.07502962                0.01000000               -0.48641324               -0.62316428                0.11028630                1.76185967                0.11020313                0.03834176
               5.03076278                8.97926289               60.07859713                0.01000000               -1.02615552                0.11182392                0.18068756                1.95182267                0.18669814                0.09954244
               6.01986472                8.99384726               60.08319974                0.01000218               -0.92643543                0.12618775                0.19874696                1.16331984                0.30844875                0.15689348
               7.01223407                9.00201952               60.08838696                0.01000002               -0.64488601                0.03933975                0.20498436                0.63504690                0.42946414                0.22285538
               8.00696700                9.00475832               60.09442106                0.01002329               -0.45082578               -0.03392502                0.20072494                0.19877244                0.70602909                0.32708973
               9.00321756                9.00327910               60.10373471                1.00000000               -0.21370691               -0.13155412                0.17500115               -0.05636207                0.48281762                0.48163054
              10.00269286                9.00249209               60.10335638                0.99999999               -0.05246965               -0.02856143                0.17298519               -0.00317972               -0.00158775                0.32576855
               0.04816019                9.98405438               60.06302006                0.99999815               -0.03168985               -0.02817695                0.09497414               -0.00309671                0.00475116                0.00699770
               1.04784329                9.97741640               60.06575512                1.00000000               -0.03396000               -0.03494452                0.11628712               -0.00260257                0.00603311                0.00174723
               2.04748099                9.97078496               60.06855130                0.99999996               -0.03714291               -0.04182038                0.13702006               -0.00227726                0.02258496                0.00080866
               3.04710044                9.96414520               60.07169570                0.99999998               -0.02391961               -0.05163576                0.16188176                0.00573555                0.09845901                0.00848211
               4.04700260                9.95768089               60.07601842                0.01000000               -1.11084603               -0.02284314                0.11157248                1.58921405                0.12214312                0.01484795
               5.02488351                9.98269994               60.07967512                0.01000001               -1.58764582                0.34370457                0.18195716                1.32188560                0.17089764                0.03869331
               6.01524968                9.99587714               60.08422794                0.01000001               -0.73361113                0.20298727                0.20562287                0.54798047                0.30147807                0.07516165
               7.01021129               10.00288962               60.08951276                0.01000001               -0.40794383                0.08701001                0.21100864                0.26196676                0.47409627                0.10599416
               8.00709081               10.00516203               60.09621836                0.01000000               -0.31117441                0.04037050                0.20111555                0.00529359                0.65053407                0.17551321
               9.00398780               10.00274787               60.10340755                0.99999999               -0.18061260               -0.05312281                0.17401327               -0.08225324                0.38041008                0.00203407
              10.00347855               10.00197647               60.10302920                0.99999998               -0.05092491               -0.05156236                0.17196561                0.00142949                0.00183912               -0.00183894
              -0.05448394               -0.00203670               61.04766669                1.00000000               -0.02295110               -0.02322538                0.07420126                0.00181000               -0.00805011                0.00760553
               0.94528655               -0.00558932               61.05106478                1.00000000               -0.02367773               -0.02477540                0.07923835                0.00081193               -0.00865895               -0.00154134
               1.94504251               -0.00912047               61.05445014                0.01000046                0.08316866               -0.02634211                0.08428253                0.11799335               -0.04358434               -0.00347819
               2.94694992               -0.01028512               61.05714460                0.01000002                0.16048190               -0.07036632                0.09984009                0.10396005               -0.08419896                0.01324862
               3.94825214               -0.00796939               61.05940786                0.01000000                0.06330289               -0.02257199                0.10755452                0.19437428               -0.13120774                0.01936269
               4.94821598               -0.00085657               61.06108807                0.01000000               -0.14701621                0.01698987                0.10635403                0.34911519               -0.17968292                0.02863586
               5.94531182                0.01131184               61.06265375                0.01000004               -0.66327996                0.12876318                0.06945453                0.78803897               -0.27827042                0.08433069
               6.93495038                0.03047575               61.06333525                0.97025917               -0.53189755               -0.03007064                0.09131832                0.84052264               -0.11811306               -0.00101037
               7.93467387                0.03289943               61.06639982                1.00000000               -0.02809723               -0.03104200                0.09406455                0.00046473                0.00173015                0.00008282
               8.93438844                0.03537942               61.06947278                1.00000000               -0.02892679               -0.03185700                0.09686227                0.00033482                0.00212286                0.00119275
               9.93409533                0.03791696               61.07253491                1.00000000               -0.02931039               -0.03258482                0.09971452               -0.00267367                0.00225334                0.00367256
              -0.05091322                0.99773105               61.04853896                0.99999999               -0.02502222               -0.02420153                0.08089463                0.00106311                0.00141181                0.00809534
               0.94883656                0.99416293               61.05193898                0.01000000               -0.02582195               -0.02580725                0.08591304                0.00004812                0.00425319               -0.00445627
               1.94857034                0.99061611               61.05539733                0.01000000               -0.07112885               -0.06270128                0.09094695                0.07748207               -0.02807456                0.00775504
               2.94741398                0.98901122               61.05814777                0.01000000               -0.15443643               -0.05253556                0.10880895                0.21972819               -0.08074654                0.02277050
               3.94548161                0.99180489               61.06038818                0.01000000               -0.26737311               -0.01246258                0.11753629                0.45341868               -0.13790133                0.04078715
               4.94206652                0.99931333               61.06201127                0.01000000               -0.39777807                0.01828660                0.11353209                0.74852361               -0.21376713                0.07446063
               5.93752605                1.01259947               61.06322525                0.01000001               -0.47523531               -0.00808274                0.10162738                1.10670358               -0.29638888                0.12224046
               6.93256181                1.03017504               61.06406067                0.89745997               -0.26496840               -0.03276026                0.10954877                0.76108880               -0.11135191               -0.00114800
               7.93222668                1.03258901               61.06712541                1.00000000               -0.03393949               -0.03373249                0.11269254                0.00001874                0.00012411               -0.00009303
               8.93188302                1.03506085               61.07019351                0.99999999               -0.03478133               -0.03470992                0.11557866               -0.00030971                0.00019785                0.00165492
               9.93153106                1.03759111               61.07325927                0.99991805               -0.03519665               -0.03519754                0.11809900               -0.00319980                0.00022344                0.00542742
              -0.04732644                1.99747927               61.04942409                0.01000000               -0.02711050                0.06865161                0.08760807                0.12845355                0.00332388                0.09564738
               0.95240246                1.99389454               61.05275307                0.01000000               -0.04648512               -0.09616645                0.09261528                0.08295130                0.02716805                0.06789702
               1.95174386                1.98962550               61.05656259                0.01000001               -0.11233783               -0.13621564                0.11060524                0.21207794                0.02020697                0.03481211
               2.95015570                1.98866417               61.05945968                0.01000000               -0.23627263               -0.08744738                0.12214491                0.55743436               -0.05003192                0.05038153
               3.94701841                1.99178136               61.06181773                0.01000000               -0.38819134               -0.04403791                0.13093737                0.92740400               -0.10728051                0.08112559
               4.94239187                1.99950916               61.06366163                0.01000001               -0.52171139               -0.03849838                0.13530280                1.28465721               -0.16954858                0.12906042
               5.93658418                2.01115019               61.06490874                0.01000000               -0.61046274               -0.13398436                0.13301697                1.74972145               -0.25199002                0.15195523
               6.93018262                2.02982054               61.06478588                0.01000003               -0.33978691               -0.44634468                0.12764626                1.25156650               -0.16069233                0.15630438
               7.92978844                2.03222478               61.06785057                0.36935298               -0.04012361               -0.03940600                0.13187838               -0.00092567               -0.00150824               -0.00260369
               8.92938015                2.03468522               61.07092142                1.00000000               -0.04088137               -0.04053574                0.13495833               -0.00108208               -0.00042547                0.00107610
               9.92897081                2.03721300               61.07400885                0.99999997               -0.04093329               -0.04057658                0.13609133               -0.00336084                0.00010932                0.00545705
              -0.04117468                2.99910408               61.05205258                0.01000137               -0.04759620                0.12473188                0.09739483                0.11838079                0.00821456                0.17525812
               0.95834936                2.99223960               61.05507424                0.01000000               -0.03915247               -0.20176850                0.11107584                0.25324195                0.02128303                0.10484193
               1.95804227                2.98789179               61.05817127                0.01000000               -0.09712737               -0.23999111                0.12468615                0.58515670                0.02137734                0.05695107
               2.95640681                2.98726227               61.06110641                0.01000000               -0.24287844               -0.20420126                0.13690808                0.98762689               -0.01144494                0.07450895
               3.95318470                2.99092413               61.06363718                0.01003452               -0.40079853               -0.15378797                0.14671921                1.39984894               -0.06330336                0.11297230
               4.94839084                2.99854336               61.06572671                0.01000000               -0.54878003               -0.14513159                0.15369344                1.79111901               -0.11889130                0.15651580
               5.94220910                3.00991978               61.06729203                0.01000001               -0.59361457               -0.21410643                0.15805939                1.99242730               -0.16143817                0.20247714
               6.93651855                3.02124815               61.06867137                0.01000000               -0.74328016               -0.60122617                0.16133548                1.93437571               -0.25246467                0.29023240
               7.92734350                3.03180089               61.06853325                0.01008840               -0.48226944               -0.31856205                0.16662637                1.13949505               -0.16468093                0.21267814
               8.92687316                3.03425013               61.07163549                0.05896221               -0.04676159               -0.03797952                0.15483868                0.02993883               -0.00020387                0.03492369
               9.92640826                3.03677958               61.07473346                0.99999997               -0.04648934               -0.06641078                0.15422376                0.03251810               -0.00115773                0.04798401
              -0.03122986                3.99997391               61.05470667                0.01000000               -0.00905533                0.00361324                0.09949308                0.24909747                0.00503545                0.14615354
               0.96867958                3.98985917               61.05716838                0.01000000               -0.01729075               -0.28852988                0.11907554                0.53260252                0.04405145                0.04700125
               1.96842432                3.98482568               61.06009480                0.01000000               -0.09018444               -0.35758966                0.13419384                0.99887632                0.06772103                0.04815866
               2.96687590                3.98458015               61.06303300                0.01003215               -0.23450146               -0.32885050                0.15021053                1.42818236                0.03683972                0.08931018
               3.96373429                3.98870560               61.06574106                0.01000000               -0.38286469               -0.28545113                0.16040094                1.83995223               -0.01553908                0.14112263
               4.95921860                3.99660653               61.06815205                0.01000001               -0.50031782               -0.25826619                0.17057671                2.17311168               -0.06670576                0.19314190
               5.95372794                4.00686806               61.07022359                0.01000001               -0.61147882               -0.31860487                0.18117908                2.38563215               -0.12075479                0.25215901
               6.94698903                4.01779602               61.07189262                0.01000000               -0.70757891               -0.38538831                0.19566926                2.29904585               -0.15761730                0.30171667
               7.93957636                4.02585354               61.07353201                0.01000001               -1.09943942               -0.47703694                0.18953390                2.33122902               -0.25864740                0.40771477
               8.92500024                4.03392563               61.07303998                0.01000000               -0.75070371               -0.42701529                0.16527458                1.94056599               -0.17675188                0.34834845
               9.92456228                4.03588479               61.07634872                0.01000001               -0.04379524               -1.18982750                0.15509208                1.79756091               -0.02458906                0.35997782
              -0.01596325                4.99917635               61.05744849                0.01000003                0.01128886               -0.20412782                0.09648346                0.42485521                0.07233238                0.18969557
               0.98414964                4.98646900               61.05936392                0.01000000               -0.03689654               -0.36519291                0.09523253                0.79909503                0.15054016               -0.03875632
               1.98329882                4.98074000               61.06212528                0.01000001               -0.15295525               -0.43922383                0.14695361                1.34127220                0.16406366                0.01999833
               2.98109053                4.98068526               61.06508504                0.01000000               -0.26707302               -0.44066856                0.15521546                1.80407732                0.08443789                0.11664791
               3.97795736                4.98521511               61.06806555                0.01000001               -0.36999587               -0.39293037                0.17045896                2.15477824                0.03234115                0.16736232
               4.97369062                4.99337804               61.07084448                0.01000001               -0.46125527               -0.36432444                0.18255557                2.44898399               -0.01139766                0.22541382
               5.96873225                5.00354769               61.07339350                0.01008010               -0.50883179               -0.36579102                0.19654005                2.58232681               -0.05121493                0.29126228
               6.96351398                5.01354038               61.07572558                0.01002595               -0.54468915               -0.43040180                0.21020015                2.63037999               -0.09185019                0.36487048
               7.95783847                5.02226015               61.07777724                0.01000000               -0.39303757               -0.50026320                0.21753993                2.54153640               -0.09974177                0.42356998
               8.95565323                5.02570983               61.08025918                0.01000000                0.03013436               -0.90460955                0.19545585                2.19802142               -0.07365628                0.55902254
               9.95844116                5.01298303               61.08314768                0.01000057                0.27879288               -1.54907238                0.14197282                1.48007195               -0.06159208                0.52558775
               0.00268193                5.99589135               61.06261027                0.01000003                0.04159048               -0.74913190                0.12402139                0.74101636                0.37970590               -0.34346829
               1.00309783                5.98255531               61.06208463                0.01000001               -0.08242091               -0.44011933                0.21924069                1.06004132                0.42928223               -0.09753529
               2.00103351                5.97604120               61.06403868                0.01000000               -0.23077513               -0.48108794                0.10681179                1.73753014                0.17415925                0.14395969
               2.99848233                5.97576677               61.06730692                0.01000001               -0.34482142               -0.46088787                0.15899044                1.94095304                0.10297842                0.14262242
               3.99413708                5.98084699               61.07047899                0.01000001               -0.43083121               -0.49217797                0.17409267                2.30645638                0.06588103                0.17380680
               4.98986571                5.98932004               61.07363923                0.01007159               -0.44624761               -0.42120314                0.18820315                2.52461586                0.04885503                0.23864050
               5.98521213                5.99955224               61.07671218                0.01000000               -0.44907727               -0.39396908                0.20130472                2.59013922                0.02957852                0.31659315
               6.98088416                6.00918798               61.07969883                0.01000000               -0.34872422               -0.42961651                0.21257283                2.45122348                0.01016107                0.40705121
               7.97823764                6.01584828               61.08262440                0.01000000               -0.13231843               -0.61128474                0.22102538                2.12378810               -0.00714644                0.48908196
               8.97823779                6.01583344               61.08550461                0.01000002                0.06898389               -0.81559390                0.21696997                1.33091286               -0.01587915                0.50759176
               9.97961732                6.00490334               61.08849413                0.01000000                0.13795308               -0.54118878                0.18837898                0.64819031               -0.01645146                0.43881548
               0.02552916                6.98419371               61.06154209                0.97788917               -0.03285458               -0.59957173                0.09998434                0.81727931               -0.01068620               -0.08393844
               1.02520062                6.97766662               61.06454940                0.47242677               -0.03456020               -0.26243296                0.11996728                0.77892145               -0.03669416                0.08020454
               2.02483796                6.97111824               61.06703725                0.01000001               -0.50484072               -0.26631802                0.12958091                1.20711198               -0.06218291                0.11505750
               3.01510380                6.97146750               61.06949880                0.01000000               -0.71523705               -0.58568046                0.15251089                1.83604683                0.01748156                0.10221689
               4.01053322                6.97537155               61.07270509                0.01000005               -0.48130560               -0.57807046                0.17111332                2.16170716                0.08110397                0.14719141
               5.00547769                6.98495398               61.07629731                0.01002315               -0.49330611               -0.45541398                0.18733554                2.49382237                0.11210460                0.22304212
               6.00066709                6.99566831               61.08000643                0.01000000               -0.46176405               -0.30879727                0.19935918                2.37249661                0.13488066                0.30837980
               6.99624241                7.00494805               61.08381282                0.01000000               -0.34991573               -0.33795703                0.21068115                2.00650547                0.14117109                0.41448953
               7.99366878                7.01003446               61.08748748                0.01000002               -0.15129946               -0.47436144                0.21699801                1.45682221                0.11905231                0.52671944
               8.99321642                7.00939795               61.09077647                0.01000002               -0.02018147               -0.50429209                0.21529756                0.77431657                0.06420912                0.55815998
               9.99326515                7.00215925               61.09337031                0.01000000                0.00487314               -0.13954453                0.20512185                0.33268889                0.02723590                0.46806817
               0.03208170                7.98389992               61.06233877                1.00000000               -0.03299671               -0.02931172                0.09969919               -0.00093523               -0.00639561                0.01101201
               1.03175173                7.97730665               61.06529429                0.99999995               -0.03534171               -0.03540858                0.11764037               -0.00108233               -0.01208583               -0.00269030
               2.03137486                7.97071484               61.06814449                0.46906554               -0.04008875               -0.04016445                0.13328616               -0.00667228               -0.02447310                0.01039210
               3.03094996                7.96405317               61.07084048                0.01000001               -0.37450551               -0.39185614                0.14347400                1.04708136                0.02224894                0.02940515
               4.02388475                7.96928558               61.07459704                0.01000001               -0.57522778               -0.92666698                0.16684676                2.13414081                0.12478332                0.06578527
               5.01944540                7.98021176               61.07857657                0.01000000               -0.56083841               -0.30736294                0.17781848                2.34929073                0.17683475                0.17676159
               6.01266798                7.99337629               61.08296787                0.01000000               -0.63986406               -0.09691040                0.19766607                1.97651672                0.23932686                0.25375986
               7.00664812                8.00242884               61.08757962                0.01000002               -0.48718948               -0.13895103                0.20635405                1.38153224                0.30333537                0.35426684
               8.00292419                8.00636105               61.09256467                0.01000002               -0.25243940               -0.24683123                0.20707805                0.80008453                0.30545838                0.48892473
               9.00159933                8.00574759               61.09652823                0.01000001               -0.10878503               -0.28783728                0.20413354                0.30562521                0.20647155                0.76476134
              10.00074849                8.00211245               61.09914395                0.01000000               -0.08508363                0.03205419                0.19869070                0.12617195                0.13969748                0.53797922
               0.03869699                8.98360747               61.06318397                0.99999999               -0.03329448               -0.02934440                0.09986890               -0.00049706               -0.00155364                0.01087656
               1.03836405                8.97695845               61.06610347                0.99999999               -0.03694965               -0.03457512                0.11695134               -0.00048177               -0.00151066                0.00098303
               2.03795800                8.97031495               61.06904152                0.99999995               -0.04446806               -0.03937850                0.13437082               -0.00475432                0.00468487                0.00007140
               3.03747469                8.96363038               61.07210350                0.78206763               -0.04502821               -0.03888578                0.13461625               -0.01465793                0.02344579                0.01295541
               4.03705744                8.95683821               61.07547203                0.01000000               -0.45509443               -0.62836967                0.06870934                1.75106583                0.10154291               -0.00468689
               5.02837280                8.97880672               61.08043075                0.01000000               -0.95385434                0.08618415                0.17616385                1.98705488                0.23432869                0.09564226
               6.01798035                8.99373010               61.08518174                0.01000002               -0.87422503                0.10792298                0.19627515                1.19786650                0.30611152                0.14713851
               7.01088830                9.00216903               61.09044488                0.01000002               -0.58143137                0.01632211                0.20399334                0.68146238                0.42545228                0.20904918
               8.00635172                9.00509783               61.09642917                0.01000006               -0.36553886               -0.06462951                0.19911031                0.25832726                0.69055798                0.31038235
               9.00357752                9.00364120               61.10547807                1.00000000               -0.16464226               -0.13125854                0.17293295                0.02627306                0.46881754                0.46697430
              10.00305888                9.00280033               61.10508708                1.00000000               -0.05186442                0.00833277                0.17326050                0.07342398               -0.00271110                0.31096648
               0.04536981                9.98331303               61.06399616                1.00000000               -0.03351955               -0.02944429                0.09955804               -0.00250609                0.00657437                0.00816674
               1.04503462                9.97661515               61.06692161                0.99999998               -0.03809860               -0.03432962                0.11692380               -0.00223099                0.00951291                0.00164047
               2.04460784                9.96992727               61.06992734                1.00000000               -0.04505410               -0.03876800                0.13623364               -0.00200082                0.01933157                0.00127838
               3.04413354                9.96327545               61.07308056                0.99999998               -0.04390540               -0.03549316                0.13512494                0.00543092                0.03637220                0.00406882
               4.04372973                9.95671819               61.07647722                0.01000000               -1.09194619               -0.01200213                0.07128180                1.60022965                0.11269331               -0.00754416
               5.02229461                9.98193545               61.08150590                0.01000001               -1.52333672                0.31287292                0.17597611                1.33300939                0.21979765                0.02857286
               6.01326300                9.99553475               61.08629122                0.01000001               -0.66924905                0.18046529                0.20440609                0.56925707                0.30133037                0.06798892
               7.00890963               10.00275529               61.09164077                0.01000001               -0.33222141                0.05862539                0.21161189                0.27881870                0.46334549                0.09745399
               8.00661857               10.00506846               61.09823535                0.01000000               -0.22436704               -0.00293756                0.20075600                0.04504182                0.62615520                0.16544555
               9.00442229               10.00312242               61.10514684                1.00000000               -0.13599311               -0.05187784                0.17373510               -0.05499054                0.36895971                0.00373688
              10.00389871               10.00227911               61.10475552                0.99996687               -0.05235814               -0.05212278                0.17406580               -0.00034841                0.00300895               -0.00330036
              -0.05798749               -0.00286628               62.04841007                1.00000000               -0.02294173               -0.02339552                0.07458637                0.00173248               -0.00798682                0.00765564
               0.94178309               -0.00651229               62.05185475                1.00000000               -0.02354784               -0.02469510                0.07881353                0.00068752               -0.00862164               -0.00152299
               1.94154156               -0.01013586               62.05528683                0.01000001                0.09126670               -0.02600885                0.08305053                0.12850524               -0.03679094               -0.00348972
               2.94360843               -0.01117914               62.05816319                0.01000001                0.16957179               -0.07592248                0.10195268                0.11559818               -0.07324858                0.01863860
               3.94493299               -0.00878380               62.06051018                0.01000000                0.05655030               -0.02408966                0.11371964                0.19839057               -0.12128076                0.02615560
               4.94473943               -0.00166265               62.06228952                0.01000001               -0.21435094                0.04009927                0.11445035                0.41187666               -0.20752589                0.01668880
               5.94064597                0.01228662               62.06291166                0.01298239               -0.64283412                0.09845275                0.08806375                0.75849699               -0.27070986                0.13308797
               6.93188275                0.02964660               62.06424672                0.97042860               -0.45186473               -0.03023655                0.09097944                0.74980268               -0.08667534               -0.00128117
               7.93160868                0.03208032               62.06733633                1.00000000               -0.02775457               -0.03096387                0.09321543                0.00037997                0.00164597                0.00000515
               8.93132766                0.03457580               62.07043336                0.99999999               -0.02841100               -0.03162680                0.09536544                0.00040392                0.00191329                0.00118041
               9.93104046                0.03713322               62.07352026                1.00000000               -0.02872034               -0.03223397                0.09758795               -0.00279402                0.00195113                0.00314857
              -0.05432416                0.99689976               62.04935106                0.99999343               -0.02510792               -0.02441808                0.08158403                0.00110735                0.00143519                0.00812394
               0.94542476                0.99324076               62.05279738                0.01000000               -0.02579014               -0.02576553                0.08579533                0.00004724                0.00427013               -0.00443974
               1.94516004                0.98960405               62.05630228                0.01000000               -0.06681915               -0.06492991                0.09002263                0.09203900               -0.01993313                0.01633390
               2.94408838                0.98806163               62.05926157                0.01000000               -0.15006929               -0.05745423                0.11233561                0.23815085               -0.06786450                0.03180981
               3.94215865                0.99097530               62.06161584                0.01000000               -0.28826926               -0.01360642                0.12471761                0.47781630               -0.12704802                0.04713123
               4.93832299                0.99873834               62.06327492                0.01000000               -0.47911678                0.03253047                0.13910336                0.83188027               -0.20991966                0.06473990
               5.93257632                1.01327115               62.06424876                0.01000001               -0.44195324               -0.08282902                0.12041426                1.17817052               -0.29751078                0.15457207
               6.92948393                1.02934423               62.06516124                0.89243200               -0.17142181               -0.03309979                0.11050164                0.68544366               -0.10858200               -0.00150351
               7.92914788                1.03177068               62.06825400                1.00000000               -0.03393385               -0.03383227                0.11295353                0.00003784                0.00041064                0.00013623
               8.92880525                1.03425953               62.07134860                1.00000000               -0.03463941               -0.03459502                0.11533383               -0.00006630                0.00026945                0.00184921
               9.92845509                1.03681088               62.07443715                0.99999999               -0.03501594               -0.03510871                0.11747261               -0.00309605                0.00014777                0.00465289
              -0.05064734                1.99664536               62.05030514                0.01000001               -0.02729026                0.06266980                0.08859696                0.14052413                0.00330770                0.09954478
               0.94907975                1.99297240               62.05368024                0.01000000               -0.03955946               -0.10986439                0.09279952                0.09725909                0.03573799                0.07740944
               1.94856147                1.98856554               62.05770749                0.01000001               -0.10397830               -0.14643461                0.11683793                0.23653098                0.02967157                0.05554260
               2.94700019                1.98767177               62.06072528                0.01000000               -0.23744296               -0.09296293                0.12874657                0.59047156               -0.04531942                0.06551971
               3.94381261                1.99094407               62.06318295                0.01000000               -0.39594950               -0.04483356                0.13967812                0.96864690               -0.10107985                0.08978512
               4.93908120                1.99898796               62.06507554                0.01000001               -0.51045604               -0.04509292                0.14492762                1.33720924               -0.16438720                0.13058587
               5.93360349                2.01063004               62.06632465                0.01000000               -0.59945548               -0.20152243                0.14875444                1.82719294               -0.25590846                0.16033538
               6.92709209                2.02898460               62.06607394                0.01000003               -0.34546732               -0.44020220                0.12987320                1.23590663               -0.16759333                0.16311520
               7.92669414                2.03140368               62.06917270                0.37630629               -0.04029759               -0.03996781                0.13282893               -0.00043344               -0.00047759                0.00303516
               8.92628614                2.03388390               62.07227244                1.00000000               -0.04091569               -0.04062785                0.13541209               -0.00050280               -0.00021247                0.00173666
               9.92587583                2.03643105               62.07537729                0.99999996               -0.04103093               -0.04097932                0.13721650               -0.00321585               -0.00005514                0.00453609
              -0.04416777                2.99815316               62.05307992                0.01000001               -0.03824663                0.09610408                0.10664589                0.13356834                0.01102937                0.17509329
               0.95544976                2.99104348               62.05625981                0.01000000               -0.03204688               -0.24380971                0.12593271                0.28948640                0.02067539                0.13256805
               1.95519129                2.98667536               62.05950610                0.01000000               -0.09652436               -0.26717043                0.13902543                0.63572077                0.01713173                0.08116000
               2.95351927                2.98620237               62.06254777                0.01000000               -0.24879426               -0.21138684                0.14864731                1.04054393               -0.01544607                0.09465176
               3.95021540                2.99007863               62.06516068                0.01003552               -0.40690311               -0.15291874                0.15496633                1.44102161               -0.06373009                0.12523421
               4.94538121                2.99783648               62.06731098                0.01000000               -0.55459389               -0.15188380                0.16088708                1.81981012               -0.11622245                0.16383838
               5.93912353                3.00924070               62.06890866                0.01000001               -0.59763947               -0.21675234                0.16216992                1.99068390               -0.15859896                0.21042693
               6.93342842                3.02054019               62.07029064                0.01000000               -0.74418034               -0.58888900                0.16167867                1.92782264               -0.24783077                0.30341559
               7.92423992                3.03097133               62.07015409                0.01000001               -0.48302990               -0.31102005                0.16025111                1.13728374               -0.16670755                0.21667141
               8.92376782                3.03344697               62.07318592                0.06338447               -0.04717252               -0.04021620                0.15579067                0.03451701               -0.00455435                0.05173667
               9.92329647                3.03599130               62.07629453                0.99999998               -0.04713548               -0.06181118                0.15716726                0.01189831               -0.00132671                0.06274649
              -0.03375661                3.99856744               62.05570135                0.01000000                0.01038959               -0.06657198                0.11110222                0.28176911                0.01103867                0.15142843
               0.96634728                3.98809621               62.05857987                0.01000000               -0.00632015               -0.42546409                0.15131596                0.62384546                0.03218096                0.06142802
               1.96611699                3.98322213               62.06159507                0.01000000               -0.09697483               -0.40384651                0.16552791                1.12879946                0.04405550                0.08386707
               2.96440779                3.98344403               62.06464409                0.01003986               -0.25590270               -0.32411340                0.16731416                1.50539792                0.02121746                0.10869000
               3.96099893                3.98788570               62.06741208                0.01000000               -0.40462262               -0.27901401                0.17068321                1.88287951               -0.02212165                0.15228271
               4.95631534                3.99595028               62.06989314                0.01000001               -0.51427380               -0.24905898                0.17483994                2.19741067               -0.06199640                0.19979065
               5.95071346                4.00629499               62.07205166                0.01000001               -0.61987121               -0.30437987                0.18067424                2.39950834               -0.10768128                0.25863926
               6.94391791                4.01720682               62.07375435                0.01000001               -0.70902101               -0.36837007                0.18395096                2.30186509               -0.14105738                0.30837268
               7.93653304                4.02518328               62.07535534                0.01000000               -1.09807016               -0.46007166                0.17514799                2.32356611               -0.24376149                0.40534774
               8.92195651                4.03307957               62.07511394                0.01000000               -0.77539465               -0.41962687                0.23199216                1.93681187               -0.18047288                0.37088135
               9.92102514                4.03519482               62.07840924                0.01000001               -0.09313658               -1.19272264                0.22849124                1.80595839               -0.01072151                0.36857332
              -0.01758993                4.99682172               62.05864687                0.01000003                0.08619128               -0.64000821                0.10557568                0.85560316               -0.01801286                0.11592952
               0.98327198                4.98253419               62.06048334                0.01000000                0.00046939               -0.58943199                0.18903847                1.36363141                0.09711827                0.07403561
               1.98241945                4.97859843               62.06389292                0.01000001               -0.21541579               -0.39941907                0.18772987                1.59668354                0.13665671                0.02875210
               2.97896366                4.97972010               62.06678778                0.01000000               -0.35263525               -0.42484753                0.18444466                1.88697585                0.05135542                0.12918300
               3.97536675                4.98449835               62.06983960                0.01000001               -0.40217658               -0.38140659                0.18019333                2.18642219                0.02307610                0.17028728
               4.97092013                4.99285530               62.07269768                0.01000001               -0.47547997               -0.35082305                0.18500833                2.47862507               -0.00564688                0.22540719
               5.96585715                5.00315310               62.07535506                0.01009755               -0.51713456               -0.34816273                0.19301398                2.60722526               -0.03215085                0.28790211
               6.96057744                5.01317279               62.07777839                0.01005746               -0.55093271               -0.40598191                0.19963870                2.64253040               -0.06432202                0.35622027
               7.95483849                5.02176989               62.07983971                0.01000000               -0.40424631               -0.47403025                0.20300649                2.53960567               -0.07952008                0.41505662
               8.95249251                5.02505443               62.08212610                0.01000000                0.01733181               -0.88178034                0.18585196                2.18998462               -0.06539593                0.55852359
               9.95518513                5.01213684               62.08474738                0.01001612                0.26926176               -1.55690154                0.16975872                1.49286305               -0.05679401                0.51248330
               0.01193050                5.98576727               62.06187992                0.03602985               -0.00872955               -0.66623431               -0.02246890                1.04964158                0.65295517               -0.35636875
               1.01184321                5.97630757               62.06548433                0.01000001               -0.55328780               -0.28345408                0.17314364                1.40938217                0.44631312               -0.09884329
               2.00086475                5.97523375               62.06539020                0.01000000               -0.77979149               -0.41928773                0.22328938                1.89346963                0.04123033                0.12711988
               2.99624738                5.97494708               62.06906836                0.01000001               -0.46362837               -0.44784522                0.17910176                1.92420995                0.09075295                0.13411205
               3.99159218                5.98025757               62.07226017                0.01000001               -0.45071435               -0.48584437                0.18087361                2.32679333                0.05678098                0.16729875
               4.98723309                5.98893382               62.07553867                0.01009255               -0.45258527               -0.41071461                0.18851290                2.55616802                0.05638740                0.22976910
               5.98254047                5.99933174               62.07872110                0.01002708               -0.45406819               -0.38015576                0.19948177                2.62881934                0.04736149                0.30241120
               6.97815173                6.00908719               62.08179408                0.01000000               -0.35484840               -0.40687300                0.20531189                2.48829028                0.03387110                0.38617196
               7.97544351                6.01570267               62.08476574                0.01000000               -0.13812366               -0.57956722                0.20744293                2.14929568                0.01566702                0.46476539
               8.97538925                6.01544396               62.08754967                0.01000001                0.06370394               -0.78706843                0.20172447                1.34319860               -0.00020547                0.49234929
               9.97671758                6.00405679               62.09030829                0.01000000                0.13283315               -0.53569671                0.18598225                0.65230164               -0.00632734                0.44384369
               0.02232230                6.98349703               62.06255335                0.98585464               -0.03291577               -0.12852908                0.10175598                0.18906475               -0.00952707                0.00446551
               1.02199315                6.97686511               62.06574363                0.41356401               -0.03364866                0.00996308                0.11891094                0.17580163               -0.04096229               -0.03081257
               2.02164933                6.97021267               62.06830578                0.01000003               -0.47845524               -0.27102325                0.12387512                1.06511615               -0.06048802                0.11263797
               3.01242404                6.97076320               62.07106467                0.01000000               -0.68667260               -0.59290348                0.15854861                1.80877843                0.02289542                0.08243840
               4.00791588                6.97478147               62.07444687                0.01001701               -0.47273611               -0.57823117                0.17343906                2.17059746                0.08488567                0.13503774
               5.00296932                6.98464101               62.07817259                0.01005611               -0.48178553               -0.45342846                0.18573425                2.52431450                0.12085893                0.20497932
               5.99828017                6.99554999               62.08198987                0.01000000               -0.44985043               -0.30392381                0.19602474                2.41886210                0.14704755                0.28960489
               6.99397231                7.00503533               62.08589815                0.01000000               -0.34062695               -0.32655455                0.20507409                2.06840802                0.15695124                0.38997398
               7.99146763                7.01017855               62.08961884                0.01000001               -0.14849742               -0.45126647                0.20838022                1.51848640                0.13398806                0.49653531
               8.99100236                7.00931306               62.09288685                0.01000002               -0.02310619               -0.47356935                0.20622044                0.81270370                0.07213181                0.53248685
               9.99100551                7.00142291               62.09538662                0.01000000                0.00031428               -0.12331408                0.19968313                0.35163790                0.02818499                0.46128994
               0.02897564                7.98319669               62.06334980                0.99999999               -0.03320369               -0.03003731                0.10190728               -0.00094573               -0.00586008                0.01284110
               1.02864360                7.97650683               62.06646938                1.00000000               -0.03533285               -0.03534616                0.11713747               -0.00148551               -0.01217515               -0.00322717
               2.02826898                7.96981328               62.06946384                0.43692526               -0.03947257               -0.03954606                0.13111835               -0.00526574               -0.02827652                0.01269410
               3.02785415                7.96308901               62.07225614                0.01002770               -0.35713312               -0.40413062                0.13548879                1.04925373                0.02192092                0.01983030
               4.02112632                7.96869294               62.07622127                0.01000000               -0.54516448               -0.94230307                0.15844363                2.14758953                0.12438967                0.02946076
               5.01695086                7.97986525               62.08035676                0.01000000               -0.53014617               -0.31972994                0.17844926                2.36653184                0.18118905                0.15734646
               6.01052340                7.99325326               62.08492164                0.01000000               -0.60297691               -0.10416511                0.19173933                2.01917458                0.24722820                0.23546245
               7.00489132                8.00255609               62.08962563                0.01000001               -0.44939486               -0.14479890                0.20098720                1.44737310                0.30898546                0.33169961
               8.00153550                8.00667734               62.09461466                0.01000002               -0.22461768               -0.24416255                0.20118932                0.88469119                0.30856400                0.46208503
               9.00039897                8.00597258               62.09854762                0.01000001               -0.10024222               -0.26565466                0.19876528                0.39234018                0.20571167                0.73173339
               9.99953065                8.00159051               62.10111022                0.01000000               -0.08683147                0.08384694                0.19487409                0.18254919                0.13380703                0.51613528
               0.03568311                8.98289629               62.06420119                1.00000000               -0.03362653               -0.03016778                0.10263806               -0.00055234               -0.00041766                0.01286766
               1.03534685                8.97615819               62.06727511                0.99999999               -0.03606388               -0.03469434                0.11686245               -0.00078825                0.00068554                0.00138362
               2.03496183                8.96942175               62.07036959                0.99999998               -0.04086947               -0.03871895                0.13033660               -0.00189578                0.00138418                0.00081611
               3.03452946                8.96268059               62.07341248                0.66704726               -0.04351996               -0.04082820                0.13841514               -0.00312487                0.00091429                0.01020531
               4.03409143                8.95593540               62.07640381                0.01000000               -0.43949089               -0.65866587                0.13982825                1.76353169                0.13342072               -0.03713606
               5.02573964                8.97824641               62.08212041                0.01000000               -0.90593094                0.06279243                0.16714996                2.00229419                0.27496267                0.07978404
               6.01597282                8.99346668               62.08712524                0.01000001               -0.81219728                0.08823468                0.19137707                1.22554815                0.31381427                0.13456280
               7.00949569                9.00213935               62.09246683                0.01000002               -0.51139223               -0.00545887                0.19899561                0.72356857                0.42280620                0.19395061
               8.00574497                9.00529530               62.09840327                0.01000000               -0.27798480               -0.09093805                0.19482177                0.32164801                0.67437644                0.29325782
               9.00393600                9.00399997               62.10719337                1.00000000               -0.11621747               -0.12437614                0.17018848                0.11262001                0.45500056                0.45098943
              10.00342062                9.00309985               62.10682159                0.99999999               -0.05153755                0.04915267                0.17366921                0.14952364               -0.00273459                0.29839818
               0.04244079                9.98259334               62.06501122                1.00000000               -0.03384128               -0.03029500                0.10249467               -0.00227175                0.00980737                0.01007945
               1.04210237                9.97581294               62.06809359                0.99991571               -0.03660595               -0.03452445                0.11685224               -0.00216893                0.01500441                0.00176252
               2.04170867                9.96903890               62.07127597                0.99999997               -0.04121881               -0.03828453                0.13118058               -0.00234141                0.02045020                0.00098876
               3.04127800                9.96227245               62.07439820                0.99999998               -0.04387687               -0.04081374                0.14038072               -0.00110987                0.01781588               -0.00288698
               4.04083113                9.95551963               62.07744405                0.01688655               -1.09062660               -0.04157787                0.14368159                1.61640191                0.14735907               -0.01469031
               5.01946547                9.98112110               62.08319465                0.01000001               -1.48448560                0.28746880                0.16885862                1.34749907                0.26547944                0.01913704
               6.01114142                9.99501795               62.08831606                0.01000001               -0.59656937                0.15512714                0.19932064                0.58315113                0.31306797                0.05964804
               7.00753408               10.00244692               62.09374500                0.01000000               -0.25167898                0.03075662                0.20741530                0.29586973                0.45515937                0.08822896
               8.00610784               10.00485858               62.10023348                0.01000000               -0.13436287               -0.04367184                0.19794342                0.08819355                0.60179098                0.15548212
               9.00484682               10.00348505               62.10688225                0.99999999               -0.08932321               -0.05149166                0.17333267               -0.02316850                0.35462066                0.00361089
              10.00432137               10.00257356               62.10651052                0.99998881               -0.05254464               -0.05262825                0.17682899               -0.00107376                0.00329443               -0.00323805
              -0.06153304               -0.00376557               63.04915842                1.00000000               -0.02295968               -0.02359698                0.07508463                0.00164373               -0.00797641                0.00766659
               0.93823736               -0.00750503               63.05264105                1.00000000               -0.02343541               -0.02463218                0.07845226                0.00055887               -0.00861982               -0.00151747
               1.93799825               -0.01122117               63.05611115                0.01000000                0.10121170               -0.02567088                0.08182312                0.14071988               -0.02888603               -0.00349538
               2.94026159               -0.01210911               63.05918365                0.01000001                0.18509756               -0.08055668                0.10023540                0.12633175               -0.05663553                0.02614419
               3.94170020               -0.00965759               63.06168225                0.01000000                0.07011971               -0.02676538                0.11182188                0.20348566               -0.11110378                0.03001354
               4.94166399               -0.00249360               63.06337708                0.01000001               -0.18798890                0.03156989                0.11039676                0.40497084               -0.16574794                0.05128231
               5.93794042                0.01129939               63.06441502                0.01000002               -0.64358926                0.09785306                0.11317065                0.73064341               -0.15300273               -0.06277409
               6.92879220                0.02862108               63.06515483                0.97052902               -0.47101368               -0.03033326                0.09066872                0.74751244               -0.11750920               -0.00133137
               7.92852015                0.03106418               63.06826412                1.00000000               -0.02747171               -0.03088247                0.09237380                0.00031046                0.00147938               -0.00001435
               8.92824277                0.03357253               63.07138009                1.00000000               -0.02797989               -0.03137869                0.09401546                0.00034770                0.00168306                0.00116486
               9.92796055                0.03614615               63.07448666                1.00000000               -0.02822185               -0.03190147                0.09574008               -0.00300135                0.00170145                0.00288120
              -0.05777715                0.99599846               63.05017064                1.00000000               -0.02521040               -0.02465580                0.08233590                0.00114709                0.00144035                0.00812525
               0.94197075                0.99224865               63.05365489                0.01007691               -0.02576824               -0.02573378                0.08570361                0.00005866                0.00427238               -0.00443576
               1.94170749                0.98852212               63.05719778                0.01000000               -0.06138114               -0.06231485                0.08907406                0.10653394               -0.00995707                0.02758774
               2.94074312                0.98708533               63.06039448                0.01000000               -0.13900925               -0.06012657                0.11128520                0.25324427               -0.05167292                0.04403640
               3.93892730                0.99007475               63.06288254                0.01000000               -0.27539598               -0.01550914                0.12344854                0.48415600               -0.10008862                0.05306761
               4.93523520                0.99782210               63.06479333                0.01000000               -0.46188928                0.02892083                0.13711951                0.82508028               -0.14900657                0.05505988
               5.92968952                1.01227792               63.06563354                0.01000001               -0.44251371               -0.08011951                0.13606042                1.15114204               -0.14819017               -0.00259076
               6.92638493                1.02831775               63.06627070                0.88625192               -0.18209930               -0.03338160                0.11138861                0.68339660               -0.12319352               -0.00159870
               7.92604753                1.03075536               63.06938448                1.00000000               -0.03398335               -0.03393946                0.11320401                0.00006136                0.00057936                0.00017269
               8.92570526                1.03325874               63.07250019                1.00000000               -0.03453048               -0.03449455                0.11502816                0.00001568                0.00033348                0.00187140
               9.92535692                1.03582713               63.07560872                0.99999999               -0.03483436               -0.03499022                0.11678962               -0.00318798                0.00014809                0.00434671
              -0.05401048                1.99574131               63.05119603                0.01000000               -0.02746474                0.06056386                0.08959072                0.14706181                0.00330169                0.10671104
               0.94571487                1.99198030               63.05460906                0.01000000               -0.03486332               -0.11286564                0.09295965                0.10785818                0.04698855                0.09406588
               1.94529225                1.98753253               63.05889935                0.01000001               -0.09705094               -0.14473538                0.11765546                0.25487604                0.03908641                0.08644898
               2.94377385                1.98668836               63.06203461                0.01000000               -0.23228532               -0.09244126                0.12903310                0.60999316               -0.04158634                0.08737303
               3.94064654                1.99003222               63.06461129                0.01000000               -0.39057122               -0.04375348                0.13923687                0.98080237               -0.09016649                0.09873042
               4.93596243                1.99808482               63.06656018                0.01000001               -0.50894651               -0.04097847                0.14526814                1.33739928               -0.14052581                0.10122785
               5.93046761                2.00969700               63.06788383                0.01000000               -0.59898647               -0.19383044                0.14795182                1.81182908               -0.27578254                0.13332169
               6.92398270                2.02795345               63.06738334                0.01000003               -0.34436151               -0.43408517                0.13199646                1.23099786               -0.18054468                0.16822836
               7.92358038                2.03038539               63.07050715                0.38597855               -0.04056943               -0.04018394                0.13412084               -0.00021393                0.00014976                0.00542242
               8.92317131                2.03288264               63.07362967                1.00000000               -0.04101855               -0.04076876                0.13610426               -0.00013424               -0.00003889                0.00188574
               9.92276001                2.03544634               63.07675318                0.99999999               -0.04112953               -0.04122870                0.13779565               -0.00325103               -0.00009669                0.00436739
              -0.04731388                2.99720974               63.05418549                0.01000001               -0.03494318                0.08471085                0.11082884                0.14037860                0.01793680                0.19539804
               0.95233669                2.98999134               63.05759289                0.01000000               -0.02945898               -0.25580469                0.13078803                0.30661512                0.01489838                0.18469223
               1.95209694                2.98562741               63.06095178                0.01000000               -0.09466946               -0.27081711                0.14254636                0.65970642                0.00055473                0.13251316
               2.95044330                2.98523650               63.06407936                0.01000000               -0.24750252               -0.20872086                0.15032601                1.06408215               -0.03040590                0.12747686
               3.94714689                2.98919968               63.06673651                0.01004030               -0.40624424               -0.14799410                0.15511979                1.45811461               -0.07040021                0.13832492
               4.94231841                2.99700253               63.06894446                0.01000000               -0.55447125               -0.14345867                0.15996921                1.82891489               -0.12036399                0.16501010
               5.93605747                3.00840131               63.07053543                0.01000001               -0.60009608               -0.20512782                0.16083192                1.99395012               -0.15963112                0.20534151
               6.93031649                3.01963605               63.07190495                0.01000000               -0.74717007               -0.57388655                0.16056657                1.92159344               -0.25205288                0.30977870
               7.92111406                3.02995168               63.07173827                0.01000268               -0.48374315               -0.30552568                0.15795756                1.12842391               -0.17102633                0.21385066
               8.92064163                3.03244337               63.07475130                0.10329283               -0.04747856               -0.02397854                0.15736789                0.01082278               -0.00666723                0.09153402
               9.92016449                3.03500256               63.07787681                1.00000000               -0.04771369               -0.03214670                0.15894538                0.00578117               -0.00156567                0.09886532
              -0.03676611                3.99743553               63.05692871                0.01000000                0.01956058               -0.09466842                0.11925038                0.30873884                0.00344950                0.17837491
               0.96342949                3.98686420               63.06019470                0.01000000                0.00036638               -0.44730406                0.16050707                0.65949628               -0.00243385                0.19728752
               1.96324121                3.98211619               63.06340535                0.01000000               -0.09731331               -0.40537526                0.17245805                1.16401603               -0.01569992                0.16817240
               2.96148323                3.98251394               63.06637928                0.01003899               -0.25992049               -0.31959251                0.16977968                1.53419082               -0.03124604                0.15384741
               3.95804280                3.98707234               63.06915473                0.01000000               -0.40720655               -0.27134549                0.17085369                1.90318939               -0.04590018                0.16636790
               4.95333910                3.99521565               63.07164885                0.01000001               -0.51648516               -0.23809422                0.17282916                2.21329531               -0.06960061                0.20230451
               5.94771310                4.00559444               63.07383708                0.01000001               -0.62374492               -0.28825114                0.17604654                2.41055675               -0.10638634                0.25869429
               6.94086420                4.01647572               63.07557164                0.01000000               -0.71857797               -0.35054928                0.17883948                2.30534154               -0.14609794                0.30941187
               7.93334154                4.02427488               63.07703497                0.01000000               -1.12636562               -0.44003961                0.17918559                2.33568194               -0.22029598                0.41483057
               8.91833688                4.03240307               63.07767983                0.01000000               -0.77921430               -0.39994034                0.18542751                1.96622683               -0.15442533                0.34733797
               9.91775726                4.03480341               63.08091855                0.01000001               -0.05796288               -1.18344613                0.18134048                1.83494522                0.00175728                0.33782567
              -0.01999645                4.99531637               63.05956000                0.01000000                0.08423992               -0.62890166                0.09465814                0.83780579               -0.00450563                0.17981177
               0.98084595                4.98104526               63.06314469                0.01000000               -0.01380167               -0.57730206                0.20975486                1.36439366               -0.04954903                0.23951750
               1.97972752                4.97751991               63.06587988                0.01000001               -0.23374919               -0.39727249                0.19245817                1.64161349               -0.07708600                0.19589085
               2.97617097                4.97884465               63.06877393                0.01000000               -0.36092712               -0.41709098                0.18856840                1.90985268               -0.03170245                0.14750034
               3.97250898                4.98377277               63.07166942                0.01000001               -0.40543742               -0.37433244                0.17960472                2.20777873               -0.01408713                0.17339015
               4.96806222                4.99224065               63.07454465                0.01000001               -0.47502250               -0.33875691                0.18129620                2.50284697               -0.01383810                0.22181719
               5.96300853                5.00263629               63.07725378                0.01011955               -0.51596665               -0.33144007                0.18619271                2.62876346               -0.03103412                0.28265258
               6.95774289                5.01262506               63.07971835                0.01009420               -0.55540853               -0.38420309                0.19161403                2.65836740               -0.06366769                0.35349152
               7.95190036                5.02115089               63.08183737                0.01000000               -0.41526242               -0.44552163                0.19476354                2.56366728               -0.08300003                0.41900612
               8.94943764                5.02444456               63.08397622                0.01000000                0.00811807               -0.87416978                0.19344136                2.22684967               -0.06947809                0.51475906
               9.95206272                5.01133364               63.08654286                0.01000000                0.26250794               -1.58312174                0.18930994                1.49972149               -0.05801259                0.46608823
               0.00853223                5.98485750               63.06216089                0.01802934               -0.00184028               -0.62516098               -0.02121669                0.99379272               -0.32739143                0.32716352
               1.00851382                5.97531816               63.06554750                0.01000001               -0.51290686               -0.24899700                0.10734887                1.35481202               -0.34874524                0.19960282
               1.99827409                5.97417074               63.06850447                0.01000000               -0.75432027               -0.41112768                0.23708435                1.87168026               -0.12553686                0.09647264
               2.99342742                5.97417213               63.07088895                0.01000001               -0.47358534               -0.44580837                0.18084665                1.93322996               -0.03861130                0.11484416
               3.98880238                5.97958569               63.07409646                0.01000001               -0.44474492               -0.48307821                0.17837323                2.34412042                0.03150693                0.15407373
               4.98453252                5.98844051               63.07740949                0.01011711               -0.44492125               -0.40025867                0.18332888                2.58347988                0.05228324                0.21511236
               5.97990396                5.99896564               63.08070182                0.01006368               -0.45077866               -0.36882113                0.19441739                2.66125566                0.05533502                0.29047349
               6.97551695                6.00879166               63.08380507                0.01000000               -0.35542840               -0.38545401                0.19843404                2.52041922                0.04730671                0.36860559
               7.97279539                6.01536445               63.08677326                0.01000000               -0.14129083               -0.55173192                0.19862077                2.17937517                0.02592734                0.44961164
               8.97269113                6.01491967               63.08953910                0.01000001                0.05890741               -0.76974131                0.19680379                1.36150843                0.00392644                0.48510150
               9.97397354                6.00314097               63.09221377                0.01000000                0.12824076               -0.53752581                0.19294316                0.66045952               -0.00619387                0.44100565
               0.01895808                6.98281315               63.06357721                0.99234305               -0.03291322               -0.11742969                0.10258613                0.18487217               -0.00843264                0.04277975
               1.01862894                6.97606532               63.06692762                0.35096336               -0.03254591                0.01962320                0.11773986                0.16822846               -0.04644763                0.02443473
               2.01830716                6.96929736               63.06951476                0.01000000               -0.46041639               -0.26329150                0.11729339                1.03058237               -0.05348827                0.02097267
               3.00942062                6.96992848               63.07266977                0.01000000               -0.65920789               -0.60350857                0.15481209                1.80086908                0.01717711                0.04259053
               4.00512300                6.97411121               63.07617387                0.01000001               -0.45343749               -0.58339125                0.16825666                2.18882690                0.07861695                0.11074013
               5.00035187                6.98423548               63.08001199                0.01009268               -0.46202562               -0.45148139                0.18136639                2.54924724                0.12413135                0.18115306
               5.99588249                6.99525987               63.08392692                0.01000000               -0.42997019               -0.30077357                0.19110980                2.45601165                0.15047599                0.27341211
               6.99175246                7.00491598               63.08791430                0.01000000               -0.32613217               -0.31487494                0.19660238                2.12371261                0.16329978                0.36805037
               7.98935985                7.01011625               63.09165509                0.01000001               -0.14305922               -0.42730618                0.19929021                1.57559222                0.13955662                0.47675218
               8.98889128                7.00904974               63.09490088                0.01000843               -0.02652700               -0.44219675                0.19877917                0.84968688                0.07533161                0.51492232
               9.98882931                7.00058312               63.09736397                0.01000003               -0.00619742               -0.10703931                0.19759779                0.36963333                0.02863983                0.45181385
               0.02572533                7.98250890               63.06437691                1.00000000               -0.03311497               -0.03048708                0.10306620               -0.00069131               -0.00555853                0.01469349
               1.02539418                7.97571062               63.06763704                0.99999995               -0.03513826               -0.03517069                0.11640991               -0.00117868               -0.01197844               -0.00405769
               2.02502257                7.96890491               63.07076686                0.39852147               -0.03816180               -0.03891075                0.12915682               -0.00337591               -0.03533342                0.01549819
               3.02463095                7.96210195               63.07355026                0.01000001               -0.33753198               -0.41180284                0.12747927                1.05255475                0.02130769                0.00820592
               4.01827193                7.96791787               63.07776591                0.01000000               -0.51310703               -0.96192520                0.15706755                2.16019262                0.13996384                0.01819303
               5.01436881                7.97941088               63.08214556                0.01000000               -0.49641227               -0.33354816                0.17647036                2.39155237                0.19464190                0.12944801
               6.00834368                7.99295017               63.08680266                0.01000000               -0.56169960               -0.11164674                0.18605995                2.05555018                0.25431104                0.21758124
               7.00313481                8.00249416               63.09159937                0.01000001               -0.40851015               -0.14936536                0.19340926                1.50910442                0.31321808                0.31062196
               8.00017348                8.00681832               63.09658846                0.01000002               -0.19584093               -0.23860411                0.19364486                0.96672191                0.30843623                0.43975728
               8.99921800                8.00607574               63.10050354                0.01000001               -0.09370226               -0.23616865                0.19273411                0.47748978                0.20359716                0.70400257
               9.99829943                8.00100019               63.10304143                0.01000000               -0.09185612                0.13924403                0.19215381                0.23836716                0.12865964                0.49727871
               0.03254081                8.98220341               63.06523673                1.00000000               -0.03314452               -0.03071651                0.10402653               -0.00035660                0.00016993                0.01473407
               1.03220936                8.97536190               63.06844072                0.99999999               -0.03462475               -0.03485961                0.11616760               -0.00042480                0.00061328                0.00141011
               2.03184831                8.96851914               63.07164826                0.99999999               -0.03753017               -0.03853145                0.12765509                0.00100976                0.00265245               -0.00148356
               3.03145876                8.96169243               63.07487180                0.76087783               -0.04151925               -0.04278428                0.14216927                0.00221941                0.01367910                0.01539900
               4.03101793                8.95487270               63.07826859                0.01000000               -0.41540727               -0.67869897                0.16424899                1.77403142                0.12868876               -0.03371957
               5.02315061                8.97756451               63.08377375                0.01000000               -0.85538569                0.03794116                0.16991515                2.02588057                0.27582105                0.06123266
               6.01391021                8.99302693               63.08900928                0.01000001               -0.75421074                0.06979508                0.18535028                1.24972448                0.32444755                0.12153286
               7.00806640                9.00192868               63.09442479                0.01000002               -0.43987533               -0.02653173                0.19260615                0.76389139                0.42093559                0.18011689
               8.00511271                9.00534417               63.10032560                0.01000001               -0.19035935               -0.11503213                0.18935882                0.38706724                0.65744871                0.27813172
               9.00425921                9.00432636               63.10888184                1.00000000               -0.06824786               -0.11294278                0.16749662                0.20217495                0.44077002                0.43543542
              10.00374775                9.00336800               63.10856046                1.00000000               -0.05114620                0.09181474                0.17409560                0.22459499               -0.00272637                0.28663967
               0.03940121                9.98189457               63.06604605                0.99999666               -0.03312573               -0.03088335                0.10414481               -0.00207375                0.01184511                0.01165274
               1.03906995                9.97501343               63.06925865                1.00000000               -0.03444859               -0.03484692                0.11614807               -0.00195542                0.01617959                0.00196833
               2.03871224                9.96813428               63.07255095                1.00000000               -0.03740895               -0.03848578                0.12764459               -0.00196567                0.02383960               -0.00033836
               3.03832177                9.96124627               63.07588818                1.00000000               -0.04158829               -0.04461589                0.14459188               -0.00321835                0.03378579                0.00016279
               4.03788047                9.95434389               63.07935085                0.01760385               -1.07947907               -0.05288164                0.16721636                1.63242627                0.14483375               -0.00407368
               5.01673219                9.98016970               63.08488307                0.01000001               -1.44532311                0.26051920                0.17421471                1.35826702                0.27317632                0.00885760
               6.00897401                9.99434607               63.09027764                0.01000001               -0.53183924                0.13191405                0.19354673                0.59607073                0.32750506                0.05165889
               7.00609541               10.00196353               63.09578908                0.01000000               -0.17284360                0.00348509                0.20124177                0.31148134                0.44892080                0.07994494
               8.00551714               10.00451768               63.10219421                0.01000000               -0.04288727               -0.08264854                0.19368584                0.13311093                0.57808706                0.14645953
               9.00523766               10.00381688               63.10861350                1.00000000               -0.04045394               -0.05094799                0.17291542                0.01378506                0.34066854                0.00363266
              10.00470806               10.00283648               63.10829210                0.99999998               -0.05296026               -0.05315177                0.17951132               -0.00200904                0.00324017               -0.00325074
              -0.06511228               -0.00473740               64.04991176                1.00000000               -0.02297477               -0.02379454                0.07558404                0.00155243               -0.00797699                0.00766499
               0.93465797               -0.00857031               64.05342380                1.00000000               -0.02332395               -0.02456499                0.07809695                0.00042786               -0.00861983               -0.00151748
               1.93442124               -0.01237905               64.05692329                0.01000000                0.11233211               -0.02533524                0.08060917                0.15462559               -0.02175337               -0.00349657
               2.93690461               -0.01307793               64.06016790                0.01000001                0.20481255               -0.08306689                0.09499549                0.13630319               -0.04645289                0.03249562
               3.93851749               -0.01058409               64.06274662                0.01000003                0.08935474               -0.03082887                0.10261427                0.20447472               -0.10767124                0.03778718
               4.93869171               -0.00346952               64.06449745                0.01000420               -0.13546647                0.01259514                0.10468052                0.34892580               -0.18547731                0.03999342
               5.93580816                0.00859411               64.06517507                0.01000005               -0.65041185                0.11564171                0.10100081                0.77558605               -0.18798665               -0.02873352
               6.92568347                0.02738823               64.06606009                0.97060759               -0.51975723               -0.03044812                0.09044776                0.82082480               -0.11108551               -0.00133348
               7.92541301                0.02983932               64.06918380                1.00000000               -0.02723435               -0.03082064                0.09160841                0.00022927                0.00130221               -0.00004903
               8.92513878                0.03235889               64.07231367                1.00000000               -0.02758436               -0.03115099                0.09271931                0.00025994                0.00149365                0.00114306
               9.92486133                0.03494673               64.07543506                1.00000000               -0.02774545               -0.03154221                0.09392720               -0.00325018                0.00154667                0.00275184
              -0.06126385                0.99502465               64.05099778                1.00000000               -0.02530840               -0.02489354                0.08309162                0.00118404                0.00144012                0.00812467
               0.93848307                0.99118404               64.05451145                0.01001244               -0.02574250               -0.02569814                0.08560606                0.00005970                0.00427418               -0.00443354
               1.93822130                0.98736760               64.05808376                0.01000000               -0.05564509               -0.05402164                0.08811973                0.12018884               -0.00108274                0.03765711
               2.93737017                0.98609140               64.06148728                0.01000000               -0.12316359               -0.05938542                0.10578984                0.26459606               -0.03987221                0.05621248
               3.93575803                0.98910762               64.06408481                0.01000000               -0.23891527               -0.01755974                0.11440619                0.47656236               -0.09374798                0.06189806
               4.93259186                0.99665643               64.06601731                0.01000000               -0.38114443                0.01654563                0.11342218                0.74746772               -0.14125057                0.05333654
               5.92813514                1.00975053               64.06696997                0.01000001               -0.46613742               -0.00997673                0.12325614                1.09419209               -0.17139575                0.01080093
               6.92326911                1.02708375               64.06738901                0.87968071               -0.26025801               -0.03366523                0.11228622                0.74774951               -0.13477915               -0.00166179
               7.92292998                1.02953111               64.07051808                1.00000000               -0.03407173               -0.03404912                0.11353225                0.00007108                0.00064122                0.00014482
               8.92258768                1.03204738               64.07364917                1.00000000               -0.03444993               -0.03441949                0.11478210                0.00003698                0.00036702                0.00186322
               9.92224098                1.03463131               64.07677294                1.00000000               -0.03466949               -0.03482081                0.11602895               -0.00332968                0.00016281                0.00424620
              -0.05740737                1.99476473               64.05209696                0.01000001               -0.02764176                0.06518947                0.09059838                0.14710065                0.00330056                0.11352255
               0.94231621                1.99091572               64.05553943                0.01000000               -0.03374892               -0.10161729                0.09311460                0.11370857                0.05705708                0.10799604
               1.94191765                1.98654052               64.06006060                0.01000001               -0.09298481               -0.12739951                0.11251135                0.26566256                0.04686679                0.11471333
               2.94045652                1.98573436               64.06330594                0.01000000               -0.22169732               -0.08420814                0.12222255                0.61402266               -0.04096809                0.10822230
               3.93748370                1.98906471               64.06596769                0.01000000               -0.37291835               -0.04029601                0.12990939                0.96556513               -0.08776928                0.11088132
               4.93299815                1.99686139               64.06798091                0.01000001               -0.51095134               -0.03042084                0.13568282                1.29565055               -0.13951278                0.10656717
               5.92726468                2.00839458               64.06928369                0.01000000               -0.60701373               -0.11781255                0.13414114                1.73444056               -0.27650375                0.12769515
               6.92085787                2.02671493               64.06871387                0.01000003               -0.34069322               -0.42681424                0.13403336                1.23395878               -0.18446721                0.17085273
               7.92045081                2.02915834               64.07185512                0.39602308               -0.04092717               -0.04053004                0.13548074               -0.00006897                0.00051164                0.00606449
               8.92003933                2.03167050               64.07499453                1.00000000               -0.04119701               -0.04099431                0.13688748                0.00001174                0.00010747                0.00194754
               9.91962687                2.03425031               64.07813321                1.00000000               -0.04124573               -0.04140376                0.13813861               -0.00336023               -0.00005842                0.00438645
              -0.05062383                2.99632844               64.05529650                0.01000000               -0.03947287                0.09978500                0.10692192                0.14171403                0.02158221                0.21104393
               0.94898144                2.98915169               64.05887557                0.01000000               -0.03301278               -0.22127794                0.12121210                0.29984630                0.00878027                0.23274172
               1.94871592                2.98481961               64.06235702                0.01000000               -0.09275073               -0.24415211                0.13171036                0.64781477               -0.01390568                0.17322829
               2.94712643                2.98440724               64.06555429                0.01000000               -0.23868077               -0.19539740                0.14013006                1.05295328               -0.04484027                0.15616939
               3.94394230                2.98830170               64.06826308                0.01003729               -0.39757114               -0.13922837                0.14658454                1.44842152               -0.07915253                0.15356678
               4.93917501                2.99604801               64.07051037                0.01000000               -0.54859436               -0.12326060                0.15130103                1.81677033               -0.12361816                0.16989153
               5.93297041                3.00739428               64.07212529                0.01000001               -0.59952393               -0.18220227                0.15538065                1.99488606               -0.16126913                0.20756642
               6.92718453                3.01854747               64.07350197                0.01000000               -0.74986892               -0.55666382                0.15811732                1.91332081               -0.25343655                0.31434151
               7.91797304                3.02872051               64.07331324                0.01007165               -0.48442938               -0.28887769                0.15807495                1.11240682               -0.17312716                0.22003769
               8.91749594                3.03122749               64.07633327                0.11777709               -0.04794446               -0.04345416                0.15909675                0.00139074               -0.00722258                0.05876351
               9.91701415                3.03380323               64.07947344                0.99999997               -0.04817936               -0.04825127                0.16030702                0.00537288               -0.00169424                0.06422703
              -0.04021959                3.99676043               64.05808636                0.01000000                0.00415536               -0.05713311                0.10946133                0.26169464                0.00409906                0.20243528
               0.95982197                3.98649016               64.06179001                0.01000000               -0.00810065               -0.35899760                0.13583634                0.59383678               -0.03226191                0.26603933
               1.95961840                3.98165748               64.06504423                0.01000000               -0.08942359               -0.37012424                0.14707225                1.09344111               -0.06750722                0.23179971
               2.95803349                3.98182641               64.06803968                0.01003979               -0.24035209               -0.31233979                0.15453730                1.50181550               -0.06956306                0.18530576
               3.95481136                3.98628015               64.07082916                0.01000000               -0.38962600               -0.26386396                0.15987799                1.89708765               -0.06618610                0.17861707
               4.95024097                3.99439618               64.07334972                0.01000001               -0.50742071               -0.22585028                0.16501624                2.21771956               -0.07768446                0.20504725
               5.94466294                4.00475053               64.07557259                0.01000001               -0.62214598               -0.27264337                0.17008620                2.41389103               -0.10777058                0.25729297
               6.93779806                4.01558165               64.07733114                0.01001192               -0.73220078               -0.32691396                0.17488359                2.30831082               -0.13810127                0.30889800
               7.93001893                4.02338079               64.07893906                0.01000000               -1.14068131               -0.41543919                0.18385262                2.30836755               -0.24444046                0.41612980
               8.91498443                4.03080141               64.07882249                0.01000000               -0.77180400               -0.38685757                0.13791149                1.94030124               -0.16989866                0.33030572
               9.91458285                4.03328529               64.08203605                0.01000000               -0.04015808               -1.18199247                0.13593143                1.84226024               -0.00201814                0.30707004
              -0.02484941                4.99518578               64.06054003                0.01000003                0.08105356               -0.42335440                0.08888844                0.62004752               -0.07516823                0.18655552
               0.97596113                4.98197174               64.06467844                0.01000000                0.00489507               -0.49867332                0.12456433                1.04670517               -0.15968228                0.39479690
               1.97524849                4.97741713               64.06774209                0.01000001               -0.17105260               -0.40645793                0.15271221                1.47914295               -0.18061141                0.25184947
               2.97254007                4.97816044               64.07055914                0.01000000               -0.29671021               -0.42391446                0.16146676                1.87284767               -0.09441531                0.16493240
               3.96931429                4.98302442               64.07343169                0.01000001               -0.37405319               -0.37227778                0.16756873                2.21304948               -0.04229584                0.17374363
               4.96505901                4.99153101               64.07632360                0.01000001               -0.46257634               -0.33137293                0.17325244                2.51747096               -0.02407862                0.21710093
               5.96006276                5.00194141               64.07907891                0.01000000               -0.51692588               -0.31412354                0.17868024                2.65334164               -0.03312013                0.27629038
               6.95472049                5.01200919               64.08161067                0.01000000               -0.55710664               -0.36591513                0.18469874                2.68493401               -0.06942069                0.35332563
               7.94892063                5.02041173               64.08373498                0.01000000               -0.41615142               -0.42517995                0.18646175                2.58451198               -0.08078196                0.40818369
               8.94639746                5.02349034               64.08599493                0.01000000               -0.00145119               -0.82900367                0.19129488                2.23972454               -0.06455787                0.52190723
               9.94889160                5.01016338               64.08853358                0.01000000                0.24941400               -1.56147448                0.18949633                1.50038028               -0.06036732                0.47328114
              -0.00139055                5.98829334               64.06145559                0.01000000               -0.00847248               -0.65245884                0.00530130                0.83744859               -0.40765347                0.57839183
               0.99852472                5.97651670               64.06763130                0.01000001               -0.27984448               -0.33537323                0.10307806                1.22002534               -0.52413454                0.36358828
               1.99301256                5.97352832               64.07013188                0.01000000               -0.43207827               -0.45236970                0.12894478                1.82101707               -0.26915687                0.07206091
               2.98988316                5.97334812               64.07268529                0.01000001               -0.36553879               -0.46033671                0.15816047                1.94373337               -0.08689875                0.09804523
               3.98570178                5.97883459               64.07582763                0.01000001               -0.41048770               -0.48487991                0.16663406                2.36261548                0.00630038                0.14022628
               4.98167340                5.98776872               64.07920525                0.01000000               -0.42250926               -0.40015012                0.17458212                2.61366787                0.04654621                0.20135408
               5.97725160                5.99846806               64.08260945                0.01010016               -0.43234925               -0.35120133                0.18335522                2.69096259                0.05695293                0.27865624
               6.97302642                6.00826335               64.08576276                0.01000000               -0.35117883               -0.37035749                0.19138352                2.55993864                0.05144974                0.35586991
               7.97022802                6.01487719               64.08873816                0.01000000               -0.14995739               -0.52566684                0.19360463                2.21547745                0.02872322                0.43649126
               8.97002727                6.01422134               64.09148575                0.01000001                0.05081742               -0.74216308                0.19411316                1.37906312                0.00459604                0.46323768
               9.97124437                6.00205580               64.09416716                0.01000000                0.12170982               -0.52659269                0.19598810                0.67147147               -0.00699156                0.42179856
               0.01545284                6.98213660               64.06460508                0.99791430               -0.03261941               -0.32311491                0.10265271                0.49950599               -0.00744397                0.13022549
               1.01512665                6.97526427               64.06809842                0.28411155               -0.03077176               -0.08020626                0.11604108                0.48612486               -0.05411995               -0.02207950
               2.01483741                6.96836973               64.07065165                0.01000002               -0.45090884               -0.27692871                0.10839903                1.11629830               -0.04892276                0.00198521
               3.00610847                6.96895371               64.07416091                0.01000000               -0.63457046               -0.61485085                0.14098520                1.81775920                0.01951904                0.00616996
               4.00214600                6.97332682               64.07781201                0.01000000               -0.42047890               -0.59362549                0.15829210                2.21014080                0.07796443                0.09350348
               4.99769889                6.98352800               64.08179992                0.01000000               -0.43793086               -0.45381327                0.17347631                2.58620559                0.13274794                0.15591353
               5.99338738                6.99491739               64.08581207                0.01000000               -0.40943768               -0.29727693                0.18437605                2.49891221                0.15401676                0.25713141
               6.98951014                7.00460204               64.08983020                0.01000000               -0.30575969               -0.30026548                0.18804437                2.16622371                0.16573789                0.34927196
               7.98727219                7.00989839               64.09360465                0.01000001               -0.13550126               -0.40376061                0.19167927                1.63085355                0.14183983                0.45775983
               8.98680012                7.00864708               64.09686243                0.01001115               -0.03100348               -0.40748359                0.19387736                0.88619029                0.07574108                0.49777992
               9.98665212                6.99963153               64.09933858                0.01000003               -0.01479975               -0.08581011                0.19679832                0.38762973                0.02736741                0.43744527
               0.02234422                7.98183104               64.06541112                1.00000000               -0.03301369               -0.03073864                0.10366162               -0.00056224               -0.00535367                0.01615846
               1.02201409                7.97491257               64.06879758                0.99999997               -0.03475672               -0.03497484                0.11558477               -0.00101767               -0.01211525               -0.00502804
               2.02164909                7.96798975               64.07204698                0.35089210               -0.03664175               -0.03808726                0.12718443               -0.00575363               -0.04295577                0.02140664
               3.02128125                7.96105110               64.07480573                0.01000001               -0.31593958               -0.41515279                0.12079478                1.05232811                0.02491911               -0.00091402
               4.01533030                7.96696208               64.07936262                0.01000000               -0.47371511               -0.98253743                0.15416476                2.16293064                0.15478741               -0.00302237
               5.01180695                7.97869245               64.08388617                0.01000000               -0.45872461               -0.33972276                0.16915738                2.41884591                0.20445281                0.10635947
               6.00615581                7.99252252               64.08864284                0.01000000               -0.52185336               -0.12475099                0.18124216                2.09944633                0.25872237                0.20092860
               7.00136988                8.00225804               64.09349381                0.01000001               -0.36778766               -0.15250299                0.18600567                1.56836985                0.31333978                0.29319418
               7.99880005                8.00680197               64.09848755                0.01000002               -0.16759709               -0.23231069                0.18671560                1.04891705                0.30585600                0.42057878
               8.99801794                8.00607167               64.10240231                0.01002455               -0.08859965               -0.20241780                0.18719347                0.56270222                0.20031398                0.67694776
               9.99702806                8.00033959               64.10495330                0.01000002               -0.09898815                0.19752207                0.18959963                0.29462929                0.12383554                0.47685081
               0.02927853                8.98152183               64.06628172                1.00000000               -0.03309456               -0.03116439                0.10509777               -0.00029189               -0.00011523                0.01610986
               1.02894759                8.97456478               64.06959846                0.99999999               -0.03473659               -0.03480602                0.11579819               -0.00034297                0.00006976                0.00104461
               2.02858380                8.96760799               64.07292269                0.99999983               -0.03824433               -0.03814980                0.12668104               -0.00036410                0.00079486               -0.00256634
               3.02818270                8.96065065               64.07625587                0.78882020               -0.04102701               -0.04040744                0.13681029               -0.00296785                0.00616052                0.02031207
               4.02776326                8.95367607               64.07968879                0.01000000               -0.38336666               -0.68442223                0.14179713                1.77427560                0.13192512               -0.04513864
               5.02051537                8.97673355               64.08551871                0.01000000               -0.79762702                0.01935765                0.16950458                2.04707755                0.28650868                0.04980984
               6.01181072                8.99242237               64.09083225                0.01000001               -0.69586405                0.04959539                0.18013228                1.27240682                0.32665048                0.10934847
               7.00659809                9.00155198               64.09631895                0.01000002               -0.36869097               -0.04703952                0.18638680                0.80279231                0.41779943                0.16820097
               8.00443690                9.00525218               64.10219044                0.01000001               -0.10407740               -0.13757139                0.18380803                0.45459242                0.63995888                0.26489813
               9.00451654                9.00459872               64.11054330                1.00000000               -0.02140262               -0.09886393                0.16479755                0.29370754                0.42652766                0.42029683
              10.00400885                9.00358197               64.11030350                0.99999999               -0.05076897                0.13528345                0.17451422                0.29837016               -0.00272649                0.27492095
               0.03625249                9.98120775               64.06709411                1.00000000               -0.03314235               -0.03140770                0.10571352               -0.00173429                0.01214819                0.01268993
               1.03592107                9.97421645               64.07041656                0.99999998               -0.03482792               -0.03483245                0.11616784               -0.00170209                0.01622154                0.00187925
               2.03555593                9.96722675               64.07382887                0.99999999               -0.03836289               -0.03812372                0.12727989               -0.00146169                0.02279574               -0.00055147
               3.03515381                9.96024296               64.07729004                0.99999994               -0.04115115               -0.04076940                0.13869621               -0.00054494                0.02713055                0.00131856
               4.03473291                9.95327364               64.08078838                0.01474149               -1.05758011               -0.04024373                0.14384190                1.63879737                0.14939351               -0.00251903
               5.01400221                9.97907961               64.08667894                0.01000001               -1.39736989                0.23460578                0.17460466                1.36072375                0.29103227                0.00233452
               6.00678551                9.99351443               64.09218700                0.01000001               -0.47031469                0.10920663                0.18847991                0.60936124                0.33285811                0.04453909
               7.00459591               10.00131725               64.09776983                0.01000000               -0.09701765               -0.02347285                0.19505930                0.32658840                0.44224524                0.07283665
               8.00484516               10.00405055               64.10410719                0.01000000                0.04831939               -0.12016335                0.18902889                0.17968261                0.55626658                0.13862059
               9.00556230               10.00409439               64.11034056                0.99999999                0.00919028               -0.05043316                0.17249676                0.05431211                0.32728504                0.00362741
              10.00502896               10.00304526               64.11010075                0.99999049               -0.05333372               -0.05367057                0.18221378               -0.00290104                0.00324864               -0.00324647
              -0.06871665               -0.00578431               65.05067010                1.00000000               -0.02299078               -0.02399293                0.07608336                0.00145940               -0.00797711                0.00766494
               0.93105344               -0.00971069               65.05420299                1.00000000               -0.02321321               -0.02449698                0.07774128                0.00029545               -0.00862085               -0.00151697
               1.93081908               -0.01361204               65.05772333                0.01000001                0.12278836               -0.02500048                0.07939885                0.16972971               -0.01701668               -0.00349707
               2.93350920               -0.01409795               65.06108356                0.01000000                0.21990693               -0.08305192                0.08895178                0.14523216               -0.04141935                0.03733329
               3.93521722               -0.01157824               65.06373454                0.01000003                0.10083940               -0.03301160                0.09558736                0.19873396               -0.11581094                0.04079028
               4.93552599               -0.00473344               65.06547069                0.01000001               -0.12995848                0.01388215                0.09919438                0.33556203               -0.19362281                0.03697329
               5.93261805                0.00713492               65.06643504                0.01000000               -0.64821168                0.12504036                0.11622287                0.76068597               -0.25064953                0.02409019
               6.92256176                0.02593658               65.06696379                0.97087904               -0.51627156               -0.03058374                0.09033857                0.82093385               -0.12947809               -0.00137122
               7.92229262                0.02839464               65.07009629                1.00000000               -0.02701877               -0.03077066                0.09091543                0.00014860                0.00111575               -0.00010019
               8.92202138                0.03092439               65.07323447                1.00000000               -0.02719618               -0.03092447                0.09144088                0.00017512                0.00132558                0.00112754
               9.92174870                0.03352542               65.07636521                1.00000000               -0.02726885               -0.03115102                0.09208124               -0.00350357                0.00143356                0.00267760
              -0.06477569                0.99397576               65.05183248                1.00000000               -0.02540583               -0.02513204                0.08384715                0.00121987                0.00144060                0.00812375
               0.93497026                0.99004434               65.05536701                0.01000000               -0.02571525               -0.02566094                0.08550575                0.00005648                0.00427474               -0.00443279
               1.93471001                0.98613796               65.05896018                0.01000000               -0.05128151               -0.04172126                0.08716403                0.13355928                0.00520512                0.04446516
               2.93394463                0.98507153               65.06251028                0.01000000               -0.10938513               -0.05581320                0.09911389                0.27459431               -0.03462540                0.06526372
               3.93252231                0.98809165               65.06517066                0.01000000               -0.22097945               -0.01750899                0.10513281                0.46664099               -0.10229922                0.07022606
               4.92952504                0.99540538               65.06706178                0.01000000               -0.38162030                0.02282753                0.10647439                0.73119248               -0.17114266                0.06876594
               5.92488990                1.00838532               65.06809866                0.01000001               -0.46919007               -0.00196699                0.11380250                1.09059438               -0.24874587                0.06845459
               6.92014124                1.02563074               65.06851643                0.87268636               -0.25448509               -0.03395127                0.11321541                0.74308869               -0.13529060               -0.00176857
               7.91980020                1.02808694               65.07165513                1.00000000               -0.03417449               -0.03415606                0.11388233                0.00008713                0.00065861                0.00008606
               8.91945775                1.03061515               65.07479583                1.00000000               -0.03437855               -0.03434529                0.11454660                0.00004829                0.00038185                0.00186820
               9.91911263                1.03321391               65.07792930                1.00000000               -0.03451176               -0.03459249                0.11522201               -0.00348352                0.00017751                0.00421273
              -0.06082943                1.99371305               65.05300800                0.01000000               -0.02782030                0.07327244                0.09161061                0.14306971                0.00330021                0.11552271
               0.93889237                1.98977610               65.05647136                0.01000000               -0.03537475               -0.08243739                0.09326989                0.11610014                0.06386492                0.11466137
               1.93846308                1.98555354               65.06114957                0.01000001               -0.09224848               -0.10148028                0.10471810                0.27198957                0.05300109                0.12977925
               2.93704740                1.98478579               65.06447906                0.01000000               -0.21234424               -0.07226907                0.11261693                0.61069304               -0.04088376                0.12152109
               3.93421619                1.98807158               65.06720948                0.01000000               -0.35956153               -0.03410512                0.11986797                0.95113918               -0.09149578                0.12439946
               4.92985617                1.99572311               65.06927384                0.01000001               -0.50058076               -0.01869169                0.12555917                1.27413961               -0.15115177                0.13103481
               5.92420458                2.00709558               65.07056665                0.01000000               -0.60671257               -0.10607944                0.12888398                1.72425123               -0.27204009                0.14578412
               6.91772192                2.02525755               65.07006401                0.01000003               -0.34473108               -0.41625675                0.13597510                1.22672605               -0.18137678                0.17032564
               7.91730996                2.02771152               65.07321676                0.40557414               -0.04132722               -0.04092189                0.13684886               -0.00000259                0.00078957                0.00603530
               8.91689537                2.03023749               65.07636741                1.00000000               -0.04142322               -0.04122341                0.13768994                0.00006441                0.00025164                0.00201747
               9.91648149                2.03283357               65.07951595                0.99999999               -0.04138817               -0.04148284                0.13837486               -0.00350893               -0.00000412                0.00445824
              -0.05404039                2.99544121               65.05632393                0.01000000               -0.05078434                0.12638254                0.09940594                0.13233898                0.02493495                0.21153559
               0.94545177                2.98839560               65.06001713                0.01000000               -0.04097531               -0.16969857                0.10666339                0.28005816                0.00791115                0.24120316
               1.94514011                2.98410835               65.06358599                0.01000000               -0.09056654               -0.20932071                0.11538259                0.62044385               -0.01650054                0.18432397
               2.94364044                2.98362615               65.06688196                0.01000000               -0.22661687               -0.17852886                0.12562117                1.02804139               -0.04709236                0.16841321
               3.94060777                2.98740955               65.06966820                0.01004804               -0.38283017               -0.12977575                0.13445799                1.42991191               -0.08160617                0.16585223
               4.93598384                2.99503155               65.07197048                0.01000000               -0.53836436               -0.11098774                0.14166810                1.80199939               -0.12250124                0.17962067
               5.92984048                3.00626373               65.07364304                0.01000001               -0.59620116               -0.16544456                0.14865311                1.98228770               -0.15833737                0.21530387
               6.92405981                3.01730561               65.07506729                0.01000000               -0.75101339               -0.53562866                0.15526588                1.90092787               -0.24970391                0.31679128
               7.91482021                3.02726850               65.07489977                0.01000001               -0.48614149               -0.27678901                0.15983965                1.10682501               -0.17228891                0.21802354
               8.91433698                3.02979068               65.07793324                0.13327171               -0.04849708               -0.04449781                0.16093454                0.00311509               -0.00708496                0.04829443
               9.91385027                3.03238426               65.08108295                1.00000000               -0.04867095               -0.04744506                0.16158123               -0.00022803               -0.00176792                0.05263841
              -0.04409142                3.99624070               65.05911794                0.01000003               -0.00821858                0.01185202                0.09990050                0.22733081               -0.00579753                0.18836020
               0.95582639                3.98638212               65.06291142                0.01000000               -0.01335883               -0.26478500                0.10232801                0.50624536               -0.03611376                0.25322693
               1.95564140                3.98136712               65.06634680                0.01000000               -0.07596780               -0.33195549                0.11795711                0.99637835               -0.06708057                0.22579156
               2.95430703                3.98121521               65.06947003                0.01004442               -0.21161812               -0.30642313                0.13337447                1.45307826               -0.07095183                0.18960821
               3.95140904                3.98547607               65.07235229                0.01000000               -0.36325316               -0.25801882                0.14501667                1.87894867               -0.06864898                0.18507119
               4.94704197                3.99350335               65.07494918                0.01000001               -0.49163819               -0.21522037                0.15453656                2.21301054               -0.07749236                0.20901745
               5.94157627                4.00378669               65.07723880                0.01000001               -0.61531306               -0.25692476                0.16273979                2.41301004               -0.10381127                0.25736684
               6.93473571                4.01454498               65.07906931                0.01000002               -0.73074443               -0.30228237                0.16991436                2.30138231               -0.13203643                0.30435115
               7.92696138                4.02217574               65.08071203                0.01000000               -1.14468954               -0.38765191                0.17384643                2.29413962               -0.23678849                0.40184796
               8.91184192                4.02934753               65.08043806                0.01000000               -0.78358045               -0.37856161                0.17120718                1.93599143               -0.17025696                0.33653595
               9.91128978                4.03188467               65.08363718                0.01000000               -0.05521430               -1.18580530                0.17044528                1.85010409               -0.00630561                0.31018239
              -0.02977662                4.99567825               65.06133777                0.01000003                0.02268743               -0.19402046                0.08257831                0.34812244               -0.05041039                0.16461643
               0.97045025                4.98309990               65.06563597                0.01000000                0.00056036               -0.36060914                0.07730070                0.76597210               -0.12856038                0.28323121
               1.97023459                4.97746924               65.06893412                0.01000001               -0.09285980               -0.43323616                0.10592561                1.32966807               -0.14630093                0.21452154
               2.96859306                4.97749769               65.07200326                0.01000000               -0.21679931               -0.43419728                0.13292862                1.82332935               -0.08601680                0.16045910
               3.96589860                4.98224917               65.07502079                0.01000001               -0.33298143               -0.37330836                0.15145148                2.21144191               -0.04362084                0.17386879
               4.96193343                4.99072714               65.07800970                0.01000001               -0.44197708               -0.32560420                0.16303377                2.52578613               -0.02550841                0.21351283
               5.95705906                5.00112524               65.08082738                0.01000950               -0.51175128               -0.29905410                0.17103866                2.67210277               -0.03029980                0.26983079
               6.95169840                5.01125996               65.08341233                0.01001488               -0.55793005               -0.34277265                0.17724297                2.70358750               -0.05901152                0.34032897
               7.94590046                5.01951546               65.08556661                0.01000000               -0.41752612               -0.39755695                0.18132300                2.58224820               -0.07835579                0.39410510
               8.94334788                5.02221945               65.08780212                0.01000000               -0.00611946               -0.80153031                0.18173351                2.23324098               -0.06575949                0.51601761
               9.94577807                5.00866815               65.09033279                0.01000000                0.24301875               -1.55563623                0.18309388                1.50392622               -0.06017555                0.46977407
              -0.01197227                5.99236029               65.06226691                0.01000003                0.13271105               -0.71080606                0.13691219                0.76092149               -0.21732914                0.38416411
               0.98935484                5.97916994               65.06760906                0.01000001               -0.00953804               -0.43212213                0.02433922                1.06959161               -0.23638987                0.27343253
               1.98783697                5.97270240               65.07108336                0.01000000               -0.16805728               -0.50236371                0.08149511                1.71964801               -0.15410852                0.06210688
               2.98599369                5.97253127               65.07405216                0.01000001               -0.27142712               -0.47831234                0.12869654                1.96825427               -0.06594073                0.08889618
               3.98240842                5.97800990               65.07742914                0.01000001               -0.36560341               -0.49014384                0.15364452                2.38023396                0.00936988                0.13153926
               4.97868162                5.98699127               65.08090113                0.01000386               -0.39614577               -0.40271548                0.16586529                2.64345184                0.04455854                0.19350667
               5.97448551                5.99780560               65.08436892                0.01000005               -0.41321944               -0.33780663                0.17243505                2.72858721                0.05539397                0.26517337
               6.97041724                6.00768953               65.08763274                0.01000000               -0.34193243               -0.35447957                0.18206289                2.59976194                0.04502033                0.34938427
               7.96764686                6.01422460               65.09064535                0.01000000               -0.15315937               -0.49967055                0.18731209                2.24456746                0.02694421                0.42014137
               8.96735405                6.01331692               65.09342137                0.01000001                0.04120151               -0.70653333                0.19031194                1.39358186                0.00455711                0.44903727
               9.96847089                6.00077195               65.09613354                0.01000000                0.11168425               -0.50611333                0.19401489                0.67781725               -0.00817448                0.41121677
               0.01182250                6.98146213               65.06563026                1.00000000               -0.03225298               -0.56024328                0.10247978                0.84041365               -0.00660139                0.14147001
               1.01149998                6.97445745               65.06924844                0.21249743               -0.02781421               -0.25299580                0.11394735                0.75605114               -0.06543703                0.03568717
               2.01126622                6.96742197               65.07168274                0.01000001               -0.44246678               -0.28201996                0.09454473                1.18961605               -0.04815307                0.01418439
               3.00265064                6.96793144               65.07548948                0.01000000               -0.61114733               -0.62712768                0.12810474                1.84221601                0.03719172               -0.00632036
               3.99904327                6.97244629               65.07933971                0.01001111               -0.38219385               -0.60146308                0.14881148                2.23100991                0.08433284                0.07984335
               4.99500676                6.98267283               65.08348152                0.01001323               -0.40553637               -0.45859935                0.16498305                2.62094139                0.13462133                0.14756669
               5.99093255                6.99436910               65.08761444                0.01000000               -0.38660595               -0.29285214                0.17583123                2.54612569                0.16160768                0.23594233
               6.98727464                7.00417037               65.09167519                0.01000000               -0.28840684               -0.29101164                0.18150839                2.21463037                0.16810161                0.33523520
               7.98516441                7.00952205               65.09548867                0.01000001               -0.13012352               -0.37902498                0.18530399                1.68268293                0.14132912                0.43726476
               8.98467217                7.00808878               65.09877842                0.01000000               -0.03700234               -0.36915508                0.18944895                0.92141566                0.07454189                0.47799804
               9.98442436                6.99854588               65.10129994                0.01000003               -0.02478098               -0.05998339                0.19553922                0.40587373                0.02617579                0.42023867
               0.01884535                7.98115542               65.06645015                1.00000000               -0.03293265               -0.03097595                0.10424959               -0.00041382               -0.00504697                0.01762443
               1.01851602                7.97411002               65.06994873                1.00000000               -0.03450242               -0.03468201                0.11462148               -0.00118055               -0.01181316               -0.00545588
               2.01815530                7.96706200               65.07331055                0.29175887               -0.03511667               -0.03680204                0.12543601               -0.00903650               -0.05330594                0.03149602
               3.01781369                7.95998871               65.07596615                0.01000001               -0.29340317               -0.41585432                0.10913017                1.05419383                0.02699944               -0.00287730
               4.01228724                7.96598064               65.08084921                0.01000000               -0.43180238               -0.99510624                0.14388111                2.15904425                0.16879547               -0.01416359
               5.00917764                7.97781928               65.08552870                0.01000000               -0.41883751               -0.34524465                0.16107755                2.43492401                0.20797427                0.09568150
               6.00391049                7.99194856               65.09042750                0.01000000               -0.48103709               -0.13496817                0.17465332                2.13802218                0.25875430                0.18318856
               6.99955690                8.00186929               65.09531948                0.01000001               -0.32641893               -0.15768458                0.17957555                1.62425450                0.30861891                0.27747338
               7.99738211                8.00664410               65.10032277                0.01000002               -0.13991852               -0.22497811                0.18065346                1.12938236                0.30048715                0.40217741
               8.99675853                8.00593382               65.10424741                0.01000001               -0.08539751               -0.16473667                0.18222291                0.64663555                0.19435508                0.65078713
               9.99567416                7.99957228               65.10683342                0.01000002               -0.10843710                0.25865446                0.18720220                0.35126892                0.11749236                0.45571816
               0.02590503                8.98084261               65.06733869                1.00000000               -0.03352385               -0.03159164                0.10645982               -0.00018232               -0.00023317                0.01737148
               1.02556979                8.97376381               65.07075668                0.99999999               -0.03491116               -0.03475971                0.11593539               -0.00065356               -0.00028278                0.00097068
               2.02520680                8.96668593               65.07418188                0.99999999               -0.03769561               -0.03755447                0.12492732               -0.00050450               -0.00023442               -0.00366380
               3.02481588                8.95961436               65.07760801                0.81367781               -0.04066077               -0.03922095                0.13350317               -0.00252899                0.00338260                0.02895517
               4.02439359                8.95254417               65.08110454                0.01000000               -0.35392772               -0.69431626                0.14103009                1.76728928                0.13722530               -0.04946410
               5.01773732                8.97576794               65.08716384                0.01000000               -0.73753036                0.00383231                0.15963702                2.05510761                0.29477975                0.04209742
               6.00964298                8.99166974               65.09261193                0.01000001               -0.63365648                0.02893966                0.17485150                1.29392666                0.32767025                0.09844284
               7.00506419                9.00101668               65.09815253                0.01000002               -0.29777254               -0.06753992                0.18035118                0.84079818                0.41109868                0.15713949
               8.00368753                9.00502249               65.10400176                0.01000002               -0.01937420               -0.15937544                0.17866831                0.52335025                0.62088033                0.25257525
               9.00467671                9.00479405               65.11217779                1.00000000                0.02426473               -0.08194502                0.16209742                0.38638832                0.41204902                0.40534326
              10.00417282                9.00371897               65.11205074                0.99999488               -0.05038834                0.18023915                0.17493456                0.37141763               -0.00272391                0.26385948
               0.03299929                9.98052359               65.06816032                1.00000000               -0.03396584               -0.03190172                0.10782158               -0.00144966                0.01249635                0.01348603
               1.03265963                9.97341483               65.07158201                1.00000000               -0.03523117               -0.03489831                0.11715819               -0.00164965                0.01635105                0.00184918
               2.03229467                9.96631091               65.07509655                0.99999999               -0.03773825               -0.03750159                0.12597142               -0.00174052                0.02280892               -0.00094599
               3.03190487                9.95920429               65.07866210                0.99999998               -0.04076129               -0.04100628                0.13596670               -0.00193068                0.02596247                0.00151217
               4.03147944                9.95209432               65.08222769                0.01688598               -1.03753241               -0.04498525                0.14362339                1.64316713                0.15736643               -0.00344436
               5.01115422                9.97789593               65.08837516                0.01000001               -1.34695804                0.21279933                0.16482132                1.36334170                0.30452012               -0.00224799
               6.00454028                9.99252736               65.09404723                0.01000001               -0.40670513                0.08576136                0.18269908                0.62085820                0.33697465                0.03851664
               7.00302012               10.00051850               65.09969026                0.01000000               -0.02342692               -0.04981801                0.18906395                0.34205438                0.43382423                0.06644802
               8.00407174               10.00345659               65.10597479                0.01000000                0.13848465               -0.15658929                0.18463403                0.22724246                0.53510179                0.13131621
               9.00578981               10.00429492               65.11206343                0.99999320                0.05904569               -0.04991250                0.17207789                0.09733353                0.31441105                0.00362693
              10.00525266               10.00317706               65.11193638                0.99998935               -0.05371534               -0.05419100                0.18491506               -0.00380269                0.00324520               -0.00324546
              -0.07233761               -0.00690886               66.05143343                1.00000000               -0.02300706               -0.02419161                0.07658339                0.00136638               -0.00797746                0.00766489
               0.92743232               -0.01092870               66.05497862                1.00000000               -0.02310272               -0.02442882                0.07738564                0.00016302               -0.00862150               -0.00151682
               1.92720034               -0.01492268               66.05851127                0.01000000                0.13163475               -0.02466552                0.07818777                0.18537925               -0.01386055               -0.00349733
               2.93006501               -0.01518471               66.06194693                0.01000000                0.23069031               -0.08141157                0.08422615                0.15432388               -0.03860319                0.03947748
               3.93181414               -0.01264053               66.06465837                0.01000000                0.10268670               -0.03222724                0.09038748                0.19826465               -0.11671715                0.04339681
               4.93211875               -0.00591224               66.06648134                0.01000001               -0.12560385                0.01408322                0.09778681                0.33168638               -0.20085327                0.04446077
               5.92930206                0.00574868               66.06749953                0.01000000               -0.63430468                0.12393347                0.10167764                0.74873931               -0.26485633                0.02891300
               6.91943265                0.02425553               66.06786687                0.97143610               -0.50687086               -0.03073709                0.09032692                0.80596644               -0.13785237               -0.00143447
               7.91916465                0.02671965               66.07100211                1.00000000               -0.02681389               -0.03072830                0.09027463                0.00006954                0.00089522               -0.00016480
               8.91889638                0.02925872               66.07414248                0.99999998               -0.02680623               -0.03069209                0.09015481                0.00009824                0.00112927                0.00111257
               9.91862852                0.03187209               66.07727669                1.00000000               -0.02678538               -0.03072705                0.09019097               -0.00375590                0.00130445                0.00259209
              -0.06830411                0.99284922               66.05267473                1.00000000               -0.02550310               -0.02537081                0.08460286                0.00125565                0.00144072                0.00812334
               0.93144086                0.98882701               66.05622157                0.01002111               -0.02568782               -0.02562358                0.08540548                0.00005282                0.00427488               -0.00443268
               1.93118214                0.98483066               66.05982704                0.01000000               -0.04868423               -0.02835092                0.08620802                0.14718956                0.00921066                0.04744509
               2.93046718                0.98400117               66.06346955                0.01000000               -0.10107924               -0.05110915                0.09372513                0.28602279               -0.03123122                0.06974536
               3.92916055                0.98703720               66.06618747                0.01000000               -0.21130839               -0.01521529                0.09999751                0.46361454               -0.10503424                0.07664081
               4.92624101                0.99422859               66.06814680                0.01000000               -0.37274889                0.02428123                0.10716690                0.72250055               -0.17698886                0.07911301
               5.92170557                1.00698801               66.06924602                0.01000001               -0.46170873                0.00085985                0.11356819                1.07256041               -0.24497443                0.07094211
               6.91700683                1.02394816               66.06965332                0.86516332               -0.25209110               -0.03424771                0.11418626                0.72859620               -0.13597519               -0.00191875
               7.91666375                1.02641237               66.07279573                1.00000000               -0.03428477               -0.03426229                0.11424376                0.00010930                0.00066746                0.00001183
               8.91632114                1.02895180               66.07594010                1.00000000               -0.03430808               -0.03426395                0.11429909                0.00006274                0.00039294                0.00188101
               9.91597759                1.03156482               66.07907738                1.00000000               -0.03435492               -0.03431305                0.11437547               -0.00363737                0.00019166                0.00416608
              -0.06426808                1.99258372               66.05392917                0.01000368               -0.02799859                0.07999958                0.09262219                0.13713974                0.00330004                0.11355217
               0.93545194                1.98855883               66.05740483                0.01000000               -0.03809771               -0.06456632                0.09342509                0.11816638                0.06684507                0.11362726
               1.93496997                1.98451030               66.06215496                0.01000001               -0.09365019               -0.07608976                0.09795252                0.27866090                0.05789481                0.13250575
               2.93357893                1.98379310               66.06555828                0.01000000               -0.20554798               -0.06083201                0.10464541                0.60900309               -0.03731930                0.12633201
               3.93085901                1.98705517               66.06836505                0.01000000               -0.34804943               -0.02806307                0.11226996                0.94206961               -0.09030886                0.13286774
               4.92661794                1.99457339               66.07049209                0.01000001               -0.49126516               -0.01317535                0.11988852                1.26099179               -0.15023903                0.14092491
               5.92103371                2.00576588               66.07186137                0.01000000               -0.60188597               -0.09799039                0.12844871                1.69992347               -0.26998493                0.15265775
               6.91458023                2.02357058               66.07143337                0.01000000               -0.34352535               -0.40350847                0.13788164                1.20977104               -0.17760335                0.16702432
               7.91416320                2.02603440               66.07459210                0.41475900               -0.04175241               -0.04133232                0.13821107                0.00002101                0.00110263                0.00598564
               8.91374518                2.02857344               66.07774833                1.00000000               -0.04167371               -0.04145301                0.13848835                0.00006742                0.00041883                0.00211854
               9.91332972                2.03118583               66.08090070                0.99999998               -0.04154524               -0.04150254                0.13854628               -0.00367177                0.00005982                0.00452647
              -0.05751153                2.99444922               66.05728462                0.01000000               -0.06108601                0.14650330                0.09444182                0.12592584                0.02596755                0.20078797
               0.94187761                2.98753569               66.06100884                0.01000000               -0.04836968               -0.13114845                0.09776804                0.26392728                0.01302024                0.22738399
               1.94152108                2.98330887               66.06466467                0.01000000               -0.08876208               -0.18425613                0.10489899                0.59985282               -0.00741085                0.17372246
               2.94010237                2.98278453               66.06806672                0.01000000               -0.21497099               -0.16479170                0.11378978                1.00985538               -0.03832093                0.16764067
               3.93722166                2.98647594               66.07095224                0.01004986               -0.36761189               -0.12130957                0.12356960                1.41403880               -0.07450278                0.17063823
               4.93275013                2.99396509               66.07334373                0.01000000               -0.52574043               -0.10180397                0.13347955                1.78694686               -0.11640322                0.18650668
               5.92670685                3.00502821               66.07509836                0.01000001               -0.59082036               -0.15261717                0.14326845                1.96728922               -0.15031731                0.21818925
               6.92093373                3.01587799               66.07660728                0.01000000               -0.75227699               -0.51234697                0.15287224                1.88306947               -0.24204497                0.31219245
               7.91166131                3.02558572               66.07651004                0.01000001               -0.48813333               -0.26417492                0.16250856                1.09979784               -0.16862381                0.21088271
               8.91117106                3.02812274               66.07955196                0.15007198               -0.04909718               -0.04550937                0.16283754                0.00290065               -0.00687300                0.04604518
               9.91067937                3.03073477               66.08270507                1.00000000               -0.04916922               -0.04733673                0.16282169               -0.00235788               -0.00181211                0.05022116
              -0.04792250                3.99551379               66.06008437                0.01000000               -0.02066647                0.04399587                0.09753694                0.19508266               -0.00102100                0.16003353
               0.95187083                3.98593586               66.06383657                0.01000000               -0.01796573               -0.22984833                0.09297337                0.46136718               -0.01878607                0.19531548
               1.95171818                3.98082518               66.06740337                0.01000000               -0.06309304               -0.31689371                0.10255430                0.94977555               -0.03802685                0.19181436
               2.95060897                3.98049727               66.07070717                0.01004509               -0.18794762               -0.29985219                0.11840025                1.42172465               -0.04787116                0.17987058
               3.94795923                3.98462897               66.07372949                0.01000000               -0.34021782               -0.25255004                0.13225479                1.86269078               -0.05617263                0.18684850
               4.94380461                3.99253731               66.07644046                0.01000001               -0.47463215               -0.20578896                0.14428250                2.20383382               -0.06887696                0.21153704
               5.93846659                4.00271353               66.07882739                0.01000001               -0.60602569               -0.24101498                0.15498560                2.40668058               -0.09655583                0.25623689
               6.93168410                4.01332364               66.08072943                0.01000001               -0.72760869               -0.28128268                0.16393591                2.29523419               -0.12574088                0.29607782
               7.92391441                4.02075091               66.08241598                0.01000000               -1.15149799               -0.36126076                0.17126458                2.28210109               -0.23174206                0.39051820
               8.90865414                4.02766325               66.08224663                0.01000000               -0.79279572               -0.36476779                0.18645788                1.93166123               -0.16746811                0.32370536
               9.90805850                4.03023910               66.08544495                0.01000000               -0.05956423               -1.18361339                0.18633139                1.85495415               -0.00332104                0.29831396
              -0.03445402                4.99532913               66.06219160                0.01000003                0.02475871               -0.19148303                0.10429681                0.33601225               -0.02163013                0.13909667
               0.96579357                4.98293872               66.06622445                0.01000000                0.02045994               -0.37814886                0.07600404                0.73757510               -0.04436468                0.16416993
               1.96595518                4.97697099               66.06986060                0.01000001               -0.05302517               -0.44016665                0.09563513                1.28089352               -0.05758800                0.15602939
               2.96473307                4.97678749               66.07321772                0.01000000               -0.17598720               -0.44287192                0.11939452                1.80317671               -0.04721393                0.15310862
               3.96243544                4.98142494               66.07646072                0.01000001               -0.29954076               -0.37412591                0.13910424                2.20714000               -0.02739881                0.17471904
               4.95874225                4.98984931               66.07958428                0.01000001               -0.41906532               -0.31851391                0.15262758                2.53015757               -0.01854492                0.21333443
               5.95405413                5.00020791               66.08249968                0.01000423               -0.49706072               -0.28645322                0.16267712                2.67821560               -0.02398745                0.26355607
               6.94880104                5.01025234               66.08515553                0.01000000               -0.55452049               -0.31677315                0.17051154                2.70594452               -0.05029487                0.32541333
               7.94296372                5.01836051               66.08736144                0.01000000               -0.42424717               -0.36964803                0.17820423                2.58194528               -0.07145825                0.37843925
               8.94031609                5.02082738               66.08962960                0.01000000               -0.01684813               -0.77187354                0.18395746                2.23390428               -0.06286252                0.50257327
               9.94262676                5.00706250               66.09219546                0.01000000                0.23106651               -1.54630572                0.18852750                1.50341435               -0.05998717                0.46033807
              -0.01642144                5.99168413               66.06419383                0.01000005                0.14019084               -0.72731813                0.16430805                0.79579995               -0.02356702                0.14980392
               0.98498047                5.97837288               66.06811809                0.01000001               -0.00456398               -0.46501864                0.07567896                1.11547902               -0.03324012                0.12677317
               1.98348728                5.97202184               66.07176179                0.01000000               -0.13809563               -0.52723776                0.08609435                1.74725355               -0.05265649                0.05340803
               2.98221856                5.97163983               66.07525922                0.01000001               -0.22235384               -0.49370899                0.12226050                1.97934394               -0.01752716                0.08828710
               3.97904021                5.97714646               66.07890052                0.01000001               -0.32968821               -0.49606551                0.14547864                2.39661867                0.02273281                0.13023169
               4.97562480                5.98616703               66.08252256                0.01000618               -0.37061700               -0.39987705                0.15803506                2.66061748                0.04737888                0.19039831
               5.97162787                5.99698447               66.08605815                0.01000001               -0.39872024               -0.33151281                0.16602450                2.75964406                0.05649599                0.25532890
               6.96765039                6.00698818               66.08940402                0.01000000               -0.33247958               -0.33161683                0.17327617                2.62851909                0.04685470                0.33248353
               7.96497828                6.01335795               66.09248440                0.01000000               -0.15100814               -0.46971183                0.18018506                2.26347086                0.02585890                0.40224663
               8.96463023                6.01222578               66.09529199                0.01000001                0.03391316               -0.67231920                0.18535401                1.40593174                0.00299298                0.43304427
               9.96565654                5.99931298               66.09804746                0.01000000                0.10263111               -0.48630455                0.19078935                0.68401281               -0.00898905                0.39930661
               0.00808447                6.98078277               66.06665467                1.00000000               -0.03190354               -0.56045119                0.10223369                0.86893527               -0.00599468                0.09643328
               1.00776544                6.97363835               66.07037737                0.13575730               -0.02255831               -0.25388388                0.11165949                0.77902080               -0.08344706                0.06565480
               2.00763331                6.96642624               66.07254254                0.01000106               -0.42850517               -0.29506578                0.07254726                1.21766107               -0.04432632                0.03376553
               2.99919533                6.96691331               66.07672300                0.01000000               -0.58963461               -0.63824011                0.12825631                1.85707055                0.06368057               -0.01397097
               3.99584061                6.97150363               66.08078824                0.01000002               -0.35393721               -0.61162364                0.14609275                2.25209543                0.08949219                0.07210799
               4.99211659                6.98185177               66.08509958                0.01000000               -0.37073735               -0.46216330                0.15864241                2.64186827                0.13067336                0.14329056
               5.98842587                6.99357765               66.08932870                0.01000000               -0.35593234               -0.28978302                0.16731357                2.58402406                0.15694600                0.22349263
               6.98499794                7.00362000               66.09346037                0.01000000               -0.27151655               -0.28290046                0.17470146                2.26926091                0.16416861                0.31846171
               7.98299554                7.00896627               66.09731073                0.01000001               -0.12591250               -0.35127561                0.17890351                1.73322933                0.13779077                0.41710427
               8.98247969                7.00738100               66.10065141                0.01008488               -0.04314624               -0.32688676                0.18358054                0.95671525                0.07274792                0.45764631
               9.98213261                6.99733641               66.10324936                0.01000003               -0.03470814               -0.03049170                0.19083489                0.42300820                0.02548752                0.40272949
               0.01524611                7.98047511               66.06749611                1.00000000               -0.03286924               -0.03118442                0.10478916               -0.00031958               -0.00465925                0.01911343
               1.01491742                7.97329521               66.07109001                0.99999999               -0.03402836               -0.03437174                0.11360231               -0.00106350               -0.01094028               -0.00542675
               2.01456555                7.96612053               66.07455570                0.21885262               -0.03174197               -0.03387623                0.12319030               -0.01628457               -0.06827578                0.04841114
               3.01428258                7.95887503               66.07698833                0.01000001               -0.27109448               -0.41897502                0.09905859                1.04629088                0.02831787               -0.00246355
               4.00914366                7.96491398               66.08224024                0.01000000               -0.39472219               -1.00976598                0.13962964                2.15800276                0.18623679               -0.02105594
               5.00638814                7.97692376               66.08710772                0.01000000               -0.38017711               -0.35613646                0.15509051                2.45309026                0.21007419                0.08710237
               6.00154011                7.99118881               66.09213591                0.01000000               -0.43705739               -0.14030793                0.16726730                2.16779867                0.25575054                0.16890144
               6.99764699                8.00133017               66.09708532                0.01000001               -0.28291231               -0.16480078                0.17303327                1.67879558                0.30160215                0.26115663
               7.99588187                8.00633243               66.10210062                0.01000001               -0.11263001               -0.21573020                0.17483815                1.20957965                0.29230837                0.38338321
               8.99539439                8.00568804               66.10604676                0.01000000               -0.08379982               -0.12457181                0.17757071                0.72997806                0.18811787                0.62340322
               9.99420587                7.99870315               66.10869734                0.01000002               -0.11885182                0.32098959                0.18365471                0.40530285                0.11195906                0.43334268
               0.02243788                8.98015908               66.06841092                1.00000000               -0.03391336               -0.03204510                0.10788470               -0.00017007                0.00018327                0.01874364
               1.02209874                8.97295091               66.07191717                0.99999999               -0.03550432               -0.03462085                0.11599220               -0.00079626               -0.00018349                0.00125191
               2.02172779                8.96574871               66.07542124                0.99999999               -0.03855244               -0.03710181                0.12392219               -0.00253173               -0.00056809               -0.00549025
               3.02132769                8.95853381               66.07892593                0.91110835               -0.03879283               -0.03550084                0.12565431               -0.00905356                0.00319150                0.04229513
               4.02095193                8.95130831               66.08250939                0.01000000               -0.32120629               -0.69777715                0.12381527                1.76093746                0.14042073               -0.05093582
               5.01490357                8.97472904               66.08871145                0.01000000               -0.67882488               -0.01558813                0.15471333                2.06740562                0.30068689                0.03542542
               6.00737544                8.99077149               66.09432928                0.01000001               -0.57366705                0.01126749                0.16810618                1.31323695                0.32777794                0.08917955
               7.00343023                9.00032399               66.09992597                0.01000002               -0.22730931               -0.08797107                0.17409769                0.87890112                0.40214683                0.14648959
               8.00282925                9.00465166               66.10576381                0.01000004                0.06391550               -0.18008112                0.17366783                0.59288653                0.60080184                0.24023671
               9.00470854                9.00488956               66.11378525                1.00000000                0.06896049               -0.06462025                0.15939298                0.47995424                0.39712278                0.39018572
              10.00420846                9.00375620               66.11380219                1.00000000               -0.05000780                0.22529682                0.17535537                0.44376956               -0.00272129                0.25267763
               0.02965905                9.97983420               66.06925055                1.00000000               -0.03471844               -0.03248783                0.11020891               -0.00102421                0.01361270                0.01444846
               1.02931186                9.97260279               66.07275972                0.99999997               -0.03635155               -0.03481237                0.11816313               -0.00147351                0.01699151                0.00197807
               2.02893202                9.96537849               66.07634829                0.99999998               -0.03849739               -0.03702217                0.12613706               -0.00146614                0.02380489               -0.00209795
               3.02854192                9.95816501               66.08000937                0.99999994               -0.03824214               -0.03687946                0.12863167                0.00041961                0.02669483                0.00176658
               4.02816717                9.95095844               66.08366085                0.01323901               -1.01344251               -0.03498671                0.12698316                1.64387349                0.16115651               -0.00228727
               5.00827307                9.97661200               66.08997537                0.01000001               -1.29786346                0.18829626                0.15950385                1.35973561                0.31542189               -0.00580028
               6.00220991                9.99141416               66.09584098                0.01000001               -0.34641135                0.06426661                0.17583067                0.63138414                0.34074901                0.03346237
               7.00134484                9.99957075               66.10155111                0.01000000                0.04820599               -0.07532411                0.18289406                0.35729380                0.42425441                0.06049100
               8.00317403               10.00273081               66.10779987                0.01000000                0.22720484               -0.19208540                0.18039688                0.27572223                0.51480230                0.12440370
               9.00588894               10.00439564               66.11378212                0.99999999                0.10869751               -0.04939205                0.17165838                0.14195350                0.30189044                0.00362558
              10.00534798               10.00320908               66.11379905                0.99999996               -0.05409604               -0.05471192                0.18762080               -0.00470392                0.00324370               -0.00324351
              -0.07596659               -0.00811360               67.05220177                1.00000000               -0.02302356               -0.02439064                0.07708406                0.00127340               -0.00797769                0.00766465
               0.92380317               -0.01222691               67.05575070                0.99999999               -0.02299235               -0.02436070                0.07703005                0.00003058               -0.00862217               -0.00151665
               1.92357356               -0.01631353               67.05928709                0.01000001                0.13934339               -0.02433035                0.07697603                0.20093129               -0.01178230               -0.00349767
               2.92659004               -0.01635363               67.06276808                0.01000000                0.23874547               -0.07912699                0.08042149                0.16420450               -0.03546185                0.03998356
               3.92834847               -0.01376850               67.06554229                0.01000001                0.10388644               -0.03137103                0.08586025                0.19851544               -0.11468366                0.04452551
               4.92866777               -0.00717514               67.06742642                0.01000000               -0.12065344                0.01520312                0.09160860                0.32532872               -0.20031370                0.04478425
               5.92593540                0.00422019               67.06846859                0.01000000               -0.61828205                0.12221330                0.09459287                0.73035486               -0.27095439                0.02822875
               6.91630213                0.02233498               67.06877033                0.97235048               -0.49502487               -0.03091186                0.09045498                0.78618552               -0.14114850               -0.00151480
               7.91603490                0.02480411               67.07190179                1.00000000               -0.02663661               -0.03069254                0.08972159                0.00000817                0.00058593               -0.00023952
               8.91576940                0.02735141               67.07503757                1.00000000               -0.02642610               -0.03044894                0.08886334                0.00004366                0.00081822                0.00108724
               9.91550638                0.02997587               67.07816903                1.00000000               -0.02630137               -0.03026548                0.08825227               -0.00400252                0.00106761                0.00240156
              -0.07184056                0.99164249               67.05352453                1.00000000               -0.02560044               -0.02560974                0.08535882                0.00129158                0.00144079                0.00812292
               0.92790344                0.98752948               67.05707512                0.01000000               -0.02566041               -0.02558625                0.08530545                0.00004929                0.00427496               -0.00443248
               1.92764624                0.98344317               67.06068434                0.01000000               -0.04719348               -0.01602268                0.08525157                0.16097874                0.01192026                0.04818907
               2.92695957                0.98285510               67.06438478                0.01000000               -0.09509301               -0.04655503                0.08981112                0.29877547               -0.02681243                0.07080386
               3.92574438                0.98591779               67.06717061                0.01000000               -0.20164311               -0.01336634                0.09629845                0.46247662               -0.10085149                0.07817867
               4.92292671                0.99297689               67.06920511                0.01000000               -0.36302427                0.02599092                0.10396779                0.71059183               -0.17166842                0.08014942
               5.91848389                1.00544232               67.07037002                0.01000001               -0.45273431                0.00381026                0.11115408                1.04885830               -0.24222595                0.06919430
               6.91387202                1.02202586               67.07080015                0.85719393               -0.24785613               -0.03454516                0.11517085                0.70959268               -0.13466485               -0.00211823
               7.91352677                1.02449719               67.07394000                0.99999994               -0.03440353               -0.03435926                0.11460776                0.00016057                0.00069833               -0.00007175
               8.91318395                1.02704692               67.07708181                1.00000000               -0.03424361               -0.03417103                0.11404152                0.00008911                0.00041759                0.00189959
               9.91284190                1.02967322               67.08021681                1.00000000               -0.03420556               -0.03397266                0.11348513               -0.00379261                0.00020991                0.00401800
              -0.06771475                1.99137420               67.05486044                0.01000000               -0.02817670                0.08296376                0.09363270                0.13227015                0.00329995                0.10932179
               0.93200348                1.98726137               67.05833986                0.01000000               -0.04088612               -0.05089726                0.09358042                0.12102463                0.06758939                0.11098506
               1.93146752                1.98336602               67.06310862                0.01000001               -0.09562760               -0.05543876                0.09415243                0.28708373                0.06032228                0.13067569
               2.93009093                1.98271526               67.06657197                0.01000000               -0.19956595               -0.05125085                0.09865536                0.61125202               -0.03146826                0.12542790
               3.92747621                1.98596417               67.06945488                0.01000000               -0.33679302               -0.02299615                0.10609686                0.93628715               -0.08251789                0.13353013
               4.92335507                1.99334468               67.07167161                0.01000001               -0.48063031               -0.00817883                0.11560020                1.24575849               -0.14142467                0.14218314
               5.91786360                2.00429640               67.07313562                0.01000000               -0.59579744               -0.08904149                0.12598238                1.66930424               -0.25889851                0.15122249
               6.91143912                2.02164408               67.07282164                0.01000000               -0.34232738               -0.38862316                0.13960931                1.18778699               -0.17144424                0.16117289
               7.91101705                2.02411693               67.07598098                0.42370354               -0.04219863               -0.04174598                0.13951806                0.00001035                0.00158571                0.00626693
               8.91059515                2.02666799               67.07913718                0.99999999               -0.04195562               -0.04168234                0.13928638                0.00000178                0.00067033                0.00229221
               9.91017794                2.02929642               67.08228687                0.99999999               -0.04172070               -0.04143953                0.13861285               -0.00386064                0.00014923                0.00456460
              -0.06096949                2.99330176               67.05821277                0.01000000               -0.06983977                0.15800928                0.08900647                0.12590334                0.02440292                0.19647416
               0.93833212                2.98651154               67.06197249                0.01000000               -0.05482507               -0.10942720                0.10339566                0.25804092                0.01429936                0.20427353
               1.93793401                2.98233439               67.06568397                0.01000000               -0.08728302               -0.16792656                0.10150036                0.59306381               -0.00158802                0.16130683
               2.93658646                2.98183008               67.06915775                0.01000000               -0.20466543               -0.15268191                0.10493675                1.00280165               -0.02626661                0.16059438
               3.93384070                2.98545786               67.07213959                0.01005375               -0.35384022               -0.11298071                0.11470901                1.40296639               -0.06157040                0.16952841
               4.92950965                2.99281332               67.07464007                0.01000000               -0.51350625               -0.09255672                0.12615482                1.77075480               -0.10409188                0.18691913
               5.92357058                3.00366149               67.07650841                0.01000001               -0.58512103               -0.13931492                0.13864580                1.94663327               -0.13830385                0.21549780
               6.91780723                3.01425340               67.07812474                0.01000000               -0.75337606               -0.48628915                0.15085845                1.85969750               -0.22987758                0.30348732
               7.90850306                3.02366227               67.07814994                0.01000001               -0.49013686               -0.24911112                0.16615261                1.08760832               -0.16209479                0.20303256
               8.90800449                3.02621328               67.08118999                0.16955850               -0.04976155               -0.04619948                0.16482755                0.00253001               -0.00685989                0.04799087
               9.90750783                3.02884443               67.08433938                0.99999999               -0.04966670               -0.04679296                0.16393073               -0.00444620               -0.00188025                0.05228836
              -0.05161624                3.99453439               67.06106868                0.01000000               -0.02520913                0.05244776                0.10680539                0.18857155                0.00200410                0.15207426
               0.94813167                3.98507282               67.06477089                0.01000000               -0.01867503               -0.22048827                0.09302942                0.45174716               -0.00386073                0.16158825
               1.94801026                3.98000748               67.06839788                0.01000000               -0.05540917               -0.30514897                0.09763090                0.93721767               -0.01023903                0.16666478
               2.94702349                3.97966163               67.07183803                0.01005694               -0.17289828               -0.29111336                0.10863791                1.40796358               -0.02162938                0.17180090
               3.94455230                3.98370456               67.07499738                0.01000000               -0.32284774               -0.24426735                0.12222054                1.84876374               -0.03725671                0.18661964
               4.94056653                3.99149355               67.07783483                0.01000001               -0.45980564               -0.19507950                0.13498954                2.19097289               -0.05544618                0.21197259
               5.93535618                4.00151010               67.08033851                0.01000001               -0.59671183               -0.22479497                0.14745659                2.39311136               -0.08517409                0.25148264
               6.92863230                4.01191829               67.08234803                0.01000201               -0.72734224               -0.25798796                0.16011713                2.28240621               -0.11524764                0.28510689
               7.92080934                4.01913470               67.08413732                0.01000156               -1.15843551               -0.33232177                0.17264211                2.26599371               -0.21914707                0.37610638
               8.90546359                4.02574400               67.08416721                0.01000000               -0.79913129               -0.34938605                0.19707147                1.92389871               -0.15786914                0.31038090
               9.90482671                4.02836056               67.08736380                0.01000000               -0.06368735               -1.17860085                0.19573182                1.85859480               -0.00318998                0.28831666
              -0.03827493                4.99435072               67.06342371                0.01000003                0.01688891               -0.18205453                0.12584930                0.34131130                0.00116862                0.12057490
               0.96189396                4.98210177               67.06715605                0.01000000                0.01822456               -0.37601683                0.09967024                0.74355530               -0.00469633                0.12563531
               1.96208956                4.97623141               67.07084682                0.01000001               -0.04226521               -0.44594344                0.09828913                1.27692413               -0.00975187                0.14200624
               2.96104866                4.97600781               67.07439115                0.01000000               -0.15527511               -0.44349523                0.11578847                1.79110149               -0.01427472                0.15735216
               3.95898406                4.98057252               67.07780288                0.01000001               -0.27625443               -0.37087680                0.12976772                2.19756801               -0.01059433                0.18225058
               4.95552357                4.98891173               67.08106225                0.01000001               -0.39880006               -0.31048066                0.14314231                2.52490592               -0.00909257                0.21471685
               5.95100806                4.99916560               67.08408092                0.01000001               -0.48464093               -0.27134640                0.15380322                2.67798500               -0.01782537                0.25765446
               6.94583075                5.00909364               67.08682256                0.01000001               -0.55054186               -0.29419674                0.16391549                2.70730124               -0.04491389                0.31265196
               7.93999722                5.01701583               67.08913069                0.01000000               -0.42870683               -0.34072294                0.17567550                2.57993225               -0.06435734                0.36073159
               8.93725661                5.01922556               67.09148127                0.01000000               -0.02753076               -0.73940036                0.18550149                2.23219217               -0.05810701                0.47723957
               9.93944661                5.00527241               67.09410334                0.01000003                0.21899943               -1.53281928                0.19202443                1.50235880               -0.05742788                0.44065135
              -0.02029212                5.99089330               67.06555307                0.01000000                0.14142063               -0.71311018                0.13541815                0.79252631               -0.02623755                0.12326050
               0.98112208                5.97755249               67.06912264                0.01000001               -0.00325854               -0.46515703                0.10461167                1.11222624               -0.03007304                0.12817947
               1.97964271                5.97108862               67.07280525                0.01000000               -0.13088363               -0.54640224                0.12403898                1.75918682               -0.02921703                0.04210240
               2.97850441                5.97079172               67.07649737                0.01000001               -0.20214828               -0.50424503                0.12622927                1.99141526               -0.00475865                0.11268696
               3.97559974                5.97628702               67.08033872                0.01000001               -0.30164193               -0.50118908                0.14271696                2.39823428                0.02560796                0.14160605
               4.97247157                5.98528393               67.08406183                0.01000001               -0.34328853               -0.39791230                0.14963704                2.66761764                0.04703354                0.18959644
               5.96873397                5.99608317               67.08768941                0.01000124               -0.37717444               -0.32021961                0.15815402                2.77265246                0.05805241                0.24865914
               6.96492808                6.00603436               67.09109826                0.01000000               -0.32289528               -0.31176720                0.16538751                2.64911544                0.05166179                0.31455333
               7.96227607                6.01232025               67.09424905                0.01000000               -0.15386169               -0.43839600                0.17365303                2.28267989                0.02845375                0.38337607
               8.96185085                6.01095600               67.09712845                0.01000000                0.02520562               -0.63693121                0.18154697                1.41579077                0.00413010                0.41263165
               9.96278018                5.99770418               67.09994932                0.01000000                0.09293272               -0.46609127                0.18824573                0.68939825               -0.00879173                0.38251231
               0.00425722                6.98008852               67.06767494                0.99960832               -0.03140515               -0.55559254                0.10127633                0.86383670               -0.00570830                0.07879084
               1.00394316                6.97279863               67.07148163                0.05420458               -0.01115761               -0.25453978                0.10890708                0.76651987               -0.11276994                0.06943496
               2.00403406                6.96530337               67.07313368                0.01000001               -0.41323034               -0.29685451                0.07338612                1.21865134               -0.05847382                0.04483846
               2.99567856                6.96592291               67.07805460                0.01000000               -0.57887636               -0.65276050                0.15953183                1.87182296                0.06100565               -0.01766080
               3.99245654                6.97054874               67.08226157                0.01000001               -0.32993934               -0.62243252                0.14677901                2.26617056                0.07730151                0.07165402
               4.98907977                6.98095348               67.08665437                0.01000001               -0.33729267               -0.46672331                0.15329153                2.66121758                0.12393691                0.13644502
               5.98571068                6.99276120               67.09096071                0.01000000               -0.32518942               -0.28785825                0.15929845                2.61093677                0.14877134                0.21628519
               6.98257598                7.00285829               67.09516922                0.01000000               -0.24907504               -0.27037689                0.16595229                2.30914256                0.15801324                0.30043251
               7.98072918                7.00824791               67.09906674                0.01000000               -0.11937417               -0.32307804                0.17155488                1.78097036                0.13229350                0.39776851
               8.98018850                7.00648693               67.10245003                0.01000001               -0.04954848               -0.28439757                0.17691844                0.98879928                0.06836261                0.43669884
               9.97973821                6.99595059               67.10511663                0.01000003               -0.04502864               -0.00089365                0.18513442                0.43796540                0.02164906                0.38499958
               0.01156438                7.97978144               67.06854593                1.00000000               -0.03267454               -0.03127343                0.10480367               -0.00002651               -0.00416412                0.02042276
               1.01123763                7.97246169               67.07222078                0.99999998               -0.03364593               -0.03397479                0.11240342               -0.00086416               -0.00994272               -0.00505135
               2.01089146                7.96515153               67.07577435                0.14376899               -0.02710641               -0.02599207                0.12109161               -0.02862808               -0.08468562                0.07759170
               3.01069550                7.95773651               67.07794733                0.01000001               -0.24994366               -0.42418472                0.08752798                1.03999222                0.03375552               -0.01264532
               4.00589258                7.96383837               67.08364180                0.01000002               -0.36060223               -1.02219466                0.13836741                2.15864509                0.20328065               -0.04264730
               5.00348346                7.97594947               67.08863051                0.01000000               -0.34223457               -0.36723410                0.15353195                2.46695156                0.20366382                0.08046486
               5.99904789                7.99032601               67.09377285                0.01000000               -0.39296152               -0.15064723                0.15989164                2.19753431                0.25000903                0.15803473
               6.99562423                8.00062682               67.09878015                0.01000000               -0.23905287               -0.16888067                0.16536057                1.73146476                0.29312603                0.24493200
               7.99426683                8.00585869               67.10381954                0.01000272               -0.08500319               -0.20599718                0.16833153                1.28781652                0.28367180                0.36532769
               8.99392416                8.00526804               67.10779882                0.01000001               -0.08273285               -0.08122621                0.17298440                0.81099499                0.18173335                0.59626200
               9.99261218                7.99768630               67.11050652                0.01000002               -0.13119851                0.38601180                0.18125663                0.45914109                0.10590143                0.41734213
               0.01889619                8.97946305               67.06949638                1.00000000               -0.03403938               -0.03240671                0.10885490                0.00005019                0.00067107                0.02008332
               1.01855580                8.97211914               67.07307653                0.99999999               -0.03547564               -0.03461984                0.11598627               -0.00077184                0.00083911                0.00154412
               2.01818668                8.96478353               67.07666032                0.99999998               -0.03821208               -0.03683409                0.12290410               -0.00251347               -0.00456247               -0.00609625
               3.01779156                8.95743922               67.08012109                0.84227683               -0.03850980               -0.03318867                0.12435554               -0.01239887               -0.00970317                0.05362380
               4.01741648                8.95010484               67.08358084                0.01000000               -0.29301957               -0.70463619                0.12362394                1.75067881                0.14972499               -0.06546413
               5.01193117                8.97360880               67.09025811                0.01000000               -0.62162348               -0.03486887                0.15022707                2.07212418                0.31578615                0.03077940
               6.00498401                8.98974826               67.09597405                0.01000000               -0.51292843               -0.00764020                0.16177801                1.33017535                0.32293552                0.08066764
               7.00167260                8.99948068               67.10163448                0.01000002               -0.15698633               -0.10743894                0.16719652                0.91508967                0.39195829                0.13613453
               8.00184429                9.00412797               67.10747512                0.01001527                0.14540921               -0.19930720                0.16808696                0.66258371                0.57984375                0.22863261
               9.00458078                9.00486241               67.11536565                0.99999997                0.11201149               -0.04471701                0.15668317                0.57235673                0.38181630                0.37489575
              10.00408452                9.00367082               67.11555785                1.00000000               -0.04962639                0.27160899                0.17577711                0.51441588               -0.00271806                0.24330070
               0.02625320                9.97913331               67.07036450                1.00000000               -0.03514825               -0.03297366                0.11218119               -0.00070126                0.01468146                0.01554241
               1.02590171                9.97176929               67.07394527                0.99999999               -0.03660440               -0.03498441                0.11915387               -0.00133177                0.01904858                0.00190881
               2.02552111                9.96441484               67.07761929                0.99999997               -0.03877537               -0.03686811                0.12609850               -0.00138489                0.02131031               -0.00250388
               3.02512621                9.95707274               67.08123473                0.99999994               -0.03922655               -0.03664778                0.12812861                0.00000504                0.01453270               -0.00083467
               4.02473658                9.94974565               67.08476735                0.01441409               -0.99218413               -0.03591962                0.12823053                1.64097686                0.17155586               -0.00746275
               5.00528252                9.97525209               67.09156524                0.01000001               -1.24785309                0.16432903                0.15458561                1.35651358                0.33607165               -0.00909004
               5.99977952                9.99017320               67.09756385                0.01000001               -0.28681072                0.04249428                0.16964413                0.64084782                0.34066290                0.02854432
               6.99954631                9.99847804               67.10334814                0.01000000                0.11786328               -0.10026394                0.17659956                0.37233824                0.41402781                0.05498583
               8.00213678               10.00187254               67.10958273                0.01000002                0.31410671               -0.22554272                0.17542432                0.32403252                0.49450541                0.11790763
               9.00582844               10.00437370               67.11549660                1.00000000                0.15734425               -0.04887035                0.17123788                0.18706330                0.28970753                0.00362438
              10.00528367               10.00311848               67.11568880                1.00000000               -0.05447775               -0.05523394                0.19033186               -0.00560726                0.00324159               -0.00324152
              -0.07959504               -0.00940110               68.05297511                1.00000000               -0.02304059               -0.02458947                0.07758555                0.00118006               -0.00797647                0.00766293
               0.92017456               -0.01360787               68.05651923                1.00000000               -0.02288256               -0.02429217                0.07667513               -0.00010220               -0.00862219               -0.00151611
               1.91994731               -0.01778714               68.06005079                0.01000001                0.14630087               -0.02399529                0.07576534                0.21582784               -0.01036338               -0.00349867
               2.92310057               -0.01761845               68.06355536                0.01000001                0.24574083               -0.07681912                0.07717147                0.17343222               -0.03263138                0.03908507
               3.92486213               -0.01500666               68.06637557                0.01000000                0.10427981               -0.03051569                0.08147384                0.19833171               -0.11113688                0.04347024
               4.92518617               -0.00857394               68.06831351                0.01000001               -0.11615283                0.01603329                0.08716719                0.31805850               -0.19809106                0.04342199
               5.92253907                0.00251039               68.06939138                0.01000000               -0.60048383                0.11944758                0.09149053                0.70967056               -0.27235170                0.02680046
               6.91317649                0.02016559               68.06967596                0.97374692               -0.48149723               -0.03111029                0.09084685                0.76310813               -0.14173439               -0.00169012
               7.91290913                0.02263843               68.07279654                1.00000000               -0.02654976               -0.03066928                0.08936262                0.00001241                0.00007765               -0.00034973
               8.91264550                0.02519197               68.07591975                1.00000000               -0.02610863               -0.03017979                0.08761163                0.00002453                0.00021800                0.00102759
               9.91238695                0.02782456               68.07904173                1.00000000               -0.02585444               -0.02972188                0.08630696               -0.00425817                0.00052333                0.00189028
              -0.07537647                0.99035300               68.05438190                1.00000000               -0.02569759               -0.02584874                0.08611404                0.00132723                0.00144036                0.00812163
               0.92436655                0.98614921               68.05792768                0.01000000               -0.02563260               -0.02554849                0.08520459                0.00004454                0.00427439               -0.00443127
               1.92411088                0.98197290               68.06153207                0.01000000               -0.04609495               -0.00443363                0.08429291                0.17305731                0.01382490                0.04806935
               2.92344466                0.98161336               68.06526578                0.01000000               -0.08938441               -0.04264305                0.08621431                0.31090079               -0.02227035                0.06928510
               3.92232319                0.98468818               68.06811344                0.01000000               -0.19182142               -0.01182742                0.09228029                0.46099577               -0.09329489                0.07570652
               4.91960823                0.99158640               68.07022615                0.01000000               -0.35285875                0.02780174                0.10045621                0.69696133               -0.16337004                0.07734784
               5.91526602                1.00370487               68.07146910                0.01000001               -0.44323343                0.00707708                0.10905886                1.02173599               -0.23474500                0.06533667
               6.91074356                1.01985448               68.07195674                0.84844734               -0.24349787               -0.03480666                0.11606643                0.68781755               -0.13121873               -0.00249266
               7.91039606                1.02233173               68.07508788                0.99999994               -0.03454396               -0.03443104                0.11497615                0.00029688                0.00082368               -0.00015450
               8.91005268                1.02489017               68.07822093                1.00000000               -0.03421348               -0.03404325                0.11378088                0.00013989                0.00048137                0.00195641
               9.90971179                1.02752734               68.08134708                0.99999997               -0.03408911               -0.03350009                0.11247271               -0.00396506                0.00022400                0.00354460
              -0.07116090                1.99008192               68.05580182                0.01052404               -0.02835502                0.09087313                0.09464277                0.12160145                0.00330011                0.10065136
               0.92855555                1.98588116               68.05927644                0.01000000               -0.04473957               -0.04795411                0.09373651                0.11840554                0.06746819                0.11517107
               1.92794430                1.98212419               68.06403801                0.01000001               -0.09761164               -0.03635809                0.08942322                0.29203554                0.05597073                0.13288277
               2.92660331                1.98152869               68.06753139                0.01000000               -0.19176474               -0.04415044                0.09284465                0.61546830               -0.02458898                0.11875117
               3.92410901                1.98475679               68.07048698                0.01000000               -0.32473023               -0.01820890                0.10044557                0.93190767               -0.07101850                0.12893521
               4.92010871                1.99198210               68.07280409                0.01000001               -0.47016529               -0.00230717                0.11080720                1.22931949               -0.12824332                0.13782812
               5.91470570                2.00265194               68.07438101                0.01000000               -0.59013638               -0.07847985                0.12293156                1.63387224               -0.24342509                0.14599367
               6.90830598                2.01946945               68.07422556                0.01000000               -0.34131651               -0.37165655                0.14076029                1.16244806               -0.16239095                0.15320193
               7.90787937                2.02194981               68.07738246                0.43425958               -0.04266434               -0.04208484                0.14063847               -0.00001204                0.00258197                0.00771633
               8.90745269                2.02451111               68.08053406                0.99999999               -0.04230234               -0.04188263                0.14009833               -0.00017566                0.00113088                0.00272606
               9.90703333                2.02715455               68.08367296                0.99999999               -0.04193671               -0.04118644                0.13836367               -0.00409587                0.00027056                0.00446826
              -0.06454292                2.99217047               68.05906475                0.01000000               -0.07646813                0.16312057                0.11555658                0.09566901               -0.03673110                0.13004181
               0.93469240                2.98519013               68.06307675                0.01000000               -0.05765133               -0.09485477                0.10241425                0.24920706               -0.04453247                0.22533198
               1.93430406                2.98124574               68.06669468                0.01000000               -0.07854933               -0.15642854                0.09297491                0.60210890               -0.00983025                0.14124271
               2.93312142                2.98073035               68.07016545                0.01000000               -0.18980597               -0.14144022                0.09702100                1.00259165               -0.01400128                0.14969966
               3.93050794                2.98432400               68.07324642                0.01005461               -0.34109727               -0.10293556                0.10712392                1.39590948               -0.04453738                0.16370337
               4.92629947                2.99154025               68.07586682                0.01000000               -0.50259168               -0.08137592                0.11921540                1.75285608               -0.08743785                0.18230250
               5.92045610                3.00213527               68.07787127                0.01000001               -0.58024107               -0.12406304                0.13355676                1.92126498               -0.12173743                0.20839858
               6.91469465                3.01242135               68.07962445                0.01000000               -0.75509706               -0.45707495                0.14924708                1.83145624               -0.21139641                0.29131373
               7.90535416                3.02149004               68.07983309                0.01000000               -0.49251156               -0.23287622                0.17074952                1.07320403               -0.15245496                0.19455867
               8.90484442                3.02405252               68.08284851                0.19319375               -0.05055935               -0.04657585                0.16707894                0.00155741               -0.00752922                0.05370500
               9.90434298                3.02670361               68.08598368                0.99999999               -0.05014421               -0.04565388                0.16464048               -0.00648164               -0.00210489                0.05730191
              -0.05528685                3.99334433               68.06222048                0.01000000               -0.02487448                0.05428839                0.10547049                0.19635220               -0.01021044                0.16131431
               0.94446441                3.98398407               68.06569716                0.01000000               -0.01334490               -0.20452263                0.08792891                0.46177030                0.00117358                0.13301945
               1.94444626                3.97899561               68.06935599                0.01000000               -0.04437621               -0.29209961                0.09054757                0.94684042                0.01609902                0.14240865
               2.94357689                3.97869989               68.07287993                0.01006069               -0.16144779               -0.27275811                0.09958659                1.40362837                0.00443153                0.16330950
               3.94121730                3.98269808               68.07617390                0.01000000               -0.31111624               -0.22976954                0.11301555                1.83496051               -0.01466668                0.18393413
               4.93735456                3.99035458               68.07914025                0.01000001               -0.44836984               -0.18118065                0.12635898                2.17277388               -0.03877147                0.20926142
               5.93224990                4.00017068               68.08177652                0.01000001               -0.58871096               -0.20625885                0.14004448                2.37272909               -0.07003088                0.24372994
               6.92558034                4.01032795               68.08393177                0.01000007               -0.72688092               -0.23331044                0.15552627                2.26399748               -0.10007930                0.27224215
               7.91771229                4.01729228               68.08586883                0.01000321               -1.16550348               -0.30133183                0.17383886                2.24576694               -0.19468663                0.35621537
               8.90227027                4.02357959               68.08618806                0.01000000               -0.80553825               -0.33207909                0.20926171                1.91430422               -0.14109571                0.29539187
               9.90160152                4.02624148               68.08935959                0.01000001               -0.06687516               -1.17067985                0.20359536                1.86074316               -0.00525169                0.27717879
              -0.04189533                4.99325623               68.06470859                0.01000001                0.01718623               -0.17231122                0.13979480                0.34442027                0.00758887                0.12220734
               0.95827653                4.98109967               68.06821786                0.01000000                0.02101884               -0.36865822                0.10045824                0.74049717                0.01895156                0.11839017
               1.95852504                4.97540375               68.07182638                0.01000001               -0.03925050               -0.42092908                0.09159498                1.26287367                0.02290425                0.15200442
               2.95749152                4.97527519               68.07553348                0.01000000               -0.14862932               -0.42348833                0.10589639                1.76689488                0.02211957                0.16750203
               3.95555246                4.97972861               68.07905608                0.01000001               -0.26045833               -0.35890956                0.11986653                2.17060267                0.00573293                0.19483393
               4.95228235                4.98791664               68.08244712                0.01000001               -0.38075727               -0.29938705                0.13347355                2.50708479                0.00258735                0.21523056
               5.94793731                4.99801010               68.08557575                0.01000001               -0.47146799               -0.25464073                0.14480501                2.66705438               -0.00882477                0.25041113
               6.94285299                5.00775514               68.08843384                0.01000001               -0.54597227               -0.26976846                0.15673921                2.69984735               -0.03387059                0.29815937
               7.93701787                5.01546340               68.09087495                0.01000000               -0.43358422               -0.31014343                0.17194378                2.57303394               -0.05090931                0.33687686
               8.93418131                5.01741094               68.09333963                0.01000000               -0.03919002               -0.70349714                0.18529339                2.22844502               -0.04987644                0.44498780
               9.93623407                5.00329001               68.09603594                0.01001377                0.20527577               -1.51457726                0.19266834                1.49977884               -0.05187633                0.41458758
              -0.02408532                5.98989811               68.06690220                0.01000001                0.12121568               -0.69452506                0.15695266                0.78389222               -0.03775428                0.09112984
               0.97712684                5.97661090               68.07021032                0.01000001               -0.01932329               -0.45853811                0.11484586                1.12268435               -0.02595748                0.10177071
               1.97552821                5.97057703               68.07424257                0.01000000               -0.12684572               -0.55249234                0.11344749                1.74925139                0.02515809                0.07492289
               2.97458992                5.97023012               68.07778380                0.01000001               -0.17701535               -0.50825261                0.12008660                1.93694489               -0.03188873                0.19763450
               3.97198791                5.97551989               68.08175486                0.01000001               -0.26875738               -0.50474937                0.13444489                2.36855693                0.02199449                0.15999182
               4.96921477                5.98436684               68.08551530                0.01000001               -0.31177092               -0.39523254                0.13970271                2.65858990                0.04407448                0.19337210
               5.96575249                5.99507786               68.08922123                0.01000925               -0.35453948               -0.30950901                0.14867003                2.77574386                0.05843357                0.24120770
               6.96212398                6.00493258               68.09271177                0.01000000               -0.31176597               -0.29041870                0.15706007                2.66053682                0.05288514                0.29970888
               7.95951717                6.01108941               68.09595746                0.01000000               -0.15557108               -0.40561216                0.16655644                2.29598921                0.03039093                0.36126350
               8.95901256                6.00950965               68.09892293                0.01000007                0.01608927               -0.59831704                0.17625303                1.42381323                0.00579953                0.38963218
               9.95983895                5.99594993               68.10181237                0.01000000                0.08263913               -0.44054017                0.18287677                0.69394484               -0.00807555                0.36339423
               0.00035693                6.97936573               68.06868020                0.99820838               -0.03056362               -0.54179965                0.09936751                0.85124076               -0.00547310                0.06016104
               1.00005129                6.97192891               68.07255551                0.01035143               -0.02330393               -0.25058116                0.10589683                0.76757393               -0.12587867                0.06750592
               1.99989085                6.96435390               68.07401027                0.01002198               -0.43818658               -0.32156548                0.14584956                1.23991495               -0.42843895                0.27247691
               2.99128756                6.96511014               68.07991364                0.01000000               -0.55519861               -0.68372437                0.17224799                1.88900238               -0.00688985               -0.02223497
               3.98878688                6.96963363               68.08372382                0.01001271               -0.26956920               -0.63890630                0.13990845                2.27200126                0.03163229                0.08514393
               4.98589618                6.98001199               68.08816541                0.01001331               -0.29502180               -0.47187583                0.14797241                2.66509408                0.10977395                0.13875973
               5.98288644                6.99181992               68.09251466                0.01000000               -0.29220006               -0.28708486                0.15074105                2.62864785                0.14192575                0.20573151
               6.98005218                7.00194677               68.09677941                0.01000000               -0.22629272               -0.25845222                0.15665583                2.34350410                0.15304565                0.28442810
               7.97836059                7.00735116               68.10074183                0.01000007               -0.11275609               -0.29294006                0.16354856                1.82586451                0.12844860                0.37699906
               8.97779706                7.00544460               68.10418978                0.01000000               -0.05640972               -0.24059881                0.17089320                1.02287811                0.06638953                0.41667534
               9.97723239                6.99447921               68.10695205                0.01000000               -0.05646609                0.03294204                0.18035174                0.45693858                0.02111168                0.37127416
               0.00781313                7.97906212               68.06959219                1.00000000               -0.03229926               -0.03117783                0.10416704                0.00041983               -0.00365541                0.02135473
               1.00749014                7.97159928               68.07333807                0.99999998               -0.03339249               -0.03358046                0.11118972               -0.00080503               -0.00872077               -0.00432728
               2.00714528                7.96414572               68.07697753                0.07599151               -0.01999475               -0.02860253                0.11958875               -0.01712594               -0.10770967                0.09087199
               3.00709025                7.95655563               68.07873889                0.01000001               -0.23096015               -0.43956315                0.07128207                1.07607937                0.04033324               -0.04812123
               4.00252608                7.96274176               68.08500759                0.01000003               -0.33799411               -1.03800775                0.16149776                2.16981143                0.19641113               -0.03639813
               5.00033036                7.97492932               68.09017836                0.01000000               -0.30677090               -0.38010442                0.14857102                2.47621514                0.18947021                0.07135762
               5.99639066                7.98933616               68.09533374                0.01000000               -0.34337703               -0.16130348                0.15215757                2.22027727                0.23797944                0.14622260
               6.99346282                7.99976354               68.10039254                0.01000007               -0.19270172               -0.17340453                0.15703382                1.78052997                0.28367350                0.23024629
               7.99253663                8.00523061               68.10546725                0.01005770               -0.05603749               -0.19450174                0.16016757                1.36342515                0.27388022                0.34619306
               8.99234207                8.00469767               68.10950645                0.01000001               -0.08140613               -0.03774510                0.16686633                0.89216180                0.17482671                0.57102001
               9.99090851                7.99660877               68.11232248                0.01000002               -0.14335679                0.44803668                0.17930192                0.51797500                0.10230655                0.40226228
               0.01529101                8.97874218               68.07058802                0.99999998               -0.03394186               -0.03266518                0.10929393                0.00041295                0.00126798                0.02098987
               1.01495159                8.97125730               68.07423690                0.99999999               -0.03495147               -0.03478975                0.11603765               -0.00062075                0.00105815                0.00186668
               2.01459198                8.96378185               68.07787932                0.99999997               -0.03692380               -0.03676220                0.12219716               -0.00074757               -0.00438444               -0.00773901
               3.01421311                8.95631888               68.08141304                0.86742360               -0.03912782               -0.03172977                0.12823398               -0.01570623               -0.00770094                0.07585763
               4.01380942                8.94887347               68.08498187                0.01000000               -0.26935158               -0.71528002                0.13586772                1.74163636                0.15190880               -0.06831497
               5.00882608                8.97240990               68.09171599                0.01000000               -0.56758251               -0.05566944                0.14642544                2.07940082                0.31434162                0.01885215
               6.00245777                8.98859385               68.09756484                0.01000000               -0.45288757               -0.02653528                0.15581061                1.34591876                0.31835671                0.07236863
               6.99976833                8.99847868               68.10326990                0.01000251               -0.08814041               -0.12601994                0.16024546                0.95054821                0.37990914                0.12687191
               8.00069496                9.00346112               68.10912555                0.01000001                0.22469016               -0.21784350                0.16113111                0.72950333                0.55764120                0.21559901
               9.00426213                9.00468970               68.11691892                1.00000000                0.15373651               -0.02457236                0.15396640                0.66068828                0.36663006                0.35932463
              10.00376969                9.00343994               68.11731773                1.00000000               -0.04924396                0.31367979                0.17620002                0.58102004               -0.00271446                0.23265028
               0.02279114                9.97840881               68.07149417                1.00000000               -0.03530907               -0.03333621                0.11344021               -0.00051971                0.01568027                0.01621650
               1.02243805                9.97090348               68.07514280                0.99999999               -0.03611897               -0.03538201                0.12009530               -0.00127054                0.01955706                0.00194209
               2.02206876                9.96341048               68.07887026                0.99999999               -0.03767717               -0.03713746                0.12599622               -0.00144383                0.02233418               -0.00359418
               3.02168451                9.95592104               68.08257195                0.99999999               -0.04004876               -0.03978375                0.13301603               -0.00157643                0.01853366               -0.00050842
               4.02126778                9.94843616               68.08622546                0.01969499               -0.97432500               -0.04373093                0.14120762                1.64058120                0.17513579               -0.00553915
               5.00219801                9.97381593               68.09306708                0.01000000               -1.20137624                0.14060328                0.15088987                1.35565742                0.34033582               -0.01372400
               5.99724026                9.98880546               68.09923386                0.01000001               -0.22957468                0.02116113                0.16417718                0.64960948                0.34122928                0.02383425
               6.99760651                9.99724314               68.10508310                0.01000000                0.18377089               -0.12355372                0.17021664                0.38723259                0.40256685                0.05049731
               8.00091568               10.00087374               68.11130836                0.01000002                0.39852548               -0.25873810                0.17075684                0.37022575                0.47548927                0.11036748
               9.00557702               10.00420622               68.11720687                1.00000000                0.20563698               -0.04834730                0.17081616                0.23192033                0.27860768                0.00362320
              10.00502842               10.00288237               68.11760568                0.99999999               -0.05486039               -0.05575735                0.19304980               -0.00651295                0.00323944               -0.00323923
              -0.08321435               -0.01077393               69.05375348                1.00000000               -0.02305966               -0.02478610                0.07809055                0.00108496               -0.00797086                0.00765460
               0.91655505               -0.01507413               69.05728421                1.00000000               -0.02277475               -0.02422219                0.07632421               -0.00023636               -0.00861827               -0.00151563
               1.91633015               -0.01934607               69.06080239                0.01000001                0.15287869               -0.02365967                0.07456158                0.22951696               -0.00946635               -0.00349824
               2.91961263               -0.01899276               69.06431151                0.01000000                0.25187144               -0.07424697                0.07452257                0.18057906               -0.03010097                0.03663650
               3.92136758               -0.01637483               69.06717177                0.01000001                0.10387547               -0.03046629                0.07889216                0.19809048               -0.10622532                0.04109622
               4.92169014               -0.01013198               69.06916977                0.01000000               -0.11208330                0.01652487                0.08588778                0.31013058               -0.19364085                0.04098255
               5.91912592                0.00060077               69.07029840                0.01000000               -0.58139275                0.11586629                0.09174882                0.68682974               -0.27115719                0.02449127
               6.91006228                0.01773963               69.07058727                0.97597635               -0.46666235               -0.03132168                0.09178358                0.73734194               -0.14099351               -0.00220853
               7.90979267                0.02021444               69.07368904                1.00000000               -0.02668565               -0.03062548                0.08943573                0.00013671               -0.00080275               -0.00063504
               8.90952857                0.02276961               69.07678980                1.00000000               -0.02598909               -0.02978596                0.08668062                0.00000797               -0.00088644                0.00077966
               9.90927289                0.02540297               69.07989517                1.00000000               -0.02556797               -0.02900900                0.08469645               -0.00454555               -0.00063239                0.00050953
              -0.07890330                0.98897821               69.05524681                1.00000000               -0.02579428               -0.02608443                0.08686495                0.00136173                0.00143769                0.00811732
               0.92083876                0.98468365               69.05877921                0.01000000               -0.02560338               -0.02550788                0.08509950                0.00003638                0.00427109               -0.00442746
               1.92058464                0.98041733               69.06237020                0.01000000               -0.04529821                0.01035655                0.08332754                0.17914828                0.01475111                0.04478894
               2.91993280                0.98026477               69.06610907                0.01000000               -0.08332679               -0.04083166                0.08251892                0.32203615               -0.01690188                0.06442098
               3.91891810                0.98332051               69.06901622                0.01000000               -0.18145759               -0.01076379                0.08848673                0.45920199               -0.08413466                0.07125077
               4.91630364                0.99003327               69.07121424                0.01000000               -0.34298455                0.02962765                0.09762666                0.68224773               -0.15278179                0.07266904
               5.91205841                1.00175943               69.07255120                0.01000001               -0.43373895                0.01066668                0.10791531                0.99204321               -0.22465814                0.05987001
               6.90762886                1.01742641               69.07312148                0.83720946               -0.23896799               -0.03496164                0.11676704                0.66381627               -0.12607899               -0.00345019
               7.90727905                1.01990818               69.07623952                0.99999998               -0.03472430               -0.03441935                0.11522908                0.00064281                0.00112009               -0.00024561
               8.90693438                1.02247175               69.07935743                1.00000000               -0.03424909               -0.03373392                0.11330038                0.00016990                0.00056171                0.00207328
               9.90659407                1.02511288               69.08246627                0.99999163               -0.03403121               -0.03268912                0.11110485               -0.00425377                0.00019871                0.00217157
              -0.07459799                1.98870438               69.05675330                0.03714192               -0.02853557                0.02528659                0.09564960                0.02989132                0.00329886                0.12171152
               0.92511666                1.98441571               69.06021459                0.01000000               -0.05350115               -0.00430917                0.09389010                0.05647246                0.06417928                0.11114697
               1.92433199                1.98086106               69.06489709                0.01000001               -0.09832423               -0.02880332                0.08306058                0.29194877                0.05778972                0.11981783
               2.92315017                1.98019061               69.06842886                0.01000000               -0.17744312               -0.03946206                0.08752051                0.61853669               -0.01369562                0.10928417
               3.92078313                1.98340990               69.07146379                0.01000000               -0.31270020               -0.01377481                0.09523607                0.93002242               -0.05741674                0.12167683
               4.91689617                1.99046057               69.07388775                0.01000001               -0.46047466                0.00449727                0.10598492                1.21183006               -0.11315322                0.13057906
               5.91157363                2.00081410               69.07559425                0.01000000               -0.58531579               -0.06627347                0.11940249                1.59498095               -0.22448023                0.13792350
               6.90518985                2.01704040               69.07563685                0.01000000               -0.34067213               -0.35264785                0.14070263                1.13502854               -0.15037934                0.14352751
               7.90476019                2.01952605               69.07879375                0.44453472               -0.04312948               -0.04205535                0.14158365                0.00026896                0.00467700                0.01101948
               8.90432726                2.02209493               69.08193915                0.99999999               -0.04273251               -0.04191893                0.14083905               -0.00039591                0.00207428                0.00407338
               9.90390554                2.02474919               69.08505415                0.99999999               -0.04217218               -0.04045238                0.13712324               -0.00450726                0.00050114                0.00387679
              -0.06972812                2.98948394               69.06052390                0.01000001               -0.04603434                0.17062244                0.09824800                0.30256128               -0.09556060                0.08377480
               0.92981153                2.98459746               69.06402078                0.01000000                0.01884171               -0.09118003                0.06806515                0.31301506               -0.07449196                0.20060905
               1.93064871                2.97984127               69.06754346                0.01000000               -0.00284188               -0.15685511                0.08193564                0.58477761                0.00183932                0.11899244
               2.92975469                2.97947553               69.07109817                0.01000000               -0.17000618               -0.13154131                0.09114133                1.01738876                0.00631956                0.13455518
               3.92724859                2.98304501               69.07428207                0.01005667               -0.33093269               -0.09181566                0.10120049                1.39315971               -0.02548986                0.15474094
               4.92313604                2.99012321               69.07702438                0.01000000               -0.49351921               -0.06810498                0.11280641                1.73406311               -0.06894211                0.17429534
               5.91737820                3.00043396               69.07917955                0.01000001               -0.57592771               -0.10669384                0.12730682                1.89203247               -0.10243433                0.19806324
               6.91161749                3.01037346               69.08110968                0.01000000               -0.75741523               -0.42433237                0.14603333                1.79908329               -0.18557102                0.27578757
               7.90222990                3.01906707               69.08156493                0.01000002               -0.49570833               -0.21544480                0.18023405                1.05795168               -0.13702593                0.18512147
               8.90170332                3.02163337               69.08453157                0.22050714               -0.05172491               -0.04671007                0.17042178                0.00302022               -0.00821882                0.06602932
               9.90119540                3.02430383               69.08763219                0.99999999               -0.05079207               -0.04486592                0.16438013               -0.00929938               -0.00216195                0.06570459
              -0.05877380                3.99211683               69.06317809                0.01000001               -0.02065642                0.13146027                0.09933303                0.27684933                0.00060259                0.14274511
               0.94101964                3.98259211               69.06652947                0.01000000               -0.00383638               -0.23205255                0.08275331                0.54753954                0.02495065                0.09155783
               1.94114947                3.97772396               69.07020884                0.01000000               -0.03627164               -0.27281727                0.08271548                0.97754930                0.05209244                0.10998828
               2.94029420                3.97755978               69.07382977                0.01006241               -0.15754151               -0.25107799                0.09461569                1.41781421                0.03697684                0.14487151
               3.93799864                3.98157358               69.07725769                0.01000000               -0.30528592               -0.20783886                0.10589585                1.82375909                0.00997147                0.17589468
               4.93418848                3.98909847               69.08036201                0.01000001               -0.44173004               -0.16409646                0.11886810                2.15131214               -0.01971099                0.20218452
               5.92916404                3.99868022               69.08313940                0.01000001               -0.58250397               -0.18524266                0.13241964                2.34609634               -0.05293622                0.23255051
               6.92253840                4.00855375               69.08545855                0.01000972               -0.72523634               -0.20483136                0.14899645                2.23867899               -0.08022106                0.25559780
               7.91465931                4.01521715               69.08761409                0.01000080               -1.16937485               -0.27011684                0.16859379                2.22251627               -0.16038449                0.33284004
               8.89915091                4.02116073               69.08835245                0.01000000               -0.81403456               -0.31214616                0.22936772                1.90147432               -0.11548037                0.28407493
               9.89837862                4.02385187               69.09143571                0.01000000               -0.07722846               -1.15962259                0.21741444                1.86016674               -0.00614285                0.26721386
              -0.04514169                4.99211315               69.06621961                0.01000001                0.02968894               -0.16862766                0.12144804                0.33984346                0.04452637                0.11768601
               0.95515520                4.97995641               69.06916522                0.01000000                0.01868565               -0.36709321                0.08170131                0.72573519                0.07633754                0.08792713
               1.95523202                4.97438492               69.07267872                0.01000001               -0.04469212               -0.36603838                0.08421737                1.29602385                0.08185571                0.11818479
               2.95426135                4.97445397               69.07650908                0.01000000               -0.15234704               -0.35977632                0.09338557                1.72817256                0.06857432                0.15717917
               3.95218508                4.97888823               69.08020021                0.01000001               -0.26028558               -0.33772333                0.11196409                2.13484030                0.03558290                0.19380115
               4.94905564                4.98684128               69.08373172                0.01000001               -0.36701143               -0.28326945                0.12433656                2.47695396                0.01954626                0.21113673
               5.94484485                4.99672911               69.08697702                0.01000001               -0.46007535               -0.23559077                0.13615850                2.64888398                0.00172319                0.24072822
               6.93985414                5.00627683               69.08995734                0.01004718               -0.53858024               -0.24353957                0.14837960                2.68233941               -0.02397004                0.28212735
               7.93407325                5.01366474               69.09256957                0.01000000               -0.43780240               -0.27692571                0.16526483                2.55635115               -0.04237696                0.31684451
               8.93109809                5.01539045               69.09518714                0.01000000               -0.05284004               -0.66311200                0.17841725                2.22038340               -0.04092093                0.40436494
               9.93301645                5.00111138               69.09795670                0.01004182                0.19183577               -1.48979582                0.18733691                1.49515181               -0.04365906                0.38448833
              -0.02766346                5.98874428               69.06869213                0.01000002                0.09260243               -0.67556999                0.24358493                0.72753765                0.00332183                0.05576530
               0.97326257                5.97525025               69.07141956                0.01000001                0.01179226               -0.44677054                0.11050759                1.12996200               -0.01017346                0.10320890
               1.97257239                5.97040319               69.07507420                0.01000000               -0.14541132               -0.31834899                0.06071453                1.39945756                0.07640071                0.09976287
               2.97035434                5.97036426               69.07889911                0.01000001               -0.21321252               -0.49654247                0.10715691                1.79908900                0.02967040                0.21713774
               3.96830814                5.97481912               69.08302762                0.01000001               -0.22338237               -0.49446731                0.11798901                2.28605762                0.04556302                0.17367114
               4.96588669                5.98343308               69.08685589                0.01000001               -0.28009808               -0.38878349                0.12961473                2.62890255                0.04708273                0.19767576
               5.96270617                5.99396841               69.09066281                0.01004762               -0.33185653               -0.29828896                0.13935431                2.76701117                0.06170915                0.23102923
               6.95924956                6.00368296               69.09423946                0.01000000               -0.30167268               -0.27053716                0.14956914                2.66329146                0.05492505                0.28441544
               7.95667272                6.00967864               69.09758018                0.01000000               -0.15688159               -0.36933186                0.15855979                2.30150348                0.03480748                0.33958481
               8.95611193                6.00789849               69.10065351                0.01000977                0.00835316               -0.55767650                0.16898795                1.42926474                0.00966405                0.36535669
               9.95683978                5.99405596               69.10360686                0.01000000                0.07278546               -0.41227103                0.17512645                0.69671980               -0.00580776                0.34226316
              -0.00360287                6.97860175               69.06966229                0.98520293               -0.03016026               -0.52217798                0.09827594                0.82507267               -0.00522964                0.01814258
               0.99609553                6.97102100               69.07359956                0.01000002               -0.41449847               -0.22782419                0.10462549                0.99157488               -0.07952221                0.05818460
               1.98810716                6.96801794               69.07605067                0.01000001               -0.51341580               -0.36516406                0.18188729                1.21330913               -0.26983874                0.20756987
               2.98582721                6.96452312               69.08149956                0.01000000               -0.16348761               -0.75447873                0.10769332                1.70493576                0.01249341                0.03098370
               3.98483741                6.96899889               69.08505973                0.01000000               -0.16714037               -0.64833791                0.13039888                2.23078465               -0.01533868                0.15454009
               4.98248440                6.97906561               69.08961382                0.01004429               -0.24511037               -0.48035213                0.13659269                2.64122280                0.10118375                0.13315576
               5.97993520                6.99076333               69.09397554                0.01000000               -0.25373342               -0.28840633                0.14242293                2.63438007                0.13617635                0.19508372
               6.97740973                7.00086609               69.09830233                0.01000000               -0.20237055               -0.24708525                0.14850448                2.37146981                0.15024815                0.26793558
               7.97588779                7.00627810               69.10233772                0.01000000               -0.10518336               -0.26399083                0.15563275                1.86643155                0.12629961                0.35617049
               8.97530607                7.00423692               69.10586790                0.01000000               -0.06259412               -0.19695897                0.16414427                1.05207028                0.06474767                0.39706243
               9.97463591                6.99286596               69.10872367                0.01000003               -0.06701607                0.06549538                0.17384281                0.47222844                0.02051146                0.35692677
               0.00399949                7.97830072               69.07062927                1.00000000               -0.03216197               -0.03104442                0.10386509                0.00063778               -0.00300533                0.02231567
               1.00367787                7.97069376               69.07444457                0.99999999               -0.03315222               -0.03346260                0.11074278               -0.00053378               -0.00771410               -0.00308349
               2.00333645                7.96309991               69.07816613                0.01000000               -0.01028816               -0.26409649                0.11860379                0.36983046               -0.13814821                0.04545630
               3.00347211                7.95527468               69.07937297                0.01000001               -0.24775534               -0.46999053                0.17796327                1.17301166               -0.23632671                0.27988350
               3.99838134                7.96185236               69.08687175                0.01000586               -0.32626987               -1.07391086                0.15091371                2.19328317                0.17208394               -0.06078090
               4.99694671                7.97382604               69.09160193                0.01000000               -0.23940174               -0.39842474                0.13897484                2.47492731                0.16115144                0.06112834
               5.99359330                7.98820028               69.09681600                0.01000000               -0.28912627               -0.17339097                0.14437445                2.23886248                0.23224066                0.13596255
               6.99116418                7.99874125               69.10192082                0.01000735               -0.14813905               -0.17692675                0.14893520                1.82494395                0.27414934                0.21621771
               7.99063052                8.00439882               69.10702289                0.01000001               -0.02993559               -0.18396302                0.15254270                1.43391832                0.26191535                0.32590203
               8.99056547                8.00395931               69.11113615                0.01000001               -0.08021318                0.00557807                0.16081794                0.96910865                0.16734886                0.54732096
               9.98902626                7.99536586               69.11409256                0.01000002               -0.15392134                0.50873279                0.17416533                0.57048976                0.09894601                0.38608102
               0.01162380                8.97798086               69.07168226                0.99994630               -0.03381395               -0.03276904                0.10942587                0.00059179                0.00149704                0.02153047
               1.01128566                8.97035175               69.07539728                0.99999999               -0.03504769               -0.03487141                0.11610901               -0.00029782                0.00115804                0.00211802
               2.01092285                8.96273601               69.07910426                0.99999998               -0.03753328               -0.03694160                0.12293807               -0.00131191               -0.00533823               -0.00854580
               3.01053499                8.95512331               69.08268577                0.88171818               -0.03855668               -0.02649617                0.12709167               -0.02728817               -0.00977419                0.10516761
               4.01015171                8.94752067               69.08629820                0.01000000               -0.24499849               -0.73523407                0.12907275                1.76683145                0.15555392               -0.09837779
               5.00563502                8.97109712               69.09318662                0.01000000               -0.51772382               -0.07753056                0.14477774                2.09544817                0.30993026                0.00831362
               5.99979724                8.98729551               69.09909027                0.01000007               -0.39624768               -0.04442203                0.14927088                1.36126036                0.31116558                0.06619748
               6.99771007                8.99732755               69.10483939                0.01000000               -0.02245673               -0.14398316                0.15363687                0.98311486                0.36825926                0.11835130
               7.99934810                9.00259884               69.11069774                0.01000005                0.30055639               -0.23422766                0.15517687                0.79565988                0.53700628                0.20345976
               9.00372120                9.00434848               69.11844498                1.00000000                0.19422449               -0.00445287                0.15124106                0.74897900                0.35242303                0.34514029
              10.00323259                9.00304062               69.11908185                1.00000000               -0.04886081                0.35559670                0.17662425                0.64544286               -0.00270989                0.22335700
               0.01926955                9.97764534               69.07263330                1.00000000               -0.03527860               -0.03355211                0.11413500               -0.00032561                0.01593318                0.01634098
               1.01891676                9.96999633               69.07634718                0.99999999               -0.03654528               -0.03554152                0.12070255               -0.00110280                0.01983811                0.00177646
               2.01853864                9.96236108               69.08013921                1.00000000               -0.03875393               -0.03749341                0.12775240               -0.00099892                0.02196094               -0.00405852
               3.01814168                9.95474476               69.08389505                0.99999999               -0.03972407               -0.03785531                0.13209345               -0.00000111                0.01671038               -0.00057178
               4.01774416                9.94714768               69.08759151                0.01816308               -0.95304232               -0.03729954                0.13428328                1.63577845                0.17795092               -0.00540971
               4.99908084                9.97227543               69.09458304                0.01000000               -1.15780410                0.11783103                0.15148195                1.35278951                0.34620781               -0.01927367
               5.99458808                9.98731184               69.10084739                0.01000001               -0.17788437                0.00163329                0.15831245                0.65839244                0.33750771                0.01952494
               6.99552315                9.99586159               69.10675248                0.01000000                0.24673581               -0.14659607                0.16437624                0.40142934                0.39275336                0.04648921
               7.99952280                9.99971427               69.11299787                0.01000002                0.47900622               -0.28845703                0.16607148                0.41790244                0.45815946                0.10619191
               9.00510327               10.00387025               69.11891292                1.00000000                0.25140194               -0.04782267                0.17039301                0.27638393                0.26753102                0.00362201
              10.00455083               10.00247780               69.11954979                0.99999998               -0.05524400               -0.05628215                0.19577623               -0.00742100                0.00323680               -0.00323721
              -0.08681591               -0.01223468               70.05453692                1.00000000               -0.02308125               -0.02497890                0.07861518                0.00098829               -0.00795066                0.00762696
               0.91295328               -0.01662820               70.05804571                1.00000000               -0.02267045               -0.02415244                0.07598309               -0.00036977               -0.00860507               -0.00151834
               1.91273068               -0.02099272               70.06154202                0.01000000                0.15879525               -0.02332965                0.07337206                0.24190466               -0.00862275               -0.00350289
               2.91612918               -0.02048084               70.06504582                0.01000001                0.25743436               -0.07347330                0.07244880                0.18909568               -0.02692685                0.03382025
               3.91787937               -0.01787364               70.06795342                0.01000000                0.10287671               -0.03051903                0.07854037                0.19747640               -0.09922083                0.03859189
               4.91818671               -0.01184323               70.07003127                0.01000001               -0.10904688                0.01650204                0.08879625                0.30150248               -0.18753385                0.03851223
               5.91569843               -0.00150537               70.07122636                0.01000000               -0.56103624                0.11117933                0.09689943                0.66152879               -0.26975726                0.02155214
               6.90696599                0.01505298               70.07151164                0.98004646               -0.45039460               -0.03170854                0.09370266                0.70827274               -0.14063568               -0.00329514
               7.90669054                0.01752475               70.07458526                1.00000000               -0.02721752               -0.03026450                0.09072902                0.00016359               -0.00227655               -0.00124734
               8.90642164                0.02007230               70.07765336                1.00000000               -0.02634825               -0.02900135                0.08718509               -0.00005701               -0.00250277                0.00001102
               9.90616357                0.02269255               70.08073566                1.00000000               -0.02580680               -0.02807591                0.08466270               -0.00452378               -0.00229122               -0.00216105
              -0.08241251                0.98751553               70.05611920                0.99999999               -0.02588915               -0.02631244                0.08760683                0.00139549                0.00143065                0.00810073
               0.91732859                0.98313028               70.05962967                0.01000000               -0.02557204               -0.02546327                0.08498222                0.00002641                0.00425905               -0.00441419
               1.91707604                0.97877399               70.06319862                0.01000000               -0.04339976                0.01699951                0.08234229                0.19046503                0.01477408                0.03904310
               2.91646060                0.97878443               70.06691615                0.01000000               -0.07703579               -0.03969461                0.07906823                0.33403506               -0.01241158                0.05938234
               3.91553533                0.98182117               70.06988317                0.01000000               -0.17214956               -0.01009430                0.08452808                0.45798863               -0.07496289                0.06800937
               4.91301761                0.98832179               70.07217869                0.01000000               -0.33348594                0.03133872                0.09517974                0.66568571               -0.14130423                0.06800686
               5.90886561                0.99960642               70.07362741                0.01000001               -0.42419762                0.01437155                0.10779561                0.95913423               -0.21279721                0.05288920
               6.90453366                1.01473590               70.07429208                0.82099719               -0.23415492               -0.03505876                0.11736925                0.63742961               -0.12020985               -0.00545410
               7.90418251                1.01722211               70.07739247                1.00000000               -0.03482417               -0.03399802                0.11476625                0.00132354                0.00136102               -0.00050198
               8.90383717                1.01978229               70.08048694                1.00000000               -0.03422105               -0.03269337                0.11202974                0.00009137                0.00060342                0.00183920
               9.90349809                1.02241179               70.08356918                1.00000000               -0.03390814               -0.03131916                0.10923738               -0.00456113                0.00013333               -0.00121071
              -0.07801750                1.98723907               70.05771481                0.06550242               -0.02871542               -0.00471758                0.09662892                0.01057861                0.00329026                0.09448195
               0.92169534                1.98286254               70.06115424                0.01000000               -0.05483356               -0.01214242                0.09403461                0.04813072                0.05839601                0.08059746
               1.92088583                1.97934727               70.06569922                0.01000001               -0.09663226               -0.02300715                0.08127850                0.30250697                0.06499918                0.09906410
               2.91976270                1.97872527               70.06928180                0.01000000               -0.16920219               -0.03819394                0.08475013                0.63129042               -0.00235375                0.10237788
               3.91750178                1.98192448               70.07239170                0.01000000               -0.30237584               -0.00981255                0.09050317                0.92974408               -0.04577395                0.11691618
               4.91371518                1.98878354               70.07492379                0.01000001               -0.45173882                0.01150585                0.10059956                1.19315610               -0.09879645                0.12440723
               5.90846701                1.99878206               70.07676906                0.01000000               -0.58081426               -0.05275147                0.11515163                1.55123849               -0.20450326                0.12798753
               6.90209890                2.01435181               70.07703961                0.01000000               -0.33981962               -0.33102495                0.13858827                1.10634639               -0.13616328                0.13093646
               7.90167061                2.01684479               70.08021413                0.46042394               -0.04325551               -0.04249913                0.14228149                0.00379374                0.00796342                0.02117604
               8.90123379                2.01941844               70.08335084                0.99999999               -0.04286299               -0.04112418                0.14001712               -0.00015095                0.00340100                0.00759544
               9.90081335                2.02206616               70.08641542                0.99999999               -0.04204321               -0.03878265                0.13358278               -0.00520725                0.00100234                0.00227445
              -0.07344788                2.98742118               70.06102971                0.01000216               -0.03691184                0.16322327                0.06064636                0.34862279               -0.01573968                0.13261119
               0.92618300                2.98288743               70.06443806                0.01000000                0.03556646               -0.10958775                0.05231928                0.35650001                0.01473161                0.13574082
               1.92726345                2.97831384               70.06833339                0.01000000                0.01631023               -0.16435766                0.08387040                0.62175521                0.04621597                0.10339795
               2.92650921                2.97802055               70.07198828                0.01000000               -0.15957541               -0.12694309                0.09086465                1.04079718                0.02474742                0.12376478
               3.92407194                2.98162492               70.07527043                0.01006935               -0.32430288               -0.08133218                0.09785629                1.39570293               -0.01006143                0.14786436
               4.92002315                2.98855191               70.07812295                0.01000000               -0.48749123               -0.05463081                0.10715294                1.71449606               -0.05376718                0.16741151
               5.91432212                2.99855139               70.08041741                0.01000001               -0.57126492               -0.08789240                0.12114324                1.85955597               -0.08435605                0.18679551
               6.90859785                3.00811540               70.08254512                0.01000000               -0.75651798               -0.38797813                0.13552801                1.76115323               -0.15544943                0.25611709
               7.89919176                3.01637212               70.08343777                0.01003344               -0.49925348               -0.19501731                0.20001093                1.03922490               -0.11953475                0.17712988
               8.89861278                3.01895981               70.08625695                0.27811728               -0.05466329               -0.04064586                0.17491041                0.00846372               -0.01055532                0.09271107
               9.89809849                3.02163614               70.08927128                0.99999999               -0.05142897               -0.04024612                0.16356771               -0.00742784               -0.00230951                0.08338017
              -0.06197755                3.99050353               70.06420714                0.01000000               -0.00897722                0.13373691                0.09670821                0.34431737                0.00690753                0.12595857
               0.93793267                3.98067078               70.06735222                0.01000000                0.00826804               -0.24596518                0.09310397                0.63588756                0.04488880                0.06234454
               1.93818781                3.97606012               70.07101030                0.01000000               -0.03325542               -0.27058814                0.09123903                1.05352377                0.08222067                0.07706096
               2.93726757                3.97618641               70.07477224                0.01006012               -0.16516594               -0.23355588                0.09951509                1.45350139                0.06738993                0.12405793
               3.93488449                3.98029783               70.07829182                0.01000000               -0.30944664               -0.18951037                0.10481612                1.82370273                0.02836031                0.16674918
               4.93107863                3.98769093               70.08151761                0.01000001               -0.43949274               -0.14532063                0.11365866                2.12998454               -0.00314980                0.19341661
               5.92609463                3.99702421               70.08442491                0.01000001               -0.57887027               -0.16250702                0.12513587                2.31626765               -0.03735335                0.22104730
               6.91950123                4.00659224               70.08691170                0.01004031               -0.72419660               -0.17493089                0.14173742                2.20517182               -0.06520323                0.23671215
               7.91161070                4.01294445               70.08924070                0.01011858               -1.16810890               -0.22689608                0.15433207                2.18810278               -0.11637712                0.30368982
               8.89613905                4.01860552               70.09077542                0.01000000               -0.81492808               -0.28813140                0.22800096                1.88398853               -0.07283210                0.26753692
               9.89531214                4.02126124               70.09370788                0.01000000               -0.08269094               -1.14137528                0.21872638                1.85173537               -0.00060020                0.25286689
              -0.04689603                4.99009591               70.06713755                0.01000000                0.02401942               -0.14663996                0.10991675                0.41241150                0.07729864                0.14987787
               0.95334416                4.97796813               70.06985188                0.01000000               -0.01428369               -0.32150233                0.08229447                0.77073939                0.14969472               -0.03620157
               1.95281829                4.97290208               70.07351073                0.01000001               -0.10013204               -0.34298906                0.10466559                1.33850918                0.17710471                0.03220781
               2.95134152                4.97334943               70.07740120                0.01000000               -0.18884081               -0.33020080                0.10220571                1.74474906                0.10752388                0.13715737
               3.94904148                4.97783471               70.08129536                0.01000001               -0.27225303               -0.30820248                0.11141349                2.11769763                0.06575570                0.17648053
               4.94589646                4.98564549               70.08493386                0.01000001               -0.36476640               -0.26263351                0.11865456                2.44545681                0.03565499                0.20155819
               5.94174615                4.99530125               70.08829892                0.01000898               -0.45577054               -0.21621382                0.12938581                2.62398740                0.01508566                0.22869976
               6.93678105                5.00461678               70.09140143                0.01000001               -0.54028074               -0.21581706                0.14083311                2.66684194               -0.01051046                0.26214787
               7.93094054                5.01183420               70.09418025                0.01000000               -0.44026485               -0.24157428                0.15691917                2.53844869               -0.03422020                0.29946332
               8.92797575                5.01319718               70.09690797                0.01000000               -0.05593918               -0.62347509                0.16673613                2.20072734               -0.03063110                0.35101363
               9.92982175                4.99880863               70.09978268                0.01005252                0.18459987               -1.46165069                0.17370718                1.48634301               -0.02965877                0.34714428
              -0.02947375                5.98757073               70.07177390                0.01000002                0.00150406               -0.61522357                0.14518572                0.63069115                0.32697495               -0.33803728
               0.97054129                5.97424073               70.07242047                0.01000001               -0.04747859               -0.39502668                0.19129946                1.01789547                0.38606322               -0.08957224
               1.96957668                5.96920034               70.07545686                0.01000000               -0.16556891               -0.37443539                0.07610334                1.45587204                0.17029023                0.09472925
               2.96722991                5.96958239               70.07992694                0.01000001               -0.23171489               -0.40467420                0.11108225                1.80601450                0.13424368                0.14415070
               3.96494238                5.97413378               70.08411464                0.01000001               -0.23543414               -0.44772125                0.11129463                2.20901179                0.07810504                0.16681105
               4.96252123                5.98243826               70.08810759                0.01000000               -0.26696441               -0.38582176                0.12345168                2.58368710                0.06497462                0.18749016
               5.95960309                5.99269993               70.09200832                0.01000001               -0.31080593               -0.28664244                0.13106226                2.75064740                0.06952223                0.21811558
               6.95630511                6.00227590               70.09570315                0.01000000               -0.29019097               -0.24963282                0.14167532                2.66634677                0.06018572                0.26656663
               7.95379928                6.00811296               70.09912865                0.01000000               -0.15629725               -0.34011699                0.15064705                2.31202984                0.04048257                0.31886984
               8.95317917                6.00613602               70.10230269                0.01011107                0.00084112               -0.51469865                0.15938868                1.43227858                0.01360959                0.34349185
               9.95381610                5.99202823               70.10531490                0.01000000                0.06369291               -0.38382932                0.16576040                0.69468767               -0.00302281                0.32343402
              -0.00762221                6.97779144               70.07064572                0.96824638               -0.03053238               -0.50411370                0.09888559                0.70742354               -0.00499785               -0.08878550
               0.99207246                6.97006759               70.07464802                0.01357626               -0.28918565               -0.22504224                0.10551688                0.84398199               -0.05556187                0.05889311
               1.98659408                6.96541337               70.07764801                0.01000000               -0.47720480               -0.35995408                0.17308675                1.25328015                0.12192389                0.02377000
               2.98252837                6.96525595               70.08206750                0.01000000               -0.31141115               -0.43076498                0.08103110                1.49475437                0.09338061                0.11572155
               3.98036585                6.96888029               70.08633179                0.01002821               -0.17621582               -0.69230500                0.12478216                2.07347586                0.03980475                0.14156553
               4.97900405                6.97792906               70.09089727                0.01000002               -0.17222006               -0.49295837                0.12461297                2.58880143                0.10811566                0.12646117
               5.97692145                6.98956840               70.09536312                0.01000000               -0.21545463               -0.28796249                0.13450701                2.64042799                0.14006201                0.18219486
               6.97469496                6.99962412               70.09974950                0.01000000               -0.18002171               -0.23625337                0.14124268                2.39486360                0.15047512                0.25111461
               7.97332102                7.00503186               70.10385448                0.01001356               -0.09944520               -0.23621667                0.14845229                1.90197094                0.12509412                0.33502259
               8.97270606                7.00290321               70.10747266                0.01004897               -0.06949666               -0.15345033                0.15714948                1.07701971                0.06443748                0.37731892
               9.97193108                6.99113204               70.11042891                0.01000000               -0.07749717                0.09719895                0.16619685                0.48080937                0.02127099                0.34254525
               0.00012242                7.97748846               70.07166949                1.00000000               -0.03234234               -0.03113462                0.10443166                0.00079884               -0.00276295                0.02276269
               0.99979900                7.96973989               70.07555293                0.99999999               -0.03342498               -0.03352664                0.11117737               -0.00034606               -0.00737802               -0.00237138
               1.99945392                7.96200126               70.07934961                0.01000000               -0.30704567               -0.18877599                0.11871378                0.59149246               -0.05441247                0.02227222
               2.99365809                7.96096709               70.08229816                0.01000001               -0.28575656               -0.56779047                0.24876286                1.12908756               -0.21541463                0.28976118
               3.99373879                7.96028768               70.08802586                0.01010426               -0.00244698               -1.13470624                0.10868833                1.88328981                0.11630709               -0.06188055
               4.99360915                7.97257909               70.09295786                0.01000000               -0.15111022               -0.41669944                0.13244788                2.49407814                0.17508569                0.05440866
               5.99071659                7.98694068               70.09822123                0.01000000               -0.24351118               -0.18409979                0.13765608                2.25392995                0.23081372                0.12712065
               6.98873892                7.99755084               70.10337124                0.01000000               -0.10784890               -0.18050367                0.14235242                1.86395099                0.26720139                0.20184045
               7.98855961                8.00338863               70.10851811                0.01000000               -0.00597710               -0.17382625                0.14727500                1.50123314                0.25417739                0.30804521
               8.98861938                8.00306701               70.11272281                0.01000000               -0.07925006                0.04562603                0.15622867                1.04020030                0.16180588                0.52291052
               9.98697461                7.99397221               70.11580578                0.01000002               -0.16447724                0.56589015                0.16857344                0.61605251                0.09452257                0.37252589
               0.00789090                8.97716875               70.07277654                1.00000000               -0.03381603               -0.03274575                0.10953611                0.00081277                0.00145031                0.02160052
               1.00755274                8.96939706               70.07655908                0.99999999               -0.03470923               -0.03503335                0.11642871               -0.00004961                0.00119045                0.00218980
               2.00719672                8.96163785               70.08033808                0.99999999               -0.03645243               -0.03709233                0.12314323                0.00046292               -0.00685010               -0.00848848
               3.00682370                8.95390014               70.08395488                0.81974504               -0.03885323               -0.37380273                0.13167282                0.27283212               -0.01488263                0.02006934
               4.00641966                8.94618616               70.08756332                0.01000000               -0.22955407               -0.72731677                0.14209259                1.80474767                0.15542353               -0.09482964
               5.00223261                8.96959507               70.09461155                0.01000000               -0.46956758               -0.09707369                0.13924029                2.09786856                0.31195261                0.00786834
               5.99702830                8.98588641               70.10055026                0.01002033               -0.33532884               -0.06294882                0.14332461                1.37616836                0.30472029                0.06112187
               6.99552604                8.99601405               70.10634264                0.01004843                0.04006003               -0.16020388                0.14712380                1.01205553                0.35749481                0.11057392
               7.99782950                9.00155534               70.11222909                0.01000001                0.37002217               -0.24956487                0.15063351                0.85802438                0.51709445                0.19243755
               9.00292648                9.00381573               70.11994374                0.99999893                0.23061188                0.01378789                0.14850720                0.83254222                0.33731956                0.33059063
              10.00244174                9.00244985               70.12085022                1.00000000               -0.04847389                0.39547691                0.17705070                0.70565245               -0.00270794                0.21596549
               0.01568206                9.97683354               70.07377687                1.00000000               -0.03531575               -0.03352054                0.11442299               -0.00031649                0.01564616                0.01629083
               1.01532890                9.96903922               70.07755685                0.99999999               -0.03609805               -0.03578361                0.12128943               -0.00109067                0.01998891                0.00158525
               2.01496010                9.96125941               70.08142531                0.99999998               -0.03812418               -0.03784423                0.12794930               -0.00107110                0.02080173               -0.00381494
               3.01456642                9.95349104               70.08521382                0.99999998               -0.04106406               -0.04091012                0.13707598               -0.00163079                0.01245898               -0.00140622
               4.01413882                9.94574135               70.08891113                0.08176756               -0.93500716               -0.04448163                0.14805296                1.62924511                0.18113545               -0.00765685
               4.99586628                9.97063761               70.09609672                0.01000000               -1.11589219                0.10425459                0.14726373                1.36038424                0.34964767               -0.01861350
               5.99182098                9.98568171               70.10240011                0.01000001               -0.12775872               -0.02046983                0.15319592                0.66472430                0.33310908                0.01737780
               6.99331110                9.99434676               70.10837063                0.01000000                0.30487230               -0.16672919                0.15776586                0.41428755                0.38167985                0.04373538
               7.99791842                9.99839733               70.11462979                0.01000002                0.55323077               -0.31580093                0.16053501                0.45869226                0.44105419                0.10056985
               9.00437572               10.00334277               70.12061473                1.00000000                0.29504986               -0.04729576                0.16996828                0.31914454                0.25754348                0.00362100
              10.00381942               10.00188175               70.12152121                0.99999999               -0.05562994               -0.05681011                0.19851249               -0.00833469                0.00323521               -0.00323297
              -0.09039094               -0.01378595               71.05532578                1.00000000               -0.02312055               -0.02517194                0.07919374                0.00088586               -0.00790366                0.00754836
               0.90937785               -0.01827241               71.05880387                1.00000000               -0.02257338               -0.02407569                0.07567955               -0.00050272               -0.00857186               -0.00149609
               1.90915759               -0.02272933               71.06226983                0.01000000                0.16424182               -0.02296723                0.07222307                0.25437290               -0.00776596               -0.00346841
               2.91266269               -0.02205703               71.06576049                0.01003802                0.26200596               -0.07265331                0.07007749                0.19707354               -0.02327769                0.03184901
               3.91439771               -0.01946250               71.06874257                0.01000000                0.10019111               -0.02950871                0.07675125                0.19588239               -0.09131943                0.03901219
               4.91466651               -0.01365657               71.07094569                0.01000001               -0.10736534                0.01574539                0.09663818                0.29129197               -0.17735043                0.03720968
               5.91225041               -0.00377029               71.07223639                0.01000000               -0.53879222                0.10447962                0.11260828                0.63233772               -0.27329588                0.01836190
               6.90389067                0.01211284               71.07246132                0.98752423               -0.43224973               -0.03234860                0.09689670                0.67416199               -0.14307463               -0.00425907
               7.90360541                0.01457507               71.07550362                1.00000000               -0.02812796               -0.03058061                0.09379860                0.00009159               -0.00381708               -0.00294624
               8.90332811                0.01710268               71.07853350                1.00000000               -0.02714702               -0.02916208                0.09014958                0.00004397               -0.00408052               -0.00196996
               9.90306247                0.01969271               71.08158842                1.00000000               -0.02656398               -0.02838044                0.08735028               -0.00401960               -0.00384934               -0.00579250
              -0.08589562                0.98596233               71.05699895                0.99999999               -0.02598636               -0.02652681                0.08832755                0.00144484                0.00140950                0.00804658
               0.91384452                0.98148683               71.06047886                0.01000000               -0.02553777               -0.02541595                0.08485775                0.00004892                0.00422477               -0.00437717
               1.91359363                0.97704099               71.06401704                0.01000000               -0.04222545                0.02184514                0.08133268                0.20382170                0.01402803                0.03474450
               2.91300001                0.97721644               71.06769044                0.01000000               -0.07186606               -0.03884647                0.07598779                0.34746685               -0.01306327                0.05941642
               3.91215631                0.98024241               71.07070678                0.01000000               -0.16333441               -0.00882657                0.07858945                0.45561924               -0.07098827                0.07040887
               4.90973332                0.98650088               71.07311783                0.01000000               -0.32336169                0.03305123                0.08986672                0.64542343               -0.13054654                0.06848217
               5.90568907                0.99727451               71.07470711                0.01000001               -0.41368572                0.01770678                0.10779704                0.92029123               -0.20164377                0.04574065
               6.90145961                1.01178936               71.07546887                0.79970368               -0.22888326               -0.03533796                0.11758373                0.60628032               -0.11494428               -0.00817057
               7.90111141                1.01426927               71.07853485                0.99999999               -0.03449388               -0.03354037                0.11411823                0.00122618                0.00049317               -0.00024695
               8.90076973                1.01681106               71.08159803                1.00000000               -0.03395819               -0.03129274                0.11098401                0.00027601                0.00039130                0.00077158
               9.90043225                1.01940890               71.08465101                0.99999998               -0.03374867               -0.03000653                0.10816845               -0.00351829                0.00051454               -0.00631388
              -0.08141104                1.98568352               71.05868588                0.09568760               -0.02887908               -0.01592467                0.09750261                0.00537486                0.00327203                0.07672164
               0.91830017                1.98121927               71.06209528                0.01000000               -0.05422730               -0.01862664                0.09417539                0.04910037                0.05402459                0.06048367
               1.91750442                1.97770757               71.06652266                0.01000001               -0.09447796               -0.02214228                0.08376173                0.31879764                0.06332885                0.09375813
               2.91641061                1.97716604               71.07012386                0.01000000               -0.16393819               -0.03780264                0.08376809                0.64829961               -0.00028316                0.10511800
               3.91422565                1.98036096               71.07327385                0.01000000               -0.29338669               -0.00701121                0.08575358                0.92973934               -0.04255909                0.12159814
               4.91054288                1.98700445               71.07589975                0.01000001               -0.44289503                0.01883730                0.09269608                1.17016388               -0.08941244                0.12659152
               5.90536775                1.99658385               71.07789729                0.01000000               -0.57606807               -0.03802455                0.10821906                1.49907359               -0.18416545                0.12188137
               6.89902152                2.01140609               71.07840861                0.01000000               -0.33797597               -0.30828252                0.13588439                1.06744713               -0.11999788                0.11237959
               7.89860823                2.01390427               71.08163938                0.60854087               -0.04137630               -0.03430824                0.13734095                0.00433510                0.01176919                0.04465003
               8.89819399                2.01647683               71.08473949                0.99999998               -0.04059102               -0.03740247                0.13268930                0.00386411                0.00328454                0.01289435
               9.89779641                2.01909258               71.08772580                0.99999999               -0.03975793               -0.03649607                0.12695887               -0.00400971               -0.00019703               -0.00059065
              -0.07685962                2.98564384               71.06173683                0.01000001               -0.03379027                0.14223229                0.07760513                0.37130680               -0.00240661                0.14536701
               0.92280248                2.98111430               71.06506716                0.01000000                0.04412140               -0.13970469                0.07154253                0.38841951                0.04009835                0.13622264
               1.92402281                2.97659815               71.06922087                0.01000000                0.02550664               -0.18098632                0.09425683                0.66077693                0.06522036                0.10750867
               2.92331261                2.97646039               71.07291547                0.01000000               -0.15550611               -0.12690081                0.09487946                1.07269501                0.02656581                0.13055098
               3.92091269                2.98010218               71.07623919                0.01006107               -0.31994467               -0.07386635                0.09590482                1.40060335               -0.00774938                0.15241111
               4.91691372                2.98687763               71.07916743                0.01000000               -0.48218858               -0.04242755                0.10172421                1.69306741               -0.04476632                0.16833477
               5.91126891                2.99651402               71.08160241                0.01000001               -0.57127899               -0.06820944                0.11422923                1.82006045               -0.07283571                0.17977064
               6.90548814                3.00562371               71.08382024                0.01000000               -0.75707710               -0.34872008                0.12969847                1.72330580               -0.11394661                0.23751471
               7.89612737                3.01358310               71.08556515                0.01005401               -0.49147173               -0.16778955                0.15806710                1.01495611               -0.09505748                0.15149528
               8.89565870                3.01606301               71.08802978                0.40608679               -0.05034136               -0.03081906                0.16774033                0.00644883               -0.02724155                0.10652094
               9.89512054                3.01867898               71.09090355                0.99999999               -0.05381572               -0.03473848                0.16451029               -0.00313857               -0.00304611                0.09500782
              -0.06492581                3.98852816               71.06511225                0.01000001                0.00400701                0.09500545                0.09999286                0.38146260                0.02156520                0.14441976
               0.93511426                3.97842517               71.06839155                0.01000000                0.01498413               -0.34750849                0.11905915                0.72665564                0.04809363                0.07810087
               1.93537387                3.97408784               71.07203362                0.01000000               -0.03768884               -0.30078157                0.11612882                1.17024236                0.07440896                0.09395217
               2.93436048                3.97462803               71.07582007                0.01007643               -0.17766943               -0.22089841                0.11037743                1.50551946                0.06103738                0.13062044
               3.93182048                3.97888364               71.07935402                0.01000000               -0.31840427               -0.17535814                0.10752763                1.82913620                0.02850934                0.16590375
               4.92799239                3.98615590               71.08263518                0.01000001               -0.43987984               -0.12975825                0.11025625                2.10937451                0.00365835                0.18930125
               5.92302288                3.99521966               71.08564212                0.01000001               -0.57869207               -0.13971617                0.11943077                2.28429295               -0.02391483                0.21138615
               6.91641855                4.00443168               71.08829330                0.01000002               -0.72774138               -0.14476848                0.13326008                2.18016381               -0.05362170                0.22270076
               7.90846805                4.01054847               71.09070074                0.01000001               -1.15957316               -0.19085254                0.14183339                2.15918439               -0.08609218                0.25624188
               8.89322709                4.01586044               71.09291247                0.01000000               -0.79831799               -0.25897809                0.17068914                1.85368302               -0.04803520                0.23798352
               9.89250169                4.01839781               71.09581024                0.01000000               -0.07253936               -1.11158669                0.17217680                1.83140171                0.02162008                0.23161031
              -0.04902439                4.98754395               71.06841794                0.01000000                0.08003015               -0.50264002                0.10711515                0.78745280                0.03012277                0.09312787
               0.95177591                4.97416413               71.07081111                0.01000000                0.01245970               -0.48812564                0.14683025                1.26125912                0.12411799                0.04410872
               1.95122480                4.97058252               71.07477203                0.01000001               -0.15743526               -0.29636745                0.14243380                1.54880727                0.16237676                0.03292823
               2.94862720                4.97204242               71.07855320                0.01000000               -0.26286339               -0.30235315                0.12806211                1.80167263                0.09184235                0.13190285
               3.94596753                4.97659502               71.08242848                0.01000001               -0.29310109               -0.28823688                0.11641381                2.10545762                0.06177083                0.16583058
               4.94276518                4.98428246               71.08610481                0.01000001               -0.36442720               -0.24682135                0.11654797                2.42123949                0.04198740                0.19031721
               5.93867899                4.99371970               71.08956474                0.01004235               -0.45012921               -0.19765736                0.12388456                2.59620285                0.02649871                0.21463237
               6.93376260                5.00272834               71.09277401                0.01000001               -0.53983454               -0.18827325                0.13428044                2.64803725                0.00594281                0.24214016
               7.92788230                5.00976605               71.09570795                0.01000000               -0.44397850               -0.20833373                0.14470388                2.52849443               -0.01487322                0.27539752
               8.92488303                5.01088345               71.09852186                0.01000000               -0.06042254               -0.58284059                0.15206742                2.18259934               -0.02061307                0.30568532
               9.92667385                4.99644725               71.10143085                0.01000000                0.17908205               -1.42596979                0.15654139                1.46904071               -0.02568115                0.30984293
              -0.02241712                5.97847536               71.07159584                0.03611821               -0.02820139               -0.53067515               -0.00735939                0.88457771                0.54250194               -0.34973176
               0.97730087                5.96866266               71.07524555                0.01000001               -0.45555805               -0.25488604                0.16295504                1.29456086                0.43044332               -0.07882544
               1.96847172                5.96816049               71.07659627                0.01000000               -0.64597218               -0.29909624                0.17238692                1.59098270                0.11641488                0.11982745
               2.96438143                5.96858096               71.08112075                0.01000001               -0.33910683               -0.37880387                0.13184304                1.76711200                0.11867618                0.12640183
               3.96168959                5.97311890               71.08525351                0.01000001               -0.25444591               -0.43380209                0.12012312                2.17373575                0.07986443                0.13984573
               4.95929251                5.98121947               71.08932492                0.01003341               -0.25942612               -0.37689436                0.12134095                2.54989092                0.07878747                0.16734908
               5.95650106                5.99126651               71.09328406                0.01000001               -0.29797836               -0.27626907                0.12628976                2.73259790                0.07880448                0.20187698
               6.95333294                6.00066622               71.09707297                0.01000000               -0.28091149               -0.22540250                0.13350352                2.66402831                0.06845075                0.24690481
               7.95088283                6.00638180               71.10059312                0.01000000               -0.15675318               -0.30884754                0.14295277                2.31608111                0.04490752                0.29444583
               8.95019788                6.00420363               71.10384128                0.01007738               -0.00639640               -0.47601381                0.15079033                1.43169879                0.01560992                0.32022309
               9.95075491                5.98987841               71.10692207                0.01000000                0.05570287               -0.36106327                0.15757908                0.69122782               -0.00123710                0.30979717
              -0.01170744                6.97693045               71.07164000                0.94879583               -0.03105679               -0.09251036                0.10047943                0.14331920               -0.00475673               -0.03246902
               0.98798200                6.96906641               71.07570990                0.01000002               -0.25832047                0.00363091                0.10714236                0.31097340               -0.01875122               -0.03136920
               1.98312615                6.96460059               71.07951241                0.01000001               -0.44854784               -0.36526061                0.14632901                1.12155899               -0.05896335                0.16180026
               2.97901104                6.96446634               71.08312019                0.01000000               -0.31612078               -0.46992137                0.12966764                1.47122589                0.03871201                0.05220848
               3.97680374                6.96791898               71.08755538                0.01000002               -0.16978259               -0.68678402                0.12539138                2.03182156                0.09765996                0.07598554
               4.97561539                6.97674458               71.09210608                0.01000001               -0.14597669               -0.50097690                0.12296811                2.56179421                0.12215227                0.11720995
               5.97388420                6.98819431               71.09666568                0.01000000               -0.18437545               -0.28554776                0.12787070                2.63854216                0.14602686                0.16849422
               6.97192788                6.99822029               71.10112719                0.01000000               -0.16088479               -0.22406472                0.13449736                2.41365903                0.15155766                0.23338946
               7.97066651                7.00358910               71.10530676                0.01000001               -0.09537431               -0.20983401                0.14209978                1.93112746                0.12453732                0.31342023
               8.97002039                7.00136317               71.10901089                0.01007133               -0.07588327               -0.11285930                0.15073745                1.09764599                0.06459316                0.35351144
               9.96914884                6.98922598               71.11204760                0.01000000               -0.08715481                0.12583269                0.15997500                0.48607421                0.02131398                0.32952858
              -0.00382265                7.97662516               71.07271790                1.00000000               -0.03271544               -0.03124797                0.10533874                0.00077063               -0.00308401                0.02280761
               0.99585019                7.96873528               71.07666812                0.99999999               -0.03371888               -0.03373906                0.11202748               -0.00019733               -0.00729124               -0.00197060
               1.99550297                7.96085528               71.08054040                0.01000000               -0.26813175               -0.20550284                0.11912464                0.53555735               -0.01461012               -0.01434472
               2.99048756                7.95918254               71.08434822                0.01000000               -0.27275934               -0.59286498                0.17767859                1.12645012                0.07561891               -0.04213864
               3.99004778                7.95938322               71.08904552                0.01000097               -0.01172498               -1.15900818                0.12180826                1.89085875                0.13758933               -0.04067455
               4.99025306                7.97119994               71.09425089                0.01000000               -0.11257937               -0.43144763                0.12787399                2.47220464                0.19016804                0.05594058
               5.98779619                7.98555556               71.09956912                0.01000000               -0.20208610               -0.19276266                0.13276886                2.26306643                0.22947659                0.11671966
               6.98621134                7.99618492               71.10476787                0.01000002               -0.07168472               -0.18403231                0.13678768                1.89414110                0.26171158                0.18655179
               7.98636250                8.00218512               71.10996839                0.01000000                0.01512891               -0.16265974                0.14240920                1.55919539                0.24917401                0.28921120
               8.98651391                8.00194645               71.11426072                0.01000000               -0.08058671                0.08525969                0.15217144                1.10180067                0.15757370                0.49574513
               9.98475077                7.99239507               71.11746403                0.01000002               -0.17631477                0.62092588                0.16441448                0.65569322                0.09020062                0.36436481
               0.00408773                8.97630549               71.07387298                0.99999999               -0.03398039               -0.03273335                0.10986398                0.00087233                0.00138401                0.02151210
               1.00374792                8.96839163               71.07772586                0.99999999               -0.03488410               -0.03513927                0.11693119                0.00014776                0.00053546                0.00223531
               2.00339004                8.96049054               71.08156713                0.99999994               -0.03679095               -0.03724800                0.12374287                0.00060778               -0.00504660               -0.00930314
               3.00301210                8.95260904               71.08531923                0.88725539               -0.03932658               -0.34918906                0.13227726                0.23328863               -0.00693979               -0.01789014
               4.00260351                8.94473882               71.08914005                0.01000000               -0.20624816               -0.75421441                0.14264488                1.79713839                0.14756649               -0.07255178
               4.99888714                8.96811562               71.09597142                0.01000000               -0.42214837               -0.11335615                0.13718515                2.09659959                0.30515616                0.01191801
               5.99416055                8.98433906               71.10195676                0.01000000               -0.28530011               -0.07979353                0.13918720                1.38020885                0.29982876                0.05578192
               6.99318114                8.99453964               71.10778187                0.01000001                0.09641748               -0.17522984                0.14198687                1.03562888                0.34519118                0.10087472
               7.99608889                9.00033591               71.11371041                0.01000002                0.43326601               -0.26304300                0.14644697                0.91329975                0.49702823                0.18071273
               9.00184646                9.00306837               71.12141512                0.99998808                0.26382858                0.03271146                0.14575807                0.90787033                0.32174688                0.31594814
              10.00136547                9.00164450               71.12262287                1.00000000               -0.04809916                0.43380454                0.17748172                0.76020468               -0.00269115                0.21038636
               0.01202252                9.97597049               71.07492176                1.00000000               -0.03544164               -0.03349991                0.11473555               -0.00032041                0.01568881                0.01623759
               1.01166810                9.96803249               71.07877296                0.99999999               -0.03624030               -0.03591316                0.12178108               -0.00099062                0.01912235                0.00170820
               2.01129771                9.96011032               71.08269820                1.00000000               -0.03815251               -0.03802138                0.12871481               -0.00092041                0.02272441               -0.00422852
               3.01090505                9.95219876               71.08663657                0.99999997               -0.04068710               -0.04102860                0.13798743               -0.00127495                0.02178999                0.00031379
               4.01048397                9.94429893               71.09055256                0.09421503               -0.91601226               -0.04398852                0.14845645                1.62474844                0.17441466               -0.00429872
               4.99258480                9.96893281               71.09752831                0.01000000               -1.07538075                0.08171904                0.14584851                1.35280424                0.33732843               -0.01886947
               5.98897635                9.98395969               71.10391131                0.01000001               -0.08288675               -0.03793736                0.14967395                0.66895644                0.33096261                0.01756803
               6.99092707                9.99268033               71.10990779                0.01000000                0.35617098               -0.18593148                0.15341060                0.42282173                0.37016081                0.03819717
               7.99609977                9.99692426               71.11620857                0.01000002                0.62178280               -0.34116457                0.15790561                0.49710513                0.42939340                0.09462412
               9.00336272               10.00260068               71.12231229                1.00000000                0.33514079               -0.04676903                0.16954698                0.35897157                0.24842090                0.00361742
              10.00280259               10.00107116               71.12352004                0.99993248               -0.05601368               -0.05733438                0.20126409               -0.00923959                0.00322631               -0.00324155
              -0.09393016               -0.01543006               72.05612080                1.00000000               -0.02320562               -0.02535820                0.07981057                0.00079740               -0.00793834                0.00740401
               0.90583779               -0.02000810               72.05955930                0.99676157               -0.02255506               -0.02405771                0.07562943               -0.00060107               -0.00863289               -0.00141993
               1.90561874               -0.02455650               72.06298648                0.01000465                0.16765509               -0.02274452                0.07147803                0.26784630               -0.00748343               -0.00342999
               2.90919089               -0.02370375               72.06644737                0.01000000                0.26245165               -0.06868655                0.06809573                0.20860597               -0.02325765                0.03071762
               3.91086777               -0.02102180               72.06948844                0.01000000                0.09774998               -0.02801283                0.07374651                0.19506044               -0.08443534                0.04323991
               4.91114589               -0.01544332               72.07196403                0.01000001               -0.10754448                0.01807017                0.09273513                0.27315693               -0.17354438                0.05205776
               5.90871688               -0.00607957               72.07347853                0.01000001               -0.51543073                0.09399142                0.15735367                0.59628308               -0.27915983                0.01982673
               6.90083727                0.00895270               72.07344957                0.99811076               -0.40874363               -0.03275130                0.10068294                0.63112301               -0.15469376               -0.00445624
               7.90054201                0.01140336               72.07646123                1.00000000               -0.02910232               -0.03219605                0.09779278               -0.00032171               -0.00456685               -0.00367687
               8.90025523                0.01390386               72.07945636                1.00000000               -0.02826327               -0.03121252                0.09488603               -0.00023190               -0.00481795               -0.00254766
               9.89997675                0.01645151               72.08248267                1.00000000               -0.02784801               -0.03033820                0.09191666               -0.00266887               -0.00441376               -0.00649706
              -0.08934414                0.98431636               72.05788575                0.99999999               -0.02608632               -0.02671601                0.08895723                0.00146065                0.00130610                0.00792273
               0.91039500                0.97975132               72.06132682                0.01000000               -0.02554160               -0.02539968                0.08485304                0.00004806                0.00408616               -0.00426116
               1.91014503                0.97521605               72.06482527                0.01000000               -0.04426997                0.02875547                0.08068289                0.21815704                0.01263466                0.03221591
               2.90950960                0.97560938               72.06843591                0.01000000               -0.07284321               -0.03468241                0.07424578                0.36484833               -0.02078947                0.06317845
               3.90868816                0.97869807               72.07145496                0.01000002               -0.15516279               -0.00770860                0.07381824                0.45674700               -0.08194113                0.08297630
               4.90640634                0.98473738               72.07397602                0.01000000               -0.31032314                0.03545482                0.07581387                0.61599419               -0.13846327                0.08932420
               5.90248170                0.99486034               72.07578335                0.01000001               -0.39996546                0.02019798                0.09600622                0.87228784               -0.18561146                0.04653345
               6.89840703                1.00862519               72.07664375                0.77682162               -0.22092425               -0.03523381                0.11714204                0.56703174               -0.10910613               -0.00905194
               7.89806322                1.01108140               72.07967483                0.99999999               -0.03390999               -0.03479350                0.11420547               -0.00001745               -0.00039250               -0.00136459
               8.89772883                1.01359173               72.08270662                1.00000000               -0.03304066               -0.03296426                0.11093431                0.00122783               -0.00010252               -0.00178469
               9.89740240                1.01614813               72.08573255                1.00000000               -0.03264298               -0.03248460                0.10802429               -0.00135809                0.00057681               -0.00950511
              -0.08477087                1.98403562               72.05966487                0.12815960               -0.02900794               -0.02071090                0.09816726                0.00420099                0.00326299                0.06535222
               0.91493905                1.97948390               72.06303775                0.01000000               -0.05526573               -0.02178528                0.09426137                0.05444555                0.05135030                0.04896287
               1.91412382                1.97601861               72.06737445                0.01000001               -0.09666080               -0.01314963                0.08504189                0.33466095                0.05742616                0.09916375
               2.91300584                1.97560260               72.07095716                0.01000000               -0.16245504               -0.03370072                0.08265822                0.66590103               -0.00871432                0.11741394
               3.91087472                1.97882402               72.07410678                0.01000000               -0.28511694               -0.00525428                0.08153582                0.93199965               -0.05437803                0.14026204
               4.90730350                1.98526577               72.07677771                0.01000001               -0.42999451                0.02228937                0.08502476                1.14293094               -0.09208040                0.14749516
               5.90227483                1.99432438               72.07893345                0.01000000               -0.56733286               -0.02291837                0.09397989                1.43565750               -0.16800673                0.13486120
               6.89595684                2.00824803               72.07975730                0.01000000               -0.33498548               -0.28220939                0.13456266                1.01661300               -0.10302121                0.10070855
               7.89557512                2.01070749               72.08296095                0.69891143               -0.03718933               -0.03703638                0.12630287                0.00071994                0.00997948                0.01958431
               8.89521306                2.01324457               72.08600462                0.99999997               -0.03691645               -0.03372420                0.12362309                0.00475217                0.00088365                0.01384211
               9.89483679                2.01580182               72.08895460                1.00000000               -0.03762661               -0.03481370                0.12455649                0.00010596               -0.00092587                0.00413246
              -0.08015668                2.98390214               72.06258181                0.01000000               -0.03423930                0.13375963                0.08920234                0.37464852                0.00119725                0.15073069
               0.91950092                2.97931562               72.06586891                0.01000000                0.04381178               -0.14975252                0.08601594                0.40425220                0.05356344                0.15255841
               1.92071955                2.97495306               72.07021853                0.01000000                0.02606390               -0.18153026                0.09938253                0.68716993                0.06368095                0.14161219
               2.92002220                2.97493537               72.07388587                0.01000000               -0.15272835               -0.12207551                0.09534615                1.09009988                0.01087289                0.15399344
               3.91766498                2.97859298               72.07718852                0.01007701               -0.31288003               -0.06987005                0.09353041                1.40063194               -0.01755089                0.16957258
               4.91376460                2.98518316               72.08015744                0.01000000               -0.47261940               -0.03630984                0.09652726                1.66845926               -0.04280971                0.18178937
               5.90821260                2.99440197               72.08270199                0.01000001               -0.57042087               -0.05173891                0.10849018                1.77406117               -0.05456180                0.18355893
               6.90235618                3.00298100               72.08513909                0.01000000               -0.75657641               -0.30777677                0.12670037                1.66760184               -0.11010777                0.21988825
               7.89308107                3.01034068               72.08659911                0.01000001               -0.48133164               -0.13905067                0.09794187                0.98154102               -0.08090802                0.12698259
               8.89272955                3.01291725               72.08961176                0.82566009               -0.03955202               -0.01857329                0.13379725               -0.00165166                0.00054485                0.07757372
               9.89229003                3.01545186               72.09256149                0.99999999               -0.04395221               -0.02178362                0.14084212                0.00907119                0.00950004                0.07136553
              -0.06810484                3.98671081               72.06620700                0.01000000                0.00780220                0.07863688                0.11375298                0.43164255                0.02284166                0.16348839
               0.93197318                3.97648885               72.06973341                0.01000002                0.01761530               -0.36596586                0.13589101                0.78243461                0.01622630                0.18600563
               1.93224747                3.97238800               72.07333287                0.01000000               -0.04026335               -0.29775325                0.12833699                1.21382127                0.01928630                0.16155184
               2.93116791                3.97316109               72.07697979                0.01007857               -0.18039521               -0.21242798                0.11327865                1.52691735                0.01773962                0.16549179
               3.92863956                3.97742662               72.08044237                0.01000000               -0.31521091               -0.16705750                0.10648203                1.82193910                0.00947317                0.17713788
               4.92486370                3.98453958               72.08372273                0.01000001               -0.43406730               -0.12105349                0.10699211                2.08491641                0.00321968                0.19101413
               5.91995821                3.99328961               72.08681353                0.01000001               -0.57467602               -0.12250060                0.11479417                2.24736235               -0.01233537                0.20576923
               6.91337018                4.00209249               72.08957690                0.01000001               -0.73442614               -0.11505443                0.12426343                2.15186943               -0.03731724                0.20636955
               7.90526969                4.00792648               72.09207737                0.01008032               -1.16506663               -0.14454553                0.13659780                2.12973834               -0.07965471                0.24819800
               8.89006884                4.01287311               72.09418920                0.01000000               -0.76603462               -0.22675886                0.07600355                1.82753559               -0.05389303                0.17720355
               9.88994900                4.01536615               72.09715142                0.01000000               -0.01198429               -1.07790976                0.07951426                1.80931032                0.02188210                0.17630996
              -0.05107991                4.98547488               72.06927985                0.01000001                0.05523390               -0.46783885                0.08692567                0.76122776                0.00009268                0.11485781
               0.94947243                4.97199630               72.07278849                0.01000000               -0.02981737               -0.43617104                0.19262393                1.28498337               -0.00567437                0.16154229
               1.94832374                4.96899800               72.07635941                0.01000001               -0.19752506               -0.27657432                0.15549487                1.62364107               -0.00037508                0.14852143
               2.94552193                4.97068681               72.07996244                0.01000000               -0.27992302               -0.28088243                0.13736919                1.80160606                0.01559796                0.15046012
               3.94272528                4.97525183               72.08362363                0.01000001               -0.29609906               -0.28114134                0.11773514                2.08856122                0.03003618                0.16464385
               4.93959995                4.98276210               72.08726482                0.01000001               -0.35591766               -0.23778019                0.11424780                2.39514319                0.03797489                0.18244778
               5.93560693                4.99195196               72.09077661                0.01000002               -0.44216242               -0.18265342                0.11863606                2.56953694                0.03348911                0.20114329
               6.93075670                5.00067991               72.09408704                0.01000001               -0.53558544               -0.16158370                0.12749831                2.62463456                0.01359931                0.22756074
               7.92489522                5.00744977               72.09707432                0.01000000               -0.44580511               -0.17617083                0.13155762                2.51807911               -0.00395074                0.25035322
               8.92184060                5.00838207               72.09994932                0.01000000               -0.07025327               -0.54108286                0.13959669                2.17687388               -0.01144696                0.28397265
               9.92349015                4.99389366               72.10291351                0.01000002                0.16495586               -1.38793675                0.14078880                1.43519817               -0.02572442                0.28782804
              -0.02592312                5.97735404               72.07162671                0.03696863                0.00728550               -0.47274396                0.00082093                0.80227778                0.00083105                0.05838531
               0.97414973                5.96776543               72.07567958                0.01000001               -0.40235512               -0.19893305                0.03692940                1.19275414               -0.04053209                0.09450341
               1.96602978                5.96685652               72.07890459                0.01000000               -0.66017678               -0.21463762                0.21714861                1.47293948               -0.03237236                0.09994201
               2.96094620                5.96754344               72.08256380                0.01000001               -0.38471384               -0.38070813                0.14486761                1.73424967                0.00878680                0.11615148
               3.95833550                5.97180380               72.08651711                0.01000001               -0.24398828               -0.43219230                0.12475439                2.14242055                0.05200627                0.12291475
               4.95606643                5.97978397               72.09053441                0.01000002               -0.24521819               -0.37074043                0.11937112                2.52847979                0.07454973                0.15168114
               5.95343114                5.98963654               72.09453411                0.01000001               -0.28506857               -0.26493694                0.12213243                2.71453968                0.08384689                0.18535283
               6.95036506                5.99886082               72.09837322                0.01000000               -0.27510097               -0.20414506                0.12734037                2.65474282                0.07613724                0.22732394
               7.94792912                6.00440306               72.10198771                0.01000000               -0.16013181               -0.27623805                0.13586283                2.31117389                0.05185070                0.26999459
               8.94716242                6.00205145               72.10531849                0.01000001               -0.01496651               -0.44140390                0.14356263                1.43104144                0.01946824                0.29764990
               9.94762979                5.98760741               72.10846648                0.01000000                0.04673608               -0.33565026                0.15087976                0.69528507               -0.00024038                0.29488310
              -0.01585715                6.97602000               72.07265531                0.93144962               -0.03178215               -0.08212042                0.10167340                0.10393525               -0.00475717                0.01402171
               0.98382503                6.96801764               72.07679087                0.01000002               -0.30691655               -0.00404552                0.10975797                0.31830912               -0.02259502               -0.00059283
               1.97800452                6.96470524               72.08057459                0.01001511               -0.42826967               -0.35984359                0.11761648                1.02534245               -0.07060733                0.07870174
               2.97525964                6.96307265               72.08466086                0.01000000               -0.23356808               -0.48090815                0.14246894                1.38109474                0.02294946                0.02671659
               3.97333316                6.96660799               72.08883962                0.01000002               -0.14614196               -0.69571370                0.12992543                2.02635266                0.07970748                0.05651228
               4.97233680                6.97534729               72.09335663                0.01000001               -0.12561429               -0.49757089                0.12385188                2.54338547                0.12433758                0.09783825
               5.97082088                6.98665322               72.09792054                0.01000000               -0.16258865               -0.28262717                0.12409055                2.63038662                0.14625364                0.15397138
               6.96908503                6.99659701               72.10243945                0.01000000               -0.14464060               -0.21168138                0.12869621                2.42403062                0.15081623                0.21329790
               7.96792806                7.00192500               72.10669648                0.01000000               -0.09139760               -0.18169323                0.13585020                1.95390533                0.12422869                0.28974284
               8.96725708                6.99955399               72.11048741                0.01000001               -0.08220671               -0.07368845                0.14548324                1.11842220                0.06520672                0.33014756
               9.96628393                6.98718066               72.11362841                0.01000001               -0.09731456                0.15384146                0.15728999                0.49977757                0.02179304                0.31856277
              -0.00783969                7.97571163               72.07377626                0.99999998               -0.03296373               -0.03124357                0.10635662                0.00078853               -0.00346382                0.02292841
               0.99183067                7.96768452               72.07779348                0.99999999               -0.03393476               -0.03403590                0.11292123               -0.00038555               -0.00816303               -0.00269088
               1.99148162                7.95965964               72.08173210                0.01000001               -0.25826626               -0.27056227                0.11925960                0.58693229               -0.00295631               -0.00984233
               2.98666535                7.95792528               72.08585173                0.01000003               -0.24468521               -0.59093284                0.14279268                1.10411100                0.04939507               -0.03839362
               3.98658791                7.95788952               72.09046203                0.01002974                0.01117793               -1.16899510                0.13825591                1.86464529                0.12674395               -0.07230912
               4.98688891                7.96983255               72.09551534                0.01000000               -0.08993849               -0.43956391                0.12848984                2.46383491                0.18256053                0.05012176
               5.98478914                7.98398399               72.10087661                0.01000000               -0.16575087               -0.19966818                0.12887021                2.25940954                0.22403246                0.10564636
               6.98357389                7.99462719               72.10610699                0.01000000               -0.03694508               -0.18526958                0.13133115                1.91881924                0.25312942                0.17033017
               7.98405024                8.00076920               72.11136629                0.01006160                0.03506638               -0.14977959                0.13619928                1.60796228                0.24070655                0.26719906
               8.98427522                8.00057768               72.11576624                0.01000001               -0.08391132                0.12645638                0.14743942                1.15534651                0.15110130                0.46895224
               9.98237201                7.99068424               72.11909407                0.01000002               -0.19032036                0.67104514                0.16406866                0.69508093                0.08508357                0.36015934
               0.00021284                8.97539513               72.07497382                1.00000000               -0.03435311               -0.03254490                0.11024503                0.00083528                0.00128499                0.02157544
               0.99986931                8.96733692               72.07889770                0.99999999               -0.03552124               -0.03526771                0.11731949                0.00015555                0.00074186                0.00239077
               1.99950241                8.95929400               72.08281294                0.99999999               -0.03786633               -0.03734712                0.12478054               -0.00067835               -0.00664788               -0.00899002
               2.99911198                8.95125399               72.08660042                0.86688662               -0.03918108               -0.35313258                0.12921946                0.22082961               -0.01232461               -0.03191497
               3.99871879                8.94322808               72.09041622                0.01000000               -0.17964771               -0.75295918                0.13214292                1.77247401                0.14600784               -0.08258171
               4.99551903                8.96655601               72.09735525                0.01000002               -0.37521806               -0.13430553                0.13693564                2.08984831                0.30197950                0.01147370
               5.99121443                8.98265986               72.10333400                0.01000001               -0.24214097               -0.09300139                0.13662913                1.38036080                0.28986118                0.05016379
               6.99067621                8.99289162               72.10918238                0.01000000                0.14611935               -0.18841693                0.13836118                1.05563626                0.33310282                0.09216153
               7.99413682                8.99892941               72.11515803                0.01000000                0.48863781               -0.27378499                0.14144593                0.96215278                0.47509885                0.16603398
               9.00044896                9.00208312               72.12285890                1.00000000                0.29178043                0.05215493                0.14302698                0.97147951                0.30498158                0.30039668
               9.99997243                9.00060156               72.12439985                1.00000000               -0.04765366                0.46691619                0.17790870                0.80666502               -0.00275083                0.20523611
               0.00829344                9.97506073               72.07607158                1.00000000               -0.03585205               -0.03343980                0.11510974               -0.00009639                0.01564752                0.01655362
               1.00793492                9.96697917               72.07999247                0.99999999               -0.03712294               -0.03577505                0.12269433               -0.00084053                0.01981861                0.00163599
               2.00755098                9.95891270               72.08399961                1.00000000               -0.03935317               -0.03812958                0.13029914               -0.00097061                0.02192368               -0.00395605
               3.00714785                9.95086263               72.08797356                0.99999997               -0.04078028               -0.03913627                0.13519224               -0.00053085                0.01632436                0.00022278
               4.00673537                9.94283034               72.09188025                0.06867502               -0.89468763               -0.03977456                0.13791028                1.61584892                0.17484216               -0.00470219
               4.98925410                9.96714644               72.09901369                0.01000001               -1.03373137                0.05904349                0.14593901                1.33818881                0.33821758               -0.01821458
               5.98606075                9.98212397               72.10539359                0.01000001               -0.04185206               -0.05358904                0.14756289                0.67025185                0.32304254                0.01499028
               6.98841706                9.99085885               72.11143884                0.01000000                0.40205245               -0.20327694                0.15201500                0.43256190                0.36125186                0.03621014
               7.99410179                9.99529350               72.11778790                0.01000002                0.68078010               -0.36359126                0.15683528                0.53459407                0.41259809                0.08928890
               9.00203266               10.00162078               72.12400567                1.00000000                0.36833232               -0.04623420                0.16910434                0.39482312                0.23745383                0.00363241
              10.00146844               10.00002257               72.12554649                0.99999998               -0.05642208               -0.05789927                0.20401898               -0.01021999                0.00325305               -0.00317869
              -0.09742671               -0.01716778               73.05692199                1.00000000               -0.02337715               -0.02555037                0.08050719                0.00070060               -0.00786770                0.00724024
               0.90233951               -0.02183585               73.06031646                0.99284790               -0.02267133               -0.02409882                0.07591074               -0.00066658               -0.00866199               -0.00140468
               1.90211986               -0.02647552               73.06369939                0.01000000                0.16780313               -0.02271383                0.07126298                0.28254193               -0.00734851               -0.00344559
               2.90569558               -0.02541976               73.06712240                0.01000000                0.25362392               -0.06100220                0.06806426                0.22313459               -0.02352282                0.02737802
               3.90719234               -0.02253075               73.07021750                0.01000430                0.07549817               -0.01856516                0.07616201                0.21752199               -0.09043064                0.04331482
               4.90720554               -0.01663939               73.07280039                0.01000003               -0.10053329                0.01130792                0.08684568                0.27038070               -0.17178919                0.06581549
               5.90518167               -0.00798340               73.07538347                0.01000003               -0.46957250                0.07336574                0.17419350                0.52648176               -0.46746182                0.17053866
               6.89781409                0.00563535               73.07447498                1.00000000               -0.38371920               -0.03347625                0.10506973                0.56007803               -0.19647407               -0.00366771
               7.89750729                0.00807433               73.07745947                0.99999999               -0.03018874               -0.03320808                0.10189364               -0.00086711               -0.00374220               -0.00224225
               8.89721032                0.01055120               73.08043122                1.00000000               -0.02928570               -0.03241035                0.09888370               -0.00060217               -0.00416217               -0.00139869
               9.89692157                0.01306300               73.08342675                1.00000000               -0.02887414               -0.03161317                0.09518505               -0.00178616               -0.00360735               -0.00422021
              -0.09275163                0.98257672               73.05877810                0.99999999               -0.02616459               -0.02688593                0.08946117                0.00140255                0.00129307                0.00778906
               0.90698672                0.97792316               73.06217592                0.01000000               -0.02555668               -0.02538541                0.08494830               -0.00006519                0.00409455               -0.00415878
               1.90673723                0.97329734               73.06563070                0.01000000               -0.05160932                0.03865555                0.08041301                0.23303633                0.01156295                0.02966165
               2.90595454                0.97397021               73.06917535                0.01000000               -0.08799305               -0.02579367                0.07659519                0.38973453               -0.02888044                0.06398951
               3.90497737                0.97728360               73.07218314                0.01006937               -0.16594320               -0.00183046                0.07727983                0.48143354               -0.10983596                0.09126237
               4.90263567                0.98347368               73.07463411                0.01000000               -0.28341291                0.02061683                0.08212548                0.60678615               -0.20330397                0.14400129
               5.89930911                0.99275026               73.07662724                0.01000001               -0.36248332                0.01729128                0.08804581                0.78366358               -0.29707478                0.17977536
               6.89538600                1.00530059               73.07781171                0.75681416               -0.21342107               -0.03552174                0.11795538                0.50557451               -0.09055818               -0.00706433
               7.89504069                1.00774225               73.08081896                0.99999999               -0.03380216               -0.03513322                0.11438193               -0.00101419               -0.00025770               -0.00341358
               8.89470996                1.01022710               73.08381671                1.00000000               -0.03243889               -0.03513366                0.11056218                0.00061567               -0.00081051               -0.00121207
               9.89439192                1.01274687               73.08681150                0.99999999               -0.03180461               -0.03583543                0.10731323               -0.00020497               -0.00056429               -0.00335094
              -0.08809154                1.98229450               73.06064922                0.16541931               -0.02908661               -0.02301981                0.09855723                0.00328137                0.00316300                0.05843141
               0.91161759                1.97765644               73.06398051                0.01000000               -0.05874635               -0.02266747                0.09415019                0.06266925                0.04870203                0.04340115
               1.91073353                1.97429759               73.06822350                0.01000001               -0.10567929                0.00873176                0.08288550                0.34750777                0.05170606                0.10281478
               2.90950401                1.97406436               73.07177703                0.01000000               -0.17079962               -0.02262940                0.08141865                0.68702967               -0.01767057                0.12545308
               3.90731754                1.97743264               73.07490457                0.01000000               -0.28147017               -0.00627803                0.08312312                0.95106530               -0.07183297                0.15778465
               4.90387460                1.98377294               73.07760024                0.01000001               -0.41447511                0.00473559                0.08921938                1.14190837               -0.11736218                0.20065903
               5.89902804                1.99236243               73.07977688                0.01000000               -0.54705074               -0.02225737                0.09287157                1.35194437               -0.13887901                0.18502004
               6.89293359                2.00492492               73.08109987                0.01000000               -0.32337689               -0.25493619                0.13304304                0.95060487               -0.08061862                0.08866707
               7.89256050                2.00737167               73.08416544                0.65160457               -0.03577858               -0.03679590                0.12121597               -0.00402710                0.00597443               -0.00285004
               8.89221802                2.00984853               73.08721195                0.99999246               -0.03412803               -0.03985959                0.12016108               -0.00140597                0.00344982                0.00433207
               9.89187794                2.01234629               73.09021693                0.99999999               -0.03400783               -0.04186933                0.12290801                0.00073445                0.00306035                0.00297176
              -0.08340987                2.98211632               73.06352088                0.01000001               -0.03531024                0.14026925                0.09700479                0.36383585                0.00169977                0.15411075
               0.91623702                2.97746981               73.06678748                0.01000000                0.03446698               -0.12153661                0.09443469                0.40254823                0.05843818                0.16897593
               1.91727947                2.97347197               73.07120852                0.01000000                0.01615252               -0.15597912                0.09135721                0.69137483                0.05596239                0.17140844
               2.91656007                2.97351763               73.07482239                0.01000000               -0.14946828               -0.11015349                0.08801453                1.08939158               -0.00298215                0.17228458
               3.91429010                2.97715804               73.07810980                0.01007665               -0.30080108               -0.07206784                0.09068579                1.40001145               -0.02716569                0.18683201
               4.91054405                2.98356840               73.08109798                0.01000000               -0.45470376               -0.04520683                0.09579578                1.64790502               -0.03842518                0.19969644
               5.90519602                2.99230511               73.08377222                0.01000001               -0.55775954               -0.05509991                0.10711522                1.72637214               -0.03801811                0.20024952
               6.89938886                3.00020187               73.08635425                0.01000000               -0.75797408               -0.26568972                0.11772167                1.60880004               -0.10500594                0.20294633
               7.89003654                3.00700634               73.08752398                0.01002531               -0.48408193               -0.11672228                0.10597033                0.94651009               -0.08063130                0.12493850
               8.88970722                3.00942991               73.09070572                0.76307167               -0.03127305               -0.03907886                0.11287442               -0.01198445                0.01082447                0.01867806
               9.88941108                3.01190948               73.09372039                0.99999997               -0.02961408               -0.03871521                0.11597848                0.00480580                0.00526462                0.01579077
              -0.07152180                3.98509989               73.06738731                0.01000000               -0.01652958                0.11525357                0.11791468                0.38108471                0.01843564                0.17608385
               0.92831291                3.97522571               73.07110937                0.01004954                0.00175044               -0.30105028                0.12228389                0.72119798               -0.02116436                0.27840326
               1.92851321                3.97117801               73.07460036                0.01000000               -0.03535672               -0.27453751                0.10739380                1.16997355               -0.03473418                0.22314225
               2.92760577                3.97186129               73.07808564                0.01009140               -0.16231067               -0.20250103                0.09937408                1.49640710               -0.01967436                0.19597626
               3.92526700                3.97599129               73.08148366                0.01000000               -0.29600714               -0.16724375                0.09916738                1.79916468               -0.00431432                0.18710647
               4.92168563                3.98286881               73.08477502                0.01000001               -0.41724952               -0.12243282                0.10334721                2.05483989                0.00479092                0.19426720
               5.91692201                3.99126043               73.08793800                0.01000001               -0.56386313               -0.11415686                0.11120913                2.20364221               -0.00134738                0.20067004
               6.91040837                3.99961113               73.09077857                0.01000001               -0.73296723               -0.08593164                0.11763288                2.10624008               -0.01851307                0.19366211
               7.90226266                4.00503722               73.09343269                0.01000001               -1.16665917               -0.10717797                0.12684465                2.06801423               -0.10632333                0.24110718
               8.88707518                4.00906695               73.09443254                0.01000000               -0.76238779               -0.19981499                0.05281736                1.78212197               -0.09245723                0.17073320
               9.88701491                4.01157199               73.09740052                0.01000000               -0.00602764               -1.05103675                0.05384662                1.79149834               -0.00876059                0.16786148
              -0.05603981                4.98442139               73.07015645                0.01000003                0.06226821               -0.44161389                0.11988284                0.75351943               -0.03707263                0.12819345
               0.94458287                4.97144880               73.07466359                0.01000000                0.00415826               -0.43376791                0.14268401                1.22296323               -0.12984902                0.25715147
               1.94404335                4.96798122               73.07788193                0.01000001               -0.14539659               -0.26169288                0.12767259                1.52228192               -0.15098608                0.24802445
               2.94167494                4.96946761               73.08130058                0.01000000               -0.23887346               -0.28278595                0.11537050                1.75854106               -0.05299897                0.17055900
               3.93926588                4.97381316               73.08478318                0.01000001               -0.26516152               -0.28150401                0.10849922                2.05721199                0.00429868                0.16489655
               4.93637170                4.98111974               73.08838977                0.01000001               -0.33696660               -0.23537615                0.10929848                2.36448385                0.03454221                0.17646868
               5.93252655                4.99002198               73.09193746                0.01000001               -0.43174178               -0.17153946                0.11408838                2.53903418                0.03992025                0.18979169
               6.92773687                4.99848324               73.09532397                0.01000000               -0.52927735               -0.13754197                0.12048127                2.59172622                0.02225612                0.21130772
               7.92194100                5.00486278               73.09833910                0.01000000               -0.44609842               -0.14388430                0.12297677                2.48311409                0.00841424                0.22252549
               8.91881490                5.00543361               73.10131379                0.01000000               -0.08550112               -0.47242070                0.12875533                2.15296287               -0.00768346                0.30783203
               9.92023098                4.99088874               73.10424662                0.01000000                0.14160787               -1.32554028                0.12746649                1.41747482               -0.03049438                0.31323588
              -0.03050623                5.97626761               73.07161226                0.01000003               -0.02814294               -0.46800340                0.00107150                0.82657919               -0.49803450                0.40699103
               0.96921234                5.96655035               73.07598414                0.01000001               -0.42768618               -0.22540790                0.11052644                1.23522397               -0.48308924                0.23905789
               1.96094005                5.96594415               73.08093924                0.01000000               -0.61338450               -0.23170500                0.14918318                1.47279469               -0.16510774                0.08021747
               2.95694465                5.96620557               73.08401810                0.01000001               -0.30904724               -0.38774293                0.12812421                1.69735597               -0.07533990                0.09724212
               3.95475910                5.97036121               73.08774860                0.01000001               -0.20890790               -0.43544310                0.11654177                2.11959712                0.02240552                0.11699618
               4.95276649                5.97816128               73.09171234                0.01000001               -0.22099538               -0.36996609                0.11465904                2.50589771                0.06732607                0.14054138
               5.95033919                5.98782964               73.09572671                0.01000000               -0.26822016               -0.25453629                0.11709738                2.69494558                0.08437860                0.17093412
               6.94740209                5.99686029               73.09961978                0.01000000               -0.26823108               -0.18653813                0.12213247                2.63806448                0.08056192                0.20732334
               7.94497457                6.00215954               73.10331038                0.01000000               -0.16468096               -0.24286994                0.12865707                2.29601837                0.05699823                0.24846311
               8.94410847                5.99961854               73.10671253                0.01000003               -0.02602235               -0.39576142                0.13530388                1.42396683                0.02476631                0.27578880
               9.94445413                5.98506118               73.10993966                0.01000000                0.03456548               -0.29595487                0.14207385                0.69785129                0.00280163                0.28093929
              -0.02007371                6.97506133               73.07367347                0.91392924               -0.03154841               -0.07511989                0.10195708                0.11692521               -0.00250267                0.06433905
               0.97961081                6.96694065               73.07790506                0.01000001               -0.30411379                0.00121414                0.11276689                0.34022754               -0.01768697                0.03640523
               1.97384402                6.96334712               73.08186474                0.01000003               -0.42029068               -0.37620312                0.12553165                1.06088235               -0.03689683               -0.05047376
               2.97120500                6.96171275               73.08596956                0.01000000               -0.20709519               -0.48652367                0.12495052                1.37790280                0.00126197                0.01285019
               3.96970212                6.96510430               73.09015389                0.01000001               -0.10918869               -0.70003831                0.12421192                2.00838115                0.06191150                0.04664247
               4.96902122                6.97372042               73.09458311                0.01000000               -0.09878289               -0.49787645                0.12031755                2.52750721                0.11269702                0.08646267
               5.96772646                6.98493125               73.09914749                0.01000000               -0.14264805               -0.27873109                0.12066303                2.61890232                0.14191605                0.13870120
               6.96616826                6.99475247               73.10370111                0.01000000               -0.13116694               -0.20058437                0.12416547                2.42281383                0.14751067                0.19318618
               7.96510312                7.00000538               73.10802377                0.01000000               -0.08878329               -0.15459939                0.13016363                1.96543585                0.12290788                0.26483824
               8.96439260                6.99751838               73.11192055                0.01000000               -0.09001994               -0.03322654                0.13997716                1.13319781                0.06553159                0.31029287
               9.96330272                6.98496965               73.11519340                0.01000001               -0.10898767                0.18828126                0.15281669                0.51225917                0.02310139                0.30843889
              -0.01192636                7.97476521               73.07484503                0.99999999               -0.03425404               -0.03098249                0.10682926               -0.00209007               -0.00484192                0.02113249
               0.98773110                7.96657463               73.07892654                1.00000000               -0.03440213               -0.03500977                0.11406117               -0.00161520               -0.00790105                0.00086216
               1.98738559                7.95842009               73.08292560                0.01000001               -0.24927834               -0.26519491                0.11943254                0.58054080               -0.00048015               -0.01977858
               2.98274553                7.95647510               73.08720408                0.01000001               -0.22332695               -0.59319207                0.13208028                1.09488447                0.04649440               -0.05371979
               3.98291905                7.95636044               73.09181064                0.01000001                0.03720806               -1.17176737                0.13270364                1.83976898                0.10790818               -0.07503986
               4.98348969                7.96820375               73.09682069                0.01000000               -0.06169340               -0.44368372                0.12760982                2.44411520                0.16985502                0.03803503
               5.98168519                7.98225502               73.10214653                0.01000000               -0.13527248               -0.20529494                0.12549093                2.25245130                0.21223619                0.09440758
               6.98078424                7.99284860               73.10739449                0.01000001               -0.00839005               -0.18507231                0.12712504                1.93317192                0.24046360                0.15351737
               7.98151739                7.99906755               73.11269237                0.01000001                0.05119586               -0.13852026                0.13104277                1.64583207                0.22636010                0.24262485
               8.98180816                7.99895401               73.11720951                0.01000001               -0.08603071                0.16592430                0.14301321                1.20354602                0.14373433                0.44378557
               9.97979677                7.98882681               73.12074540                0.01000002               -0.20113864                0.71635785                0.16229239                0.73357080                0.08350966                0.35127116
              -0.00373434                8.97444168               73.07607788                1.00000000               -0.03420229               -0.03295919                0.11041820                0.00088005                0.00007978                0.02102471
               0.99592364                8.96624045               73.08007225                0.99999999               -0.03556462               -0.03494785                0.11796049                0.00034488                0.00038943                0.00260656
               1.99555437                8.95804323               73.08406274                0.99999998               -0.03806513               -0.03811097                0.12535034               -0.00110250               -0.00569982               -0.00924658
               2.99516233                8.94984891               73.08790362                0.89285632               -0.03927620               -0.35090888                0.12986221                0.21155453               -0.01060307               -0.03622456
               3.99476884                8.94166896               73.09178291                0.01000000               -0.15766929               -0.75418119                0.13227536                1.75097350                0.14272939               -0.08176864
               4.99200895                8.96484674               73.09871013                0.01000002               -0.33191018               -0.14760562                0.13604640                2.07512627                0.28828684                0.00395343
               5.98813064                8.98082535               73.10468934                0.01000000               -0.19948887               -0.10573525                0.13333103                1.37655750                0.27651694                0.04398149
               6.98801917                8.99105103               73.11054909                0.01007580                0.18918571               -0.19784943                0.13387326                1.06915874                0.31589094                0.08253116
               7.99191435                8.99723497               73.11653933                0.01000000                0.53425466               -0.28086323                0.13722515                1.00266755                0.44995057                0.15198715
               8.99870426                9.00083686               73.12427566                1.00000000                0.31570927                0.07128829                0.14015065                1.03034438                0.28808654                0.28538412
               9.99822854                8.99929680               73.12618104                1.00000000               -0.04757246                0.49437520                0.17830306                0.84545617               -0.00238077                0.19825651
               0.00449369                9.97410603               73.07722396                0.99999999               -0.03572444               -0.03356466                0.11562153               -0.00023246                0.01669290                0.01663680
               1.00413644                9.96587567               73.08122685                0.99999999               -0.03693005               -0.03647761                0.12327351               -0.00112725                0.02074699                0.00195385
               2.00375509                9.95765787               73.08530418                0.99999998               -0.03927776               -0.03853592                0.13123349               -0.00086533                0.02353828               -0.00472596
               3.00335089                9.94945692               73.08934042                0.99999996               -0.04072010               -0.03919826                0.13607977               -0.00019682                0.01872123               -0.00102040
               4.00294069                9.94127682               73.09331077                0.02106902               -0.87575355               -0.03921394                0.13858847                1.60692036                0.17218813               -0.00747370
               4.98583582                9.96525164               73.10044709                0.01000000               -0.99643165                0.04048974                0.14514213                1.32586214                0.32949450               -0.02121850
               5.98301205                9.98014031               73.10686257                0.01000001               -0.00390120               -0.06850369                0.14520041                0.67013996                0.31322286                0.01248724
               6.98575779                9.98889161               73.11294809                0.01000000                0.43864229               -0.21594167                0.14727291                0.43936109                0.34520726                0.03309466
               7.99178490                9.99345029               73.11934527                0.01000002                0.72977092               -0.37846860                0.15198729                0.56146276                0.39213776                0.08607487
               9.00035321               10.00037977               73.12569438                1.00000000                0.40005575               -0.04570923                0.16869535                0.42809620                0.22581444                0.00354537
               9.99978601                9.99871431               73.12760042                0.99999991               -0.05671988               -0.05824953                0.20685439               -0.01079865                0.00311827               -0.00349735
              -0.10087644               -0.01899746               74.05773094                1.00000000               -0.02364165               -0.02576307                0.08139133                0.00048518               -0.00767659                0.00701863
               0.89888714               -0.02375512               74.06107752                0.99005355               -0.02288676               -0.02407845                0.07637081               -0.00081438               -0.00859529               -0.00150225
               1.89866582               -0.02848803               74.06441174                0.01000000                0.16575890               -0.02267902                0.07135100                0.29575476               -0.00630040               -0.00356015
               2.90220232               -0.02726209               74.06780865                0.01000000                0.23576719               -0.05033643                0.07536830                0.23778452               -0.02465030                0.01519121
               3.90338117               -0.02408679               74.07101168                0.01000000                0.01709096               -0.00769661                0.08071244                0.23853353               -0.08069097                0.03255404
               4.90254414               -0.01779445               74.07370095                0.01000001               -0.28440521                0.06120063                0.11204564                0.48172487               -0.14597425                0.07506012
               5.89769306               -0.00515634               74.07696240                0.01934666               -0.38561787               -0.07812281                0.09111936                0.56697134               -0.60917365                0.28215494
               6.89483178                0.00220589               74.07555096                1.00000000               -0.15910713               -0.03468736                0.11008453                0.24703104               -0.21905449               -0.00270118
               7.89451092                0.00463955               74.07849910                0.99999399               -0.03135409               -0.03323827                0.10538216               -0.00083533               -0.00309256               -0.00171679
               8.89420470                0.00710491               74.08143403                1.00000000               -0.02986936               -0.03181452                0.10032903               -0.00055858               -0.00355770               -0.00032984
               9.89391353                0.00959762               74.08438637                0.99999999               -0.02911671               -0.03066833                0.09505661               -0.00192841               -0.00268051               -0.00087807
              -0.09611393                0.98074491               74.05967498                0.99999999               -0.02617913               -0.02705348                0.08985050                0.00123167                0.00133927                0.00771395
               0.90362428                0.97600409               74.06302579                0.01000000               -0.02546092               -0.02522569                0.08480715               -0.00040236                0.00422664               -0.00408527
               1.90337686                0.97128518               74.06643354                0.01000000               -0.06223683                0.04925533                0.07981236                0.24630242                0.01375840                0.02533625
               2.90237955                0.97223455               74.06996781                0.01000000               -0.11720860               -0.01366443                0.07975510                0.41600476               -0.02985756                0.05099337
               3.90103268                0.97583625               74.07300056                0.01000645               -0.22416890                0.00699226                0.09322344                0.54083444               -0.10625823                0.08238189
               4.89789617                0.98281756               74.07561853                0.01000000               -0.38350374                0.03047672                0.11057676                0.78829909               -0.23611116                0.15656438
               5.89336261                0.99406243               74.07754427                0.01000001               -0.27460105               -0.19819252                0.20445828                0.86730076               -0.35817020                0.33522255
               6.89240415                1.00185901               74.07900286                0.74282975               -0.06547753               -0.03635287                0.12054695                0.26844349               -0.07510345               -0.00584982
               7.89205306                1.00430717               74.08196247                0.99999999               -0.03420329               -0.03470406                0.11488159               -0.00003264               -0.00074450               -0.00395240
               8.89172008                1.00678676               74.08491786                1.00000000               -0.03257594               -0.03313508                0.10957087                0.00048131               -0.00088360                0.00071096
               9.89140154                1.00929093               74.08787882                1.00000000               -0.03185416               -0.03226247                0.10495737               -0.00085757               -0.00061225                0.00271824
              -0.09137017                1.98046147               74.06163601                0.21019161               -0.02910036               -0.02493197                0.09875270                0.00079046                0.00295636                0.05476353
               0.90833882                1.97574036               74.06492075                0.01000000               -0.06342029               -0.02189095                0.09350650                0.06966825                0.04430926                0.04086631
               1.90736142                1.97249708               74.06903216                0.01000001               -0.11837351                0.03595926                0.07755202                0.35756469                0.05024799                0.09225446
               2.90597135                1.97246462               74.07258553                0.01000000               -0.18732866               -0.00810493                0.08042271                0.71188563               -0.00939904                0.11272853
               3.90361485                1.97605306               74.07576924                0.01000000               -0.29437049               -0.00428550                0.09131402                1.00819300               -0.06531583                0.15026021
               4.90008394                1.98281508               74.07856210                0.01000001               -0.38086124               -0.04076228                0.11191813                1.21321292               -0.12264806                0.21428523
               5.89599762                1.99087981               74.08079088                0.01000000               -0.50640137               -0.19082916                0.11389012                1.37485520               -0.11581231                0.22036657
               6.88995592                2.00147883               74.08241816                0.01000000               -0.32075506               -0.22488948                0.13169349                0.85829056               -0.06625619                0.07495026
               7.88958252                2.00394547               74.08538527                0.61457918               -0.03626776               -0.03674863                0.12234995                0.00136422                0.00356564               -0.00997141
               8.88923056                2.00644221               74.08840784                1.00000000               -0.03472414               -0.03582685                0.11801495                0.00182276                0.00472714                0.00250134
               9.88888804                2.00895237               74.09141276                0.99999994               -0.03425216               -0.03534267                0.11518968               -0.00076142                0.00339386                0.00680414
              -0.08665590                2.98024627               74.06452190                0.01000000               -0.03620584                0.15677210                0.10451907                0.34149709                0.00003774                0.15550525
               0.91298204                2.97556627               74.06775760                0.01000000                0.02298975               -0.07797747                0.09514492                0.38780621                0.05216871                0.16983313
               1.91380389                2.97200437               74.07204568                0.01000000                0.00396207               -0.11598213                0.07235572                0.68606304                0.05841745                0.15888674
               2.91306128                2.97207245               74.07564616                0.01000000               -0.14789053               -0.09310987                0.07709959                1.08329719                0.00921785                0.16139468
               3.91084608                2.97575054               74.07900224                0.01010030               -0.28637997               -0.07788427                0.08936517                1.40894538               -0.01602975                0.18059829
               4.90733368                2.98200231               74.08207335                0.01000000               -0.43250566               -0.08409759                0.10257889                1.64582658               -0.02822671                0.19957181
               5.90219597                2.99024584               74.08484430                0.01000001               -0.54146921               -0.08710213                0.11325507                1.66445051               -0.02649500                0.19948906
               6.89650430                2.99736122               74.08749352                0.01000000               -0.75395002               -0.22414116                0.11498961                1.54378286               -0.09429049                0.18531908
               7.88711697                3.00357219               74.08871852                0.01000000               -0.48773300               -0.10059800                0.11434847                0.93078685               -0.07389150                0.11446777
               8.88674964                3.00607022               74.09186925                0.60225382               -0.03754907               -0.03812527                0.12727589                0.00165969                0.01290617                0.00081814
               9.88636599                3.00858408               74.09488106                0.99999994               -0.03836502               -0.03776122                0.12602580               -0.00112541               -0.00062412                0.00297721
              -0.07518024                3.98359691               74.06856529                0.01000000               -0.04829114                0.17837646                0.14188169                0.34940389                0.00580889                0.20814468
               0.92433685                3.97418081               74.07217908                0.01000001               -0.01216258               -0.16508581                0.07615842                0.63742277               -0.02900560                0.27501836
               1.92457651                3.97017744               74.07548075                0.01000000               -0.02228605               -0.21923841                0.06731970                1.06423722               -0.02925065                0.21418829
               2.92389113                3.97060242               74.07896727                0.01010810               -0.13563081               -0.19534606                0.07711934                1.44086780               -0.00532895                0.18801886
               3.92186389                3.97449537               74.08242572                0.01000000               -0.26929798               -0.17328571                0.09077327                1.77033478                0.00993663                0.18173712
               4.91850517                3.98113313               74.08578968                0.01000001               -0.39680862               -0.13240820                0.10178670                2.02226082                0.01779531                0.18872809
               5.91392772                3.98913776               74.08903771                0.01000001               -0.54999719               -0.11433771                0.10993203                2.15690159                0.00943377                0.19094485
               6.90750522                3.99699601               74.09192956                0.01000001               -0.72192307               -0.06481820                0.11447209                2.05458135               -0.01048849                0.18161367
               7.89948926                4.00193351               74.09461426                0.01000001               -1.16266783               -0.07748033                0.11242515                2.03202049               -0.11707872                0.22831349
               8.88425187                4.00567970               74.09524555                0.01000000               -0.78257196               -0.19057534                0.14390999                1.76467024               -0.10793852                0.19054105
               9.88383782                4.00819714               74.09822835                0.01000000               -0.04140484               -1.04824199                0.14031994                1.78417535               -0.01399790                0.18964989
              -0.06083563                4.98381380               74.07167751                0.01000001               -0.00144021               -0.08100346                0.18044503                0.37270975               -0.06803095                0.03849011
               0.93914997                4.97226456               74.07564217                0.01000000               -0.02486724               -0.24378487                0.08056615                0.73149610               -0.14771204                0.28686766
               1.93866703                4.96761960               74.07891286                0.01000001               -0.07946347               -0.28496892                0.06966907                1.30090574               -0.13497819                0.23185034
               2.93756070                4.96816553               74.08226985                0.01000000               -0.14724789               -0.28915629                0.08115406                1.67020699               -0.04085490                0.16574105
               3.93572207                4.97228482               74.08579362                0.01000001               -0.22120958               -0.28611803                0.09468032                2.02070477                0.01589940                0.16127704
               4.93313651                4.97935415               74.08945078                0.01000001               -0.31254713               -0.23658405                0.10409946                2.33019716                0.04367531                0.16814574
               5.92947113                4.98795909               74.09305838                0.01000001               -0.41681646               -0.16462839                0.11125640                2.49971337                0.04796193                0.17745735
               6.92480018                4.99606486               74.09649666                0.01000000               -0.51987209               -0.11829313                0.11555795                2.54754482                0.02872755                0.19409006
               7.91907368                5.00202259               74.09953386                0.01000000               -0.45103867               -0.11229222                0.12081979                2.43404625                0.00964217                0.20994257
               8.91577941                5.00225872               74.10252443                0.01000002               -0.10295390               -0.43596170                0.11846696                2.11866285               -0.00851929                0.32229249
               9.91701461                4.98761924               74.10546284                0.01000001                0.12352008               -1.29588637                0.12076536                1.40573951               -0.02867446                0.33224021
              -0.04462756                5.98197684               74.07164814                0.01000002               -0.02114680               -0.48698960                0.17760482                0.55608970               -0.32731462                0.34468845
               0.95516097                5.96930512               74.07789010                0.01000001               -0.03393913               -0.32306120                0.13746029                0.93156352               -0.41347967                0.23506239
               1.95469365                5.96447806               74.08188826                0.01000000               -0.12654625               -0.29550947                0.06413721                1.30246183               -0.18185436                0.07137313
               2.95263004                5.96481930               74.08512629                0.01000001               -0.18021438               -0.40109263                0.09436510                1.68649920               -0.06609466                0.09588116
               3.95108937                5.96877301               74.08884794                0.01000001               -0.15976001               -0.44030156                0.10311326                2.09089635                0.02424745                0.11227615
               4.94943484                5.97640145               74.09282759                0.01000001               -0.19390467               -0.36929757                0.10901412                2.47664070                0.06974973                0.13218515
               5.94721127                5.98584520               74.09687606                0.01000002               -0.25211100               -0.24758332                0.11366139                2.66493820                0.08638427                0.15717984
               6.94439262                5.99463014               74.10081587                0.01000000               -0.26174741               -0.16894200                0.11815290                2.61006254                0.08192981                0.18798486
               7.94197633                5.99968766               74.10456085                0.01000000               -0.16820768               -0.20914049                0.12259996                2.27117093                0.05803384                0.23249549
               8.94102847                5.99696047               74.10802457                0.01000001               -0.03723811               -0.34979214                0.12894625                1.41052074                0.02628826                0.26477718
               9.94123156                5.98227942               74.11130796                0.01000000                0.02030929               -0.25377724                0.13407424                0.69117738                0.00414940                0.27830687
              -0.02437038                6.97407401               74.07469445                0.90941787               -0.03495942               -0.41234894                0.10264835                0.59933360               -0.00508196                0.11018753
               0.97528002                6.96580333               74.07904621                0.01000002               -0.32137681               -0.18852685                0.11499315                0.80332630               -0.02121407               -0.01108371
               1.96920208                6.96170941               74.08308522                0.01000003               -0.41421469               -0.37059941                0.11888347                1.14205814               -0.04361215               -0.04241716
               2.96699573                6.96014367               74.08715987                0.01000000               -0.16221195               -0.49512354                0.11037462                1.39247656               -0.00069252                0.00834252
               3.96595784                6.96347879               74.09132386                0.01000001               -0.06992948               -0.70066535                0.11292069                1.99323094                0.05735320                0.04488572
               4.96559714                6.97196820               74.09576298                0.01000000               -0.07083225               -0.49676095                0.11502340                2.50219541                0.10676628                0.07920528
               5.96454120                6.98300742               74.10033380                0.01000000               -0.12190893               -0.27574515                0.11707027                2.59833062                0.13536203                0.12483482
               6.96315896                6.99268602               74.10492276                0.01000000               -0.11872083               -0.18902940                0.12043648                2.41385220                0.14155632                0.17391402
               7.96216678                6.99783978               74.10929975                0.01000001               -0.08804473               -0.12907657                0.12590710                1.96814779                0.11817441                0.24391163
               8.96139807                6.99526288               74.11328696                0.01000004               -0.09832638                0.00689097                0.13406463                1.13861631                0.06353783                0.29413832
               9.96020025                6.98254370               74.11668474                0.01000001               -0.11978139                0.22213066                0.14607119                0.51502539                0.02347659                0.30149575
              -0.01609954                7.97372987               74.07591285                0.99999999               -0.03083643               -0.03186542                0.10712908                0.01027611               -0.00717919                0.02091610
               0.98359209                7.96553458               74.08007470                1.00000000               -0.03529890               -0.03572959                0.11487668               -0.00257891               -0.01305487               -0.00944057
               1.98319448                7.95706607               74.08412075                0.01000000               -0.24409487               -0.24894651                0.11893370                0.58686047               -0.00256669               -0.02456675
               2.97871019                7.95491683               74.08849333                0.01000000               -0.20325067               -0.58752582                0.12440283                1.09388288                0.04533888               -0.05814005
               3.97912946                7.95475971               74.09311610                0.01000001                0.06199633               -1.16931058                0.12320501                1.81792126                0.09892373               -0.08135242
               4.97995012                7.96646623               74.09806753                0.01000000               -0.03347017               -0.44797612                0.12363664                2.41758868                0.15651996                0.03400151
               5.97846006                7.98033029               74.10338642                0.01000000               -0.10564028               -0.20919888                0.12202112                2.23739682                0.20086391                0.08195019
               6.97783732                7.99084956               74.10864949                0.01000001                0.01511827               -0.18486886                0.12425345                1.93804568                0.22773825                0.13651949
               7.97876243                7.99710613               74.11398715                0.01000007                0.06297814               -0.12617608                0.12824953                1.67456053                0.21360479                0.22283721
               8.97909688                7.99709829               74.11862650                0.01000001               -0.08959984                0.20215316                0.13987958                1.23934069                0.13492379                0.41932174
               9.97697043                7.98672203               74.12233992                0.01000002               -0.21264484                0.75839856                0.15745804                0.75806423                0.07762366                0.34417821
              -0.00777429                8.97343670               74.07718218                1.00000000               -0.03334698               -0.03142752                0.11055734                0.00125717                0.00036063                0.01988541
               0.99189224                8.96508874               74.08125691                0.99999999               -0.03343328               -0.04127733                0.11819949               -0.00143371               -0.00007034               -0.00056311
               1.99155704                8.95673048               74.08531995                0.99999999               -0.03562435               -0.03653862                0.12424712                0.00090569               -0.00868549               -0.01041730
               2.99117975                8.94839316               74.08919766                0.80724358               -0.03950902               -0.34741050                0.13605255                0.20837976               -0.01652764               -0.03920745
               3.99076686                8.94009258               74.09306173                0.01000000               -0.14007122               -0.75672849                0.15141969                1.72792562                0.13887101               -0.08631464
               4.98837833                8.96300867               74.10007618                0.01000002               -0.29305262               -0.16090383                0.13164917                2.05364696                0.27952353                0.00177839
               5.98490581                8.97882345               74.10600062                0.01005688               -0.16171461               -0.11515161                0.12944188                1.36720553                0.25950333                0.03669842
               6.98514404                8.98898864               74.11185984                0.01000001                0.22517257               -0.20634072                0.13021131                1.07469962                0.29687406                0.07154634
               7.98940926                8.99531626               74.11790253                0.01000000                0.57124737               -0.28515096                0.13551336                1.03765685                0.42543172                0.13986074
               8.99656898                8.99930594               74.12566191                1.00000000                0.33523939                0.08779849                0.13826054                1.07961682                0.26753713                0.27112023
               9.99611405                8.99771167               74.12796592                1.00000000               -0.04549333                0.51959148                0.17843792                0.87798729               -0.00509371                0.19032248
               0.00062151                9.97310131               74.07838401                0.99999999               -0.03518770               -0.03353845                0.11624161                0.00035220                0.01623067                0.01637687
               1.00026964                9.96470903               74.08245794                1.00000000               -0.03566679               -0.03797085                0.12295743               -0.00056124                0.02093226                0.00043264
               1.99990818                9.95633530               74.08662428                1.00000000               -0.03769730               -0.03951822                0.12977242               -0.00190753                0.02228732               -0.00493185
               2.99951569                9.94796862               74.09069516                0.99999995               -0.04178576               -0.04245394                0.14244361               -0.00191447                0.01305800               -0.00193230
               3.99907246                9.93962514               74.09465202                0.14114680               -0.86117475               -0.04674445                0.15797778                1.59453667                0.17146038               -0.00937897
               4.98229219                9.96324816               74.10191653                0.01000000               -0.96241300                0.02394833                0.14227431                1.31149275                0.32556527               -0.02149113
               5.97982420                9.97802726               74.10829760                0.01000001                0.02731521               -0.07961866                0.14086387                0.66556826                0.29831276                0.01064886
               6.98283850                9.98672274               74.11438430                0.01000000                0.46870335               -0.22659016                0.14254072                0.43823884                0.32560247                0.02698180
               7.98919827                9.99140311               74.12082765                0.01000002                0.77276521               -0.39131430                0.14947807                0.58547621                0.38049326                0.07972765
               8.99829380                9.99885425               74.12737958                1.00000000                0.42602247               -0.04516833                0.16857055                0.45801921                0.21773447                0.00533813
               9.99771872                9.99711386               74.12968358                1.00000000               -0.05750851               -0.05978084                0.20868094               -0.01357291                0.00519934               -0.00519932
              -0.10427340               -0.02091547               75.05854982                1.00000000               -0.02397942               -0.02585975                0.08250528               -0.00000427               -0.00714068                0.00648646
               0.89548681               -0.02576244               75.06184387                0.98984715               -0.02319441               -0.02393418                0.07708941               -0.00115364               -0.00802641               -0.00184079
               1.89526272               -0.03059032               75.06512641                0.01127970                0.15579095               -0.02260436                0.07200869                0.29717477                0.00223120               -0.00361487
               2.89860263               -0.02943426               75.06862977                0.01000001                0.22117531               -0.03525348                0.05505739                0.25541793               -0.01442910               -0.00518104
               3.89968622               -0.02585742               75.07183175                0.01000002               -0.01336445                0.00311033                0.09106824                0.27457197               -0.03184081                0.02663032
               4.89833534               -0.01897336               75.07504131                0.01000002               -0.42690205                0.07171788                0.13069918                0.62110943               -0.11913404                0.03110302
               5.89114818               -0.00350404               75.07720585                0.09341458               -0.32195231               -0.08697326                0.04373650                0.64386525               -0.37850951                0.25390359
               6.89189629               -0.00132246               75.07667667                1.00000000                0.02070952               -0.03611380                0.11622868               -0.01219118               -0.17326132               -0.00212746
               7.89156237                0.00111327               75.07956712                0.99999998               -0.03221983               -0.03362279                0.10808779               -0.00018697               -0.00416676               -0.00205395
               8.89125190                0.00357694               75.08243780                1.00000000               -0.02995415               -0.03094380                0.10002521               -0.00023157               -0.00400963               -0.00020748
               9.89096329                0.00606054               75.08532789                1.00000000               -0.02886087               -0.02857038                0.09270952               -0.00219258               -0.00254510                0.00000453
              -0.09942647                0.97882593               75.06057511                0.99999999               -0.02608338               -0.02708400                0.08994117                0.00080362                0.00118148                0.00795294
               0.90031270                0.97399822               75.06387206                0.01000000               -0.02515767               -0.02478038                0.08397225               -0.00107379                0.00415631               -0.00425037
               1.90007038                0.96918364               75.06722695                0.01000000               -0.07611674                0.05604270                0.07805870                0.25129888                0.01706192                0.01896924
               2.89879036                0.97021320               75.07077045                0.01000000               -0.14344427                0.00374266                0.08258558                0.44831822               -0.00587884                0.02694024
               3.89720149                0.97417368               75.07404761                0.01003771               -0.27103097                0.01467935                0.10303794                0.59395233               -0.06730444                0.06015421
               4.89336974                0.98174382               75.07684565                0.01000000               -0.42200538                0.02885944                0.13828114                0.97586064               -0.05859657                0.09146570
               5.88876138                0.99562623               75.08071640                0.01000001               -0.19520048               -0.35131183                0.20527862                0.91400690               -0.19196253                0.15158821
               6.88946573                0.99831640               75.08022265                0.73771697                0.01747095               -0.03721387                0.12345970                0.01342903               -0.17119757               -0.00610825
               7.88911080                1.00077704               75.08311659                0.99999999               -0.03448937               -0.03485366                0.11581612                0.00154269               -0.00189398               -0.00529713
               8.88877594                1.00326750               75.08600813                1.00000000               -0.03265193               -0.03148847                0.10850028                0.00154849               -0.00131609               -0.00002393
               9.88845776                1.00577484               75.08891065                1.00000000               -0.03181811               -0.02902052                0.10150190               -0.00063208               -0.00046652                0.00281360
              -0.09460190                1.97854285               75.06262428                0.26937958               -0.02904768               -0.02643901                0.09892460               -0.00279166                0.00270493                0.05662511
               0.90510762                1.97374195               75.06585064                0.01000000               -0.06621951               -0.01950373                0.09173168                0.07158113                0.03775664                0.03710381
               1.90407371                1.97053054               75.06977454                0.01000001               -0.12643363                0.05087422                0.07077976                0.36937593                0.05430287                0.06345396
               2.90257895                1.97064059               75.07338548                0.01000000               -0.20195292                0.00752913                0.07985396                0.74515669                0.01777875                0.08004269
               3.90003465                1.97443617               75.07673085                0.01000000               -0.30894744               -0.00300789                0.09629980                1.06520305               -0.01823473                0.11352696
               4.89640000                1.98160383               75.07983860                0.01000001               -0.35894591               -0.07057799                0.12624191                1.29006409               -0.07495560                0.15099953
               5.89285573                1.98946973               75.08205469                0.01000000               -0.46929668               -0.37890864                0.15041383                1.34070037               -0.11590484                0.07731142
               6.88701407                1.99793326               75.08373374                0.01000002               -0.31068044               -0.19597767                0.12849458                0.75547815               -0.06320652                0.06271676
               7.88664213                2.00041619               75.08661244                0.54998483               -0.03645003               -0.03551692                0.12211283                0.00430484                0.00154238               -0.02267021
               8.88628507                2.00294717               75.08957225                1.00000000               -0.03530729               -0.03294683                0.11729522                0.00454005                0.00447875                0.00630563
               9.88593598                2.00548013               75.09252073                0.99999999               -0.03490889               -0.03106992                0.11071659               -0.00084358                0.00369671                0.01144403
              -0.08988051                2.97829715               75.06561126                0.01000000               -0.03628589                0.17821675                0.11466598                0.32953406               -0.00454529                0.18680828
               0.90975663                2.97360814               75.06869038                0.01000000                0.02198855               -0.04502216                0.08421375                0.38068437                0.04116756                0.13506986
               1.91055926                2.97020112               75.07265564                0.01000000                0.00156194               -0.09679737                0.05589713                0.69109703                0.08700898                0.09913802
               2.90978787                2.97036378               75.07636438                0.01000000               -0.15084723               -0.08213032                0.07161869                1.09438354                0.05514571                0.12240642
               3.90754231                2.97411352               75.07989710                0.01000000               -0.28252029               -0.08007572                0.09049985                1.42885721                0.02182887                0.14846085
               4.90413746                2.98033226               75.08314956                0.01000000               -0.41481793               -0.11689460                0.11046025                1.64820376               -0.00717689                0.16533707
               5.89924595                2.98804806               75.08603732                0.01000001               -0.52543150               -0.13022389                0.12075182                1.60898292               -0.01827868                0.16836407
               6.89362883                2.99439685               75.08865404                0.01000000               -0.75314820               -0.18465026                0.11490711                1.48133082               -0.10193764                0.16250016
               7.88418299                3.00006670               75.08981095                0.01001009               -0.49130113               -0.08140185                0.10646265                0.90873461               -0.06271448                0.09836260
               8.88380281                3.00260857               75.09325124                0.73776796               -0.04040079               -0.03622906                0.13643274                0.00519992                0.02902146                0.03150233
               9.88337497                3.00515344               75.09624090                0.99999994               -0.04278333               -0.03484646                0.12988097               -0.00384438                0.00628404                0.03041695
              -0.07863321                3.98210718               75.07022494                0.01000002               -0.05494586                0.19056005                0.19814473                0.30097049               -0.08135982                0.23628622
               0.92081734                3.97284151               75.07263254                0.01002938               -0.01133921               -0.10665026                0.00201339                0.55620288               -0.03314154                0.09942831
               1.92114001                3.96859459               75.07594675                0.01000000               -0.01315571               -0.19952016                0.04758857                1.01566618                0.06768900                0.13279817
               2.92055422                3.96899798               75.07962803                0.01000000               -0.12483443               -0.18701866                0.06475788                1.42146360                0.06689022                0.14798089
               3.91864332                3.97283465               75.08329912                0.01000000               -0.25623399               -0.17485200                0.08820141                1.75642868                0.05287123                0.16073551
               4.91542954                3.97926593               75.08681076                0.01000001               -0.38362606               -0.14437586                0.10496611                1.99367961                0.04131907                0.16854374
               5.91097080                3.98686525               75.09013664                0.01000001               -0.54037485               -0.11576430                0.11286187                2.10841386                0.01896752                0.16835523
               6.90462205                3.99424026               75.09306801                0.01000001               -0.71828503               -0.04590605                0.11373355                2.00650062               -0.01200577                0.16564694
               7.89660510                3.99878816               75.09568120                0.01000001               -1.16598587               -0.04758297                0.11563742                1.99527123               -0.08175693                0.22841638
               8.88130233                4.00222259               75.09731074                0.01000000               -0.79178764               -0.17540670                0.17131345                1.74538856               -0.06969321                0.16540865
               9.88076935                4.00478320               75.10020692                0.01001738               -0.05329804               -1.03497493                0.16096621                1.77634556               -0.00428071                0.16818723
              -0.06532976                4.98210835               75.07376535                0.01000000               -0.02769662               -0.09813709                0.31387183                0.39151639                0.01115560                0.22095380
               0.93439328                4.97147514               75.07627491                0.01000000                0.00229320               -0.24969749                0.04394953                0.69938316                0.01787736                0.04071633
               1.93471611                4.96621072               75.07927531                0.01000001               -0.02080998               -0.26976731                0.03718163                1.20375192                0.02440870                0.13545347
               2.93397708                4.96662341               75.08292366                0.01000000               -0.11565869               -0.28824020                0.06364062                1.62573085                0.05508129                0.14467677
               3.93240293                4.97061648               75.08667679                0.01000001               -0.19983120               -0.28790825                0.08995689                1.98603771                0.06095944                0.14981875
               4.92998045                4.97744474               75.09047176                0.01000000               -0.29815123               -0.23865729                0.10383472                2.29100573                0.06423872                0.15366223
               5.92643991                4.98573277               75.09416259                0.01000001               -0.40722577               -0.15837166                0.11159727                2.45708959                0.05610729                0.16076501
               6.92183594                4.99347873               75.09763513                0.01000002               -0.51669133               -0.10231848                0.11561344                2.50580596                0.03162986                0.17887550
               7.91610608                4.99911504               75.10075550                0.01000000               -0.45602021               -0.08722988                0.12203418                2.39715756                0.00448369                0.20661858
               8.91271553                4.99910043               75.10368313                0.01000002               -0.11627089               -0.40355195                0.12424497                2.09618512               -0.01117802                0.28050602
               9.91378066                4.98445394               75.10666193                0.01000001                0.10651308               -1.26888911                0.12741574                1.39540053               -0.02518705                0.30412683
              -0.04953645                5.98014444               75.07516436                0.01000002                0.02390808               -0.45539907                0.32306585                0.59285662                0.06277295               -0.10520826
               0.95070263                5.96784756               75.07873334                0.01000001               -0.01983856               -0.34703819                0.11880602                0.97286404                0.02600732                0.02528069
               1.95006678                5.96319924               75.08222198                0.01000001               -0.10197762               -0.29722155                0.04328970                1.27638140               -0.01721459                0.09089730
               2.94866308                5.96323318               75.08590540                0.01000001               -0.12620152               -0.40554292                0.07683339                1.64263381                0.01770053                0.10121435
               3.94754275                5.96707649               75.08981086                0.01000001               -0.12648544               -0.44413133                0.09636862                2.05513722                0.05629249                0.11062826
               4.94613337                5.97449279               75.09389263                0.01000001               -0.17320706               -0.36900771                0.10663942                2.43937450                0.08236775                0.12149035
               5.94407860                5.98369782               75.09799993                0.01003286               -0.23887346               -0.24075945                0.11259538                2.62675551                0.09021182                0.14196541
               6.94135590                5.99219389               75.10198284                0.01000000               -0.25760287               -0.15407994                0.11703516                2.57716200                0.08142904                0.17047599
               7.93892655                5.99704356               75.10576238                0.01000000               -0.17343837               -0.18288620                0.12074154                2.24769952                0.05673493                0.21637303
               8.93788713                5.99415155               75.10929146                0.01001573               -0.04781021               -0.31506093                0.12546584                1.39623450                0.02545664                0.25881410
               9.93797034                5.97940542               75.11262115                0.01000000                0.00832126               -0.22431698                0.12991459                0.68518782                0.00463664                0.28251335
              -0.02887886                6.97300037               75.07572644                0.92527793               -0.03253844               -0.37243175                0.10319581                0.61054021               -0.00823765               -0.01762243
               0.97079575                6.96453437               75.08020492                0.01000000               -0.31315114               -0.18362201                0.11513826                0.79126950               -0.02907424               -0.00658558
               1.96485812                6.96026629               75.08424241                0.01000000               -0.39216216               -0.37526080                0.11398168                1.14135149               -0.01652234                0.00272455
               2.96295251                6.95851255               75.08817706                0.01000000               -0.13060246               -0.49793374                0.10083193                1.37307230                0.01791604                0.02642336
               3.96224607                6.96173386               75.09241230                0.01000001               -0.04029494               -0.70404805                0.10756324                1.96663100                0.06961498                0.04457338
               4.96214661                6.97006459               75.09688358                0.01001002               -0.04860731               -0.49611002                0.11197040                2.47000627                0.10852214                0.07199798
               5.96127392                6.98091758               75.10148889                0.01000000               -0.10565876               -0.27353095                0.11536767                2.56872208                0.13103109                0.11110076
               6.96003344                6.99039713               75.10610984                0.01000000               -0.10857554               -0.17759922                0.11789350                2.39610593                0.13484626                0.15559071
               7.95910241                6.99545732               75.11054191                0.01000009               -0.08775370               -0.10610218                0.12284041                1.96440045                0.11151692                0.22586831
               8.95827836                6.99279921               75.11460185                0.01000001               -0.10628617                0.04069677                0.13025224                1.13885062                0.06022422                0.27928444
               9.95697669                6.97996760               75.11811483                0.01000003               -0.13016767                0.25118875                0.14142815                0.51444204                0.02327868                0.29962887
              -0.02039366                7.97269580               75.07698762                0.99999999               -0.03442449               -0.03160736                0.10767625               -0.00195499               -0.00985228                0.02052156
               0.97926210                7.96417512               75.08122408                1.00000000               -0.03453568               -0.03442109                0.11390348               -0.00065347               -0.01836176               -0.02156846
               1.97891563                7.95569403               75.08530427                0.01000000               -0.23025712               -0.24674695                0.11568747                0.58405853               -0.00722216               -0.02688758
               2.97465695                7.95327450               75.08969213                0.01004189               -0.17961483               -0.58248100                0.11883703                1.07194939                0.04334880               -0.04500520
               3.97532333                7.95299553               75.09427474                0.01000001                0.08464053               -1.16635590                0.11816433                1.78588853                0.09869495               -0.06182638
               4.97634977                7.96457059               75.09929342                0.01000000               -0.01014144               -0.45156368                0.12069662                2.38727910                0.15318618                0.02617393
               5.97512050                7.97822720               75.10458695                0.01000000               -0.08057401               -0.21347195                0.11951888                2.21672159                0.19033921                0.07041556
               6.97473828                7.98864190               75.10987956                0.01000000                0.03459846               -0.18249895                0.12151988                1.93578116                0.21555521                0.12066020
               7.97581247                7.99492151               75.11525736                0.01000002                0.07077870               -0.11328161                0.12636757                1.69210469                0.20302046                0.20638787
               8.97615386                7.99496549               75.12000710                0.01000086               -0.09450306                0.23534888                0.13757806                1.26104683                0.12719044                0.39596543
               9.97392241                7.98442919               75.12389456                0.01000002               -0.22314481                0.78959975                0.15451330                0.77346918                0.07308087                0.34328585
              -0.01187659                8.97236822               75.07828903                1.00000000               -0.03389502               -0.03329499                0.11112959                0.00097828                0.00064725                0.01868433
               0.98778446                8.96384595               75.08243624                0.99999999               -0.03417554               -0.03464254                0.11676347                0.00079286               -0.00170974               -0.00416681
               1.98743990                8.95533135               75.08654768                0.99949309               -0.03472304               -0.03717294                0.12193275                0.00324833               -0.00643678               -0.01282522
               2.98709000                8.94686293               75.09062467                0.90309419               -0.03860750               -0.34256077                0.13540272                0.20013686               -0.00224156               -0.03321978
               3.98666775                8.93840674               75.09481130                0.01000000               -0.12147399               -0.75434422                0.15337152                1.69977858                0.12379872               -0.06543450
               4.98466052                8.96103331               75.10134312                0.01000002               -0.25653569               -0.17147402                0.12714244                2.02965946                0.25052576               -0.00298279
               5.98153704                8.97664815               75.10727818                0.01000000               -0.13028886               -0.12339298                0.12666851                1.35519391                0.24755049                0.02893984
               6.98205474                8.98674715               75.11315332                0.01000000                0.25419415               -0.21297818                0.12863260                1.07725243                0.28065345                0.06262780
               7.98662092                8.99319168               75.11924960                0.01000001                0.59684382               -0.28634562                0.13453783                1.06730250                0.40118419                0.13021032
               8.99399162                8.99750619               75.12704087                1.00000000                0.34488678                0.10428542                0.13869179                1.11330124                0.24711441                0.25789658
               9.99351866                8.99575960               75.12974980                1.00000000               -0.04729643                0.53729008                0.17810459                0.89332010               -0.00780623                0.18391804
              -0.00332955                9.97202990               75.07954879                1.00000000               -0.03556218               -0.03383161                0.11732056               -0.00006030                0.01557549                0.01603617
               0.99631482                9.96348227               75.08368600                1.00000000               -0.03534157               -0.03636842                0.12283013               -0.00093052                0.01852374               -0.00076778
               1.99596361                9.95495057               75.08789963                1.00000000               -0.03652606               -0.03807821                0.12728914               -0.00057759                0.02463187               -0.00587397
               2.99558430                9.94642329               75.09218929                0.99999999               -0.04075462               -0.04396438                0.14161993               -0.00266615                0.02796195                0.00183300
               3.99514852                9.93790864               75.09647033                0.17584069               -0.84413774               -0.04980985                0.15840439                1.58396820                0.15884630               -0.00210629
               4.97870155                9.96114111               75.10329258                0.01000001               -0.93189898                0.01077963                0.13733924                1.29663763                0.30173548               -0.02066554
               5.97651054                9.97575934               75.10967984                0.01000000                0.05191234               -0.08888069                0.13738183                0.65941218                0.28980116                0.00610317
               6.97973979                9.98438234               75.11579891                0.01000000                0.49444690               -0.23648100                0.14191934                0.44026833                0.31629274                0.02383735
               7.98639948                9.98919460               75.12233483                0.01000002                0.80560886               -0.39970817                0.15000604                0.61129884                0.36643420                0.07830806
               8.99585197                9.99705120               75.12906579                1.00000000                0.44412620               -0.04549959                0.16889538                0.48505488                0.20814887                0.00713137
               9.99528200                9.99517500               75.13177404                1.00000000               -0.05699673               -0.05845998                0.20831480               -0.01128507                0.00728082               -0.00690094
              -0.10760736               -0.02291830               76.05938105                1.00000000               -0.02426198               -0.02521866                0.08409563               -0.00068626               -0.00537798                0.00483130
               0.89215002               -0.02784832               76.06261930                0.99457663               -0.02340430               -0.02393617                0.07836784               -0.00159958               -0.00569461               -0.00250355
               1.89192455               -0.03276139               76.06585191                0.01000000                0.15291907               -0.02221636                0.07379047                0.29957696               -0.01441043               -0.00290292
               2.89520840               -0.03164708               76.06890980                0.01000000                0.22041300               -0.03352837                0.06957154                0.26206507               -0.01350921               -0.02197516
               3.89633281               -0.02798590               76.07283305                0.01000584               -0.02105210                0.01261313                0.08782200                0.27115926               -0.00938493                0.01822808
               4.89478736               -0.02078107               76.07631493                0.01000002               -0.39226503                0.06306439                0.14327557                0.57113499               -0.09157688                0.04102514
               5.88848751               -0.00709937               76.07783713                0.23575053               -0.28910328               -0.06552700                0.06090021                0.55850705               -0.17287204                0.00621188
               6.88900529               -0.00492862               76.07787554                1.00000000                0.00894691               -0.03916000                0.12508724               -0.01258388               -0.14474422               -0.00342231
               7.88866645               -0.00250048               76.08066086                0.99999999               -0.03207773               -0.03436201                0.10984651                0.00076090               -0.00760518               -0.00306306
               8.88836374               -0.00003989               76.08343453                0.99999999               -0.02919930               -0.03082717                0.09920012                0.00022965               -0.00539126               -0.00060879
               9.88808247                0.00243219               76.08624056                1.00000000               -0.02812740               -0.02778196                0.09028784               -0.00232121               -0.00311712               -0.00099733
              -0.10268421                0.97682951               76.06147380                1.00000000               -0.02602236               -0.02619369                0.08918502                0.00020937               -0.00019550                0.00857902
               0.89705557                0.97191232               76.06470523                0.01000000               -0.02480433               -0.02437802                0.08212803               -0.00096935                0.00265830               -0.00499166
               1.89681970                0.96701645               76.06799471                0.01000000               -0.08071307                0.05494302                0.07392312                0.25466977                0.02271726                0.01333947
               2.89544131                0.96801764               76.07161953                0.01000000               -0.16041515                0.00593133                0.08628573                0.46429994               -0.00706865               -0.00665183
               3.89361140                0.97214023               76.07506132                0.01000001               -0.26929299                0.02300021                0.07613704                0.61480780                0.00287391                0.03843452
               4.89005545                0.97984957               76.07838415                0.01000000               -0.37325213                0.01561173                0.14443418                0.92893805                0.01464067                0.03197779
               5.88614636                0.99224536               76.08164984                0.01000001               -0.17377188               -0.28977551                0.09102432                0.80635426               -0.10152530               -0.05724589
               6.88658001                0.99467978               76.08147205                0.72945508                0.00416693               -0.03848031                0.12780476                0.00196413               -0.15334966               -0.01152070
               7.88622970                0.99715590               76.08427879                0.99999999               -0.03401525               -0.03509109                0.11607432                0.00402282               -0.00312558               -0.00704836
               8.88589970                0.99965183               76.08708787                1.00000000               -0.03212624               -0.03174490                0.10782451                0.00232872               -0.00135434               -0.00011627
               9.88558717                1.00215437               76.08990885                0.99999999               -0.03125309               -0.02905973                0.09909303               -0.00061873               -0.00012048                0.00178674
              -0.09776879                1.97655782               76.06361450                0.35266123               -0.02875085               -0.02238702                0.09822678               -0.00041247                0.00224519                0.06742586
               0.90194370                1.97166412               76.06675539                0.01000000               -0.06592859               -0.02132732                0.08847083                0.07425447                0.03069444                0.02388807
               1.90091263                1.96833747               76.07044776                0.01000001               -0.12865418                0.03992349                0.06455850                0.39288957                0.06397240                0.02708323
               2.89937061                1.96847155               76.07418261                0.01000000               -0.20578005                0.01301975                0.07699716                0.78090288                0.04882860                0.04019566
               3.89679703                1.97247411               76.07769523                0.01000000               -0.30548088                0.00056259                0.09218370                1.09728502                0.00770767                0.08666018
               4.89326100                1.97953116               76.08108694                0.01000001               -0.35063199               -0.07563379                0.11106681                1.28127476               -0.01242184                0.08069438
               5.88978439                1.98710512               76.08379915                0.01000001               -0.45634809               -0.33570939                0.15397516                1.24750821               -0.10792888                0.00509308
               6.88413403                1.99430177               76.08498805                0.01003609               -0.30047695               -0.17014145                0.11523468                0.69022408               -0.08159066                0.04945087
               7.88377485                1.99679770               76.08782753                0.45394291               -0.03610926               -0.03426064                0.12052076                0.00296075                0.00710454               -0.03657263
               8.88341185                1.99932521               76.09075375                0.99999998               -0.03549142               -0.03450249                0.11857330                0.00268527                0.00794006                0.00889108
               9.88306502                2.00185099               76.09362709                0.99999999               -0.03468232               -0.03240720                0.10937933               -0.00116336                0.00574514                0.01021092
              -0.09290506                2.97638177               76.06681522                0.02865815               -0.03339336                0.18053584                0.11895576                0.31770935               -0.00739761                0.25893230
               0.90676101                2.97148577               76.06944188                0.01000000                0.03875642               -0.15396348                0.06683989                0.37208309                0.05066175                0.04893616
               1.90787007                2.96781492               76.07316362                0.01000000                0.00808592               -0.10618727                0.05990915                0.74072101                0.13394105                0.03956561
               2.90692273                2.96827803               76.07707853                0.01000000               -0.16862937               -0.07343918                0.07596776                1.14212587                0.10612906                0.08654692
               3.90449748                2.97215149               76.08081224                0.01000027               -0.29363993               -0.07718517                0.09542871                1.45002105                0.06535119                0.12144368
               4.90104993                2.97833690               76.08428256                0.01000000               -0.40857848               -0.11746775                0.11659342                1.63063589                0.02406391                0.12242052
               5.89632591                2.98553117               76.08725933                0.01000001               -0.51790103               -0.13627608                0.12511794                1.56027372               -0.01314466                0.10696031
               6.89069191                2.99127695               76.08979166                0.01000000               -0.75302180               -0.14869609                0.11435632                1.42630203               -0.11473591                0.14064653
               7.88126548                2.99647069               76.09084777                0.01000000               -0.48958959               -0.06202041                0.08730903                0.87606869               -0.05350309                0.09418077
               8.88090012                2.99896178               76.09459790                0.77987400               -0.03765704               -0.03846141                0.13535450               -0.00220189                0.04849867                0.02800487
               9.88051234                3.00150622               76.09747868                0.99999999               -0.03877795               -0.03555649                0.12107064               -0.00081556                0.00784508                0.02197719
              -0.08162262                3.98016854               76.07252819                0.02288143               -0.04251704                0.34558471                0.11724323                0.20530285               -0.23446222                0.34541998
               0.91795221                3.96858485               76.07221935                0.01000001                0.02787071               -0.22538479                0.03350780                0.66408669                0.05554364               -0.08926207
               1.91893480                3.96621372               76.07643252                0.01000000               -0.00378254               -0.18807397                0.06634778                1.15271445                0.22998665                0.05423583
               2.91787656                3.96700276               76.08026243                0.01000574               -0.15981049               -0.17481735                0.07852001                1.45274020                0.13964186                0.11424604
               3.91573859                3.97093040               76.08418975                0.01000000               -0.26912666               -0.16910129                0.09700529                1.75373633                0.09849875                0.13704836
               4.91249403                3.97718181               76.08788900                0.01000001               -0.38443863               -0.14956885                0.11295506                1.96673723                0.06509369                0.13907035
               5.90804981                3.98437960               76.09129495                0.01000000               -0.53867359               -0.11100350                0.11941093                2.06250120                0.02548351                0.14035802
               6.90172056                3.99132785               76.09420423                0.01000001               -0.72192101               -0.02747023                0.11671089                1.96628274               -0.00812628                0.15051256
               7.89361139                3.99555729               76.09692701                0.01000000               -1.16941399               -0.01984574                0.12297359                1.95390043               -0.06871460                0.22713134
               8.87833228                3.99855598               76.09867182                0.01000000               -0.78257783               -0.15368332                0.13888921                1.71659339               -0.05792264                0.15211306
               9.87795984                4.00113986               76.10144767                0.01000000               -0.03724391               -1.01093347                0.12391465                1.76043490                0.00088358                0.15815084
              -0.06563163                4.98329346               76.07795494                0.01000006               -0.03708163               -0.11284708                0.04873051               -0.07591131                0.04618344               -0.15152717
               0.93399756                4.96697808               76.07652116                0.01000000               -0.09309622               -0.13520672                0.22401166                0.57156248                0.31801706               -0.13451051
               1.93250645                4.96405344               76.07965649                0.01000001               -0.13683519               -0.24424063                0.06206721                1.30230550                0.21785246                0.08562737
               2.93126085                4.96478168               76.08354266                0.01000000               -0.15566427               -0.27062865                0.08339085                1.61173202                0.14037439                0.12965231
               3.92939316                4.96876946               76.08759276                0.01000001               -0.21626870               -0.28401692                0.09839252                1.95266220                0.10550385                0.13375625
               4.92693548                4.97534552               76.09152748                0.01000000               -0.29816339               -0.23811885                0.11000062                2.24703701                0.08311731                0.13223921
               5.92342990                4.98331110               76.09529032                0.01000001               -0.40478057               -0.15106980                0.11588910                2.41287560                0.06359477                0.13760661
               6.91883987                4.99072755               76.09880893                0.01000000               -0.51572686               -0.08814492                0.11975611                2.46504379                0.03490161                0.16192154
               7.91311536                4.99607377               76.10197454                0.01000000               -0.45952272               -0.06642889                0.12391764                2.36757900                0.01103263                0.18944161
               8.90964941                4.99588812               76.10500933                0.01000002               -0.12810442               -0.36689729                0.12903282                2.07801701               -0.00322812                0.26229997
               9.91055327                4.98128755               76.10801116                0.01000365                0.09038562               -1.23315393                0.12977118                1.37519776               -0.01842462                0.29964708
              -0.05051007                5.97791160               76.07810946                0.01000000               -0.08664378               -0.56975819                0.09203735                0.40388788                0.25797268               -0.47568300
               0.94862349                5.96588072               76.08026622                0.01000001               -0.11563129               -0.18985953                0.18893103                0.78011624                0.26267758               -0.09400460
               1.94717730                5.96132891               76.08275405                0.01000001               -0.16141550               -0.26859100                0.08138462                1.20512621                0.08519214                0.12381776
               2.94539518                5.96159019               76.08666296                0.01000001               -0.14746531               -0.39481368                0.09009541                1.59222282                0.09174805                0.11083197
               3.94422799                5.96525006               76.09077531                0.01000000               -0.12510258               -0.44315388                0.10166723                2.00398486                0.08987697                0.10432599
               4.94289313                5.97241943               76.09496038                0.01000001               -0.16513466               -0.36690805                0.10963246                2.39318244                0.09448077                0.10696911
               5.94092530                5.98135820               76.09912797                0.01002723               -0.23171842               -0.23343382                0.11433192                2.58255921                0.09170150                0.12158990
               6.93825876                5.98956495               76.10315657                0.01000000               -0.25614494               -0.14132192                0.11844808                2.54167587                0.07790730                0.15155971
               7.93580240                5.99422871               76.10697568                0.01000000               -0.17899606               -0.16058072                0.12180660                2.22214192                0.05326091                0.19709998
               8.93467884                5.99121803               76.11053389                0.01000001               -0.05687402               -0.28775987                0.12507890                1.38141433                0.02335878                0.24296376
               9.93466492                5.97647678               76.11390625                0.01000000               -0.00139155               -0.20123470                0.12888388                0.68020452                0.00438169                0.27842554
              -0.03349211                6.97189830               76.07675836                0.96096303               -0.03253229               -0.31669477                0.10177391                0.41528697               -0.00834436               -0.11299187
               0.96618257                6.96318089               76.08134897                0.01000528               -0.28041946               -0.15044094                0.11028257                0.65340154               -0.03630293               -0.03647243
               1.96089950                6.95868162               76.08536486                0.01000001               -0.34992049               -0.35529333                0.11026413                1.05545997                0.00092988                0.03223053
               2.95918416                6.95688541               76.08917651                0.01000000               -0.11279415               -0.50105393                0.10419638                1.32181441                0.03722461                0.04650175
               3.95864362                6.95990638               76.09347512                0.01000001               -0.02465830               -0.70629422                0.10875905                1.91980157                0.08342132                0.04770366
               4.95869099                6.96800736               76.09800239                0.01000001               -0.03540295               -0.49446291                0.11297101                2.42722753                0.11130952                0.06296286
               5.95793556                6.97864242               76.10264115                0.01000000               -0.09440598               -0.27044417                0.11560021                2.53245757                0.12770493                0.09349813
               6.95680287                6.98790111               76.10728063                0.01000002               -0.10152214               -0.16728355                0.11732714                2.37194907                0.12817288                0.13659463
               7.95590512                6.99286216               76.11175656                0.01000001               -0.08866208               -0.08512578                0.12134036                1.95623538                0.10452101                0.20558773
               8.95502963                6.99013292               76.11589200                0.01000000               -0.11326278                0.06802671                0.12896055                1.13626767                0.05658579                0.26597636
               9.95363986                6.97726286               76.11951330                0.01000003               -0.13897698                0.27379959                0.13946631                0.51260437                0.02282407                0.30048140
              -0.02476951                7.97157770               76.07806637                0.99999999               -0.03222867               -0.03245445                0.10597250                0.00123734               -0.01069072                0.01942272
               0.97490820                7.96287190               76.08235277                1.00000000               -0.03242562               -0.03187021                0.11019890                0.00310844               -0.01841556               -0.02253711
               1.97458198                7.95422305               76.08643450                0.01000000               -0.21507506               -0.24014995                0.11015270                0.55187924               -0.00817950               -0.03001542
               2.97060670                7.95156911               76.09087007                0.01000006               -0.15399502               -0.58269024                0.11651983                1.02941400                0.04783531               -0.03402498
               3.97150208                7.95112418               76.09547939                0.01000000                0.10474669               -1.16590386                0.12005703                1.74209170                0.09691091               -0.05288378
               4.97270164                7.96253017               76.10048146                0.01000000                0.00893140               -0.45287500                0.11788606                2.35280551                0.14688059                0.02012942
               5.97168070                7.97594932               76.10577680                0.01000000               -0.06118154               -0.21665381                0.11876097                2.19000843                0.17990168                0.05798593
               6.97147800                7.98621928               76.11107989                0.01000001                0.05072964               -0.17896274                0.11975623                1.92798475                0.20179876                0.10463121
               7.97269530                7.99252620               76.11651450                0.01008522                0.07627431               -0.10095842                0.12433201                1.69997822                0.18997876                0.18773760
               8.97300349                7.99257857               76.12137806                0.01000749               -0.10190828                0.26361320                0.13529998                1.27040084                0.11734269                0.37520991
               9.97065713                7.98195278               76.12543019                0.01000002               -0.23463591                0.81238444                0.15338216                0.78243118                0.06706834                0.34387519
              -0.01605576                8.97124921               76.07940477                0.99999999               -0.03448505               -0.03375940                0.11214737                0.00083314               -0.00051937                0.01819005
               0.98359939                8.96254348               76.08359218                0.99999999               -0.03521850               -0.03388749                0.11525119                0.00052384               -0.00186635               -0.00500185
               1.98323987                8.95387862               76.08775860                0.99958936               -0.03640448               -0.03545611                0.11965127                0.00018342               -0.00462821               -0.01169404
               2.98287130                8.94523161               76.09190572                0.99999995               -0.03577423               -0.33465380                0.12031026                0.18036092               -0.00183047               -0.03091547
               3.98252439                8.93658830               76.09612916                0.01000000               -0.09746695               -0.74296108                0.11689140                1.66811384                0.11956760               -0.06123941
               4.98092196                8.95894986               76.10261903                0.01000002               -0.22388847               -0.17971256                0.12615862                2.00683970                0.23973550               -0.00445713
               5.97804662                8.97430935               76.10853399                0.01000009               -0.10681394               -0.13016625                0.12499586                1.34025919                0.23489360                0.02225823
               6.97878569                8.98432185               76.11443250                0.01001002                0.27493877               -0.21554864                0.12758906                1.07825010                0.26586584                0.05423173
               7.98354540                8.99084299               76.12059329                0.01000001                0.61126922               -0.28636991                0.13255249                1.08240543                0.37748794                0.11710386
               8.99101107                8.99540518               76.12843575                1.00000000                0.34973372                0.11842408                0.14010567                1.13408209                0.23006047                0.24416121
               9.99054007                8.99351055               76.13152801                1.00000000               -0.04710009                0.54872919                0.17750900                0.90007128               -0.00743560                0.18133063
              -0.00734139                9.97090251               76.08073042                1.00000000               -0.03693335               -0.03466963                0.11991460                0.00059972                0.01531772                0.01606815
               0.99228927                9.96219415               76.08491454                1.00000000               -0.03805416               -0.03493342                0.12334855               -0.00044164                0.01768940               -0.00009551
               1.99189752                9.95351392               76.08917006                0.99999998               -0.03925201               -0.03646940                0.12698094               -0.00014082                0.02387230               -0.00580720
               2.99150423                9.94487604               76.09352756                0.99999999               -0.03757119               -0.03555706                0.12549785                0.00084459                0.02487976                0.00317703
               3.99114610                9.93626496               76.09782011                0.04590460               -0.81934233               -0.03233464                0.12008589                1.56516534                0.15300495               -0.00062403
               4.97511739                9.95893592               76.10466332                0.01000000               -0.90161020               -0.00139367                0.13441853                1.27359379                0.29652821               -0.01967887
               5.97311389                9.97334599               76.11104524                0.01000000                0.06959887               -0.09633556                0.13570116                0.65534681                0.28189248                0.00380873
               6.97650936                9.98190831               76.11722268                0.01000000                0.50730896               -0.24135437                0.14146874                0.44500810                0.30488844                0.02249313
               7.98326007                9.98679880               76.12382777                0.01000002                0.82541060               -0.40441908                0.15012932                0.62340490                0.35005673                0.07283054
               8.99301758                9.99494705               76.13075749                1.00000000                0.45938778               -0.04581348                0.16950184                0.50707842                0.19893652                0.00704510
               9.99244783                9.99292736               76.13384988                1.00000000               -0.05697454               -0.05831888                0.20693807               -0.01119303                0.00714655               -0.00721944
              -0.11085747               -0.02500435               77.06023173                1.00000000               -0.02404784               -0.02315938                0.08648335               -0.00157940               -0.00151847                0.00044442
               0.88890205               -0.02998437               77.06341123                0.99999405               -0.02292585               -0.02533290                0.08042846               -0.00219068                0.00023913               -0.00300802
               1.88868401               -0.03493397               77.06660222                0.01419772                0.12246304               -0.02114496                0.07733450                0.22719894                0.01382464                0.00018756
               2.89135131               -0.03529322               77.07002120                0.01000001                0.17046897                0.01005722                0.20177972                0.27233499               -0.08760919               -0.19785475
               3.89209339               -0.02994940               77.07358819                0.01000006                0.00742049                0.00295869                0.06599807                0.49019045                0.05376359               -0.00953976
               4.89149972               -0.02229131               77.07790682                0.01000003               -0.29816297               -0.00973299                0.01033096                0.50464035               -0.24730415                0.22724965
               5.88613013               -0.01100522               77.07842386                0.41845510               -0.26610224               -0.04754921                0.06399401                0.43665295               -0.16751165                0.00227288
               6.88617768               -0.00858394               77.07917841                1.00000000               -0.01394301               -0.04425856                0.13212189                0.00027858               -0.10575850               -0.01215022
               7.88585127               -0.00618386               77.08176405                0.99999999               -0.03066518               -0.03467365                0.10900763                0.00022225               -0.01133854               -0.00383883
               8.88556437               -0.00374190               77.08442181                1.00000000               -0.02811868               -0.03121359                0.09865683               -0.00016451               -0.00550103                0.00013851
               9.88528890               -0.00129600               77.08713364                1.00000000               -0.02754746               -0.02799670                0.08961164               -0.00296141               -0.00298732               -0.00159961
              -0.10589325                0.97476405               77.06235881                1.00000000               -0.02618008               -0.02228543                0.08785028                0.00076019               -0.00353069                0.00791069
               0.89384495                0.96976230               77.06551462                0.01000000               -0.02481622               -0.02662810                0.07963344                0.00383676               -0.00244235               -0.00540860
               1.89361043                0.96485458               77.06870541                0.01000000               -0.11312860                0.04186300                0.06719394                0.21434848                0.02902057                0.01419077
               2.89158238                0.96480735               77.07249617                0.01000000               -0.15580443                0.06393577                0.02819341                0.50911689                0.05981177               -0.18839747
               3.89049434                0.97008018               77.07557035                0.01000000               -0.22541727                0.01839258                0.06459637                0.69975485               -0.27395361                0.10566144
               4.88707403                0.97761136               77.07973433                0.01000000               -0.34256811               -0.01946902                0.17686715                0.84935139               -0.13676009                0.23201089
               5.88364298                0.98851929               77.08253689                0.01000001               -0.16521251               -0.25163435                0.08703682                0.70140143               -0.10303894               -0.05358349
               6.88376978                0.99097348               77.08277874                0.66542520               -0.01052501               -0.04066964                0.13656625                0.00631584               -0.13148480               -0.03099484
               7.88343248                0.99346940               77.08543808                1.00000000               -0.03254938               -0.03501891                0.11556021                0.00698651               -0.00459844               -0.00788301
               8.88311880                0.99594596               77.08816462                0.99999999               -0.03095479               -0.03215692                0.10747996                0.00172819                0.00055457                0.00155447
               9.88281338                0.99842404               77.09089251                0.99999703               -0.03054151               -0.02947389                0.09825765               -0.00142813                0.00126352                0.00058498
              -0.10083876                1.97454994               77.06458881                0.45753682               -0.02729808               -0.01009705                0.09275391                0.02388683               -0.00158384                0.08074211
               0.89888826                1.96948307               77.06762005                0.01000000               -0.06176521               -0.03197002                0.08540544                0.09649360                0.02185184                0.00105994
               1.89792593                1.96590329               77.07106571                0.01000001               -0.12901041                0.00765460                0.05554620                0.42467097                0.08354050                0.00336900
               2.89630805                1.96598549               77.07492543                0.01000000               -0.23207281                0.06037774                0.06813400                0.85973026                0.02713125                0.03742769
               3.89328448                1.97041845               77.07857453                0.01000000               -0.31302010               -0.00161504                0.09709532                1.12423960                0.01907940                0.13394230
               4.89004765                1.97731931               77.08205994                0.01000001               -0.32442148               -0.08163774                0.10652173                1.23206253                0.01802707                0.07137281
               5.88679605                1.98396209               77.08513419                0.01000001               -0.43468829               -0.29139095                0.12684996                1.15571666               -0.09243121               -0.02148147
               6.88135388                1.99060267               77.08603843                0.01000001               -0.28887651               -0.14899392                0.08765719                0.65647784               -0.07895650                0.04065345
               7.88101852                1.99311576               77.08902285                0.28026851               -0.03547884               -0.03092851                0.12103554               -0.00567470                0.02523382               -0.06514681
               8.88064430                1.99561496               77.09194372                0.99999997               -0.03571628               -0.03476835                0.11903171                0.00109220                0.01431788                0.01442169
               9.88030419                1.99811452               77.09470831                0.99999998               -0.03401122               -0.03258156                0.10697756               -0.00219657                0.00758792                0.00931765
              -0.09528177                2.97456211               77.06799037                0.12274256               -0.02967599                0.16629618                0.09269013                0.36277795               -0.00189815                0.25158194
               0.90442147                2.96912290               77.07002718                0.01000000                0.04415965               -0.27530419                0.07030960                0.47905904                0.09942379               -0.00727894
               1.90560142                2.96500768               77.07385382                0.01000000               -0.00798204               -0.13584290                0.07637924                0.83313690                0.15339601                0.05949691
               2.90426183                2.96601491               77.07788374                0.01000000               -0.19780545               -0.05833592                0.08737418                1.21609960                0.12494797                0.09534316
               3.90164531                2.97004788               77.08180568                0.01000946               -0.30450937               -0.08116747                0.10950032                1.48329753                0.08521424                0.11422548
               4.89817164                2.97597861               77.08548143                0.01000000               -0.40856799               -0.12584462                0.12657487                1.61110764                0.04683875                0.10202053
               5.89347395                2.98269147               77.08853968                0.01000000               -0.52129833               -0.11603345                0.13014321                1.51920918               -0.00728046                0.07152735
               6.88774567                2.98799360               77.09094116                0.01000000               -0.75836302               -0.11847144                0.12285903                1.38164695               -0.13615385                0.13154104
               7.87830669                2.99285083               77.09155713                0.01001330               -0.48018991               -0.04558737                0.05660842                0.85008514               -0.04718988                0.09634223
               8.87814188                2.99525060               77.09595833                0.84855467               -0.02681857               -0.03807677                0.13470055               -0.00497582                0.08889223                0.03203158
               9.87777032                2.99777240               77.09866232                0.99999998               -0.03715546               -0.03503924                0.11541394               -0.00126337                0.00528416                0.01956614
              -0.08270478                3.97787586               77.07256981                0.09495684                0.07286554               -0.05327879               -0.02189969                0.29727485               -0.05438989                0.10578095
               0.91802387                3.96397698               77.07330269                0.01004323                0.02007238               -0.41924235                0.13215239                0.99705879                0.15585106                0.19170676
               1.91769667                3.96318643               77.07727371                0.01000000               -0.12170213               -0.17029697                0.10451482                1.36460116                0.21028877                0.07434995
               2.91558983                3.96481878               77.08119843                0.01000001               -0.23549710               -0.15994885                0.10665278                1.50975679                0.14819495                0.11867627
               3.91298672                3.96879510               77.08523923                0.01000000               -0.29818089               -0.16709205                0.11213514                1.74332620                0.11258295                0.12057099
               4.90962621                3.97480242               77.08906986                0.01000000               -0.39107420               -0.14802327                0.12187711                1.93099584                0.07658463                0.10779693
               5.90516524                3.98164142               77.09252486                0.01000000               -0.53993783               -0.10197919                0.12704971                2.01936091                0.03127256                0.10830619
               6.89882746                3.98823324               77.09540223                0.01000001               -0.72010090               -0.01143906                0.12415067                1.93333313               -0.00245994                0.13157792
               7.89076322                3.99220401               77.09814067                0.01000007               -1.16021213                0.00021853                0.12650081                1.92199157               -0.04253239                0.23824239
               8.87562321                3.99485342               77.10008852                0.01000000               -0.77639574               -0.13831184                0.13686891                1.68411045               -0.03372052                0.14066276
               9.87523531                3.99741374               77.10268522                0.01000000               -0.03879070               -0.98920500                0.11962045                1.73794113               -0.00153992                0.15094259
              -0.06153852                4.97349654               77.07473996                0.24465689                0.05905913               -0.30242516               -0.14444529                0.42486397                0.50542590               -0.26825550
               0.93905207                4.96073805               77.08075514                0.01000000               -0.32049131               -0.14186657                0.17068792                1.06964540                0.23868667                0.09792493
               1.93205165                4.96160174               77.08051666                0.01000001               -0.51018865               -0.16096022                0.14387804                1.48775479                0.03471679                0.09551251
               2.92884830                4.96281593               77.08459148                0.01000000               -0.27617312               -0.25014019                0.11318936                1.59956255                0.14692457                0.12558609
               3.92652819                4.96670604               77.08864464                0.01000000               -0.24515328               -0.27572319                0.11313506                1.91291743                0.11254640                0.11492800
               4.92394523                4.97301814               77.09267177                0.01000000               -0.30489209               -0.23225795                0.11779816                2.19949774                0.09173509                0.10563075
               5.92043035                4.98065189               77.09648037                0.01000000               -0.40477424               -0.14313194                0.12142832                2.36489391                0.06839454                0.10850122
               6.91584975                4.98776482               77.10003025                0.01000001               -0.51520050               -0.07399277                0.12395034                2.42210955                0.04023757                0.13732709
               7.91012634                4.99285520               77.10323385                0.01000000               -0.46176955               -0.05002350                0.12709957                2.32853840                0.01506578                0.16848948
               8.90661436                4.99248436               77.10626379                0.01000002               -0.13589130               -0.33626366                0.12476884                2.04668129                0.00129608                0.23827189
               9.90740851                4.97798830               77.10925735                0.01000000                0.07941566               -1.19709787                0.12274185                1.35429187               -0.01114240                0.29306739
              -0.04869054                5.97182736               77.07700510                0.39852708                0.00021196               -0.13564613               -0.02244854                0.09680717                0.37631192               -0.18916072
               0.95131158                5.96113965               77.08251196                0.01000001               -0.29677877                0.04901612                0.10607426                0.52755008                0.21940700               -0.22374511
               1.94537389                5.95996723               77.08384968                0.01000001               -0.44174035               -0.21856408                0.13216396                1.18369213                0.00605552                0.12545386
               2.94247678                5.95981597               77.08770731                0.01000000               -0.21655144               -0.37902307                0.11179072                1.50259211                0.09235424                0.10050974
               3.94104286                5.96328064               77.09184421                0.01000000               -0.14032248               -0.43610933                0.11175060                1.94508536                0.09618094                0.09150752
               4.93967033                5.97015726               77.09608528                0.01000000               -0.16632074               -0.36076912                0.11491377                2.33798461                0.09750555                0.08715813
               5.93771644                5.97877879               77.10028657                0.01000001               -0.23019973               -0.22565855                0.11762818                2.53577764                0.09007527                0.09636594
               6.93506633                5.98675339               77.10435180                0.01000000               -0.25509977               -0.12795573                0.11980266                2.50282480                0.07381025                0.12761298
               7.93261445                5.99120354               77.10819851                0.01000002               -0.18212965               -0.14124730                0.12195654                2.19149415                0.05065601                0.17296164
               8.93142374                5.98812815               77.11179304                0.01000001               -0.06505967               -0.26048969                0.12513381                1.36536077                0.02241357                0.22799115
               9.93131326                5.97347178               77.11519882                0.01000000               -0.01104831               -0.17675063                0.12796182                0.67346559                0.00437610                0.27676899
              -0.03822696                6.97078361               77.07776191                0.99931537               -0.03098334               -0.06947534                0.09969128                0.06898945               -0.01170096               -0.00221088
               0.96146320                6.96171838               77.08241057                0.01001184               -0.23619284                0.01707580                0.09722685                0.28304585               -0.03754730               -0.10771785
               1.95704918                6.95723045               77.08644769                0.01000001               -0.29382333               -0.36336279                0.10153885                0.91889693               -0.00176818                0.02149234
               2.95558674                6.95523547               77.09026098                0.01000000               -0.09802845               -0.49755905                0.10999765                1.24226990                0.03901331                0.04259129
               3.95508861                6.95798386               77.09458748                0.01000001               -0.01899795               -0.69984092                0.11276166                1.85872973                0.08503461                0.04273893
               4.95520678                6.96580276               77.09914300                0.01000001               -0.02694155               -0.49003599                0.11456892                2.37372468                0.10873632                0.04978879
               5.95454978                6.97613871               77.10380090                0.01000000               -0.08626444               -0.26423555                0.11600057                2.49033037                0.12245660                0.07307116
               6.95348149                6.98520570               77.10845638                0.01000002               -0.09841607               -0.15853623                0.11833296                2.34308880                0.12007502                0.11503758
               7.95258146                6.99003026               77.11296871                0.01000001               -0.09140772               -0.06820026                0.12155162                1.93841438                0.09745385                0.18235795
               8.95165333                6.98727457               77.11718106                0.01000000               -0.11954461                0.08988940                0.12822452                1.12921599                0.05248291                0.25062477
               9.95019056                6.97445329               77.12090415                0.01000003               -0.14627682                0.29101054                0.13816766                0.51018653                0.02102769                0.30037214
              -0.02918027                7.97043785               77.07910707                0.99999999               -0.02940677               -0.03578211                0.10317700                0.00259043               -0.00707345                0.02012358
               0.97052566                7.96148117               77.08342805                0.99999683               -0.02924958               -0.02671160                0.10356494                0.00961124               -0.01653422               -0.02687064
               1.97023474                7.95269997               77.08750732                0.01000000               -0.19784439               -0.24342731                0.10471431                0.51841196               -0.00402313               -0.03180691
               2.96656877                7.94986479               77.09202253                0.01000003               -0.12922877               -0.58241644                0.11287390                0.98399724                0.05379294               -0.03603972
               3.96765016                7.94928382               77.09667588                0.01000007                0.12105950               -1.15713149                0.11709805                1.68744689                0.09372822               -0.06082026
               4.96898996                7.96035654               77.10165114                0.01000000                0.02349745               -0.45202215                0.11681300                2.30269372                0.13794156                0.01318331
               5.96812011                7.97349407               77.10696217                0.01000002               -0.04766980               -0.21569191                0.11800023                2.15488895                0.16809982                0.04441842
               6.96803657                7.98358266               77.11227469                0.01000001                0.05968824               -0.17583554                0.11992352                1.90883710                0.18597389                0.08811021
               7.96931387                7.98983954               77.11774400                0.01000009                0.07742286               -0.09048838                0.12353854                1.69646248                0.17158804                0.16419049
               8.96958502                7.98992594               77.12271310                0.01000001               -0.10771702                0.28677129                0.13507066                1.27286158                0.10824442                0.35831120
               9.96715953                7.97929199               77.12696220                0.01000002               -0.24254894                0.82566136                0.15351797                0.78634826                0.06555592                0.34631443
              -0.02026179                8.97006797               77.08053198                0.99999999               -0.03449056               -0.03689430                0.11335218                0.00105896                0.00022574                0.01749034
               0.97939330                8.96118414               77.08474126                0.99999999               -0.03522066               -0.03227695                0.11426317               -0.00013742                0.00019922               -0.00463796
               1.97903380                8.95236191               77.08894071                0.99878541               -0.03552336               -0.03442332                0.11591615               -0.00018484               -0.00501383               -0.00886667
               2.97868284                8.94358714               77.09303087                0.95927062               -0.03439998               -0.33108202                0.11524613                0.16711970               -0.00664216               -0.03228940
               3.97834580                8.93484123               77.09714913                0.01000000               -0.08162212               -0.73847841                0.11129081                1.62989411                0.12420421               -0.06538311
               4.97705039                8.95676232               77.10386629                0.01000002               -0.19621794               -0.18487964                0.12171118                1.97003378                0.23932147               -0.00716205
               5.97442144                8.97182488               77.10977810                0.01000001               -0.08688138               -0.13405239                0.12380736                1.31977951                0.22214199                0.01560588
               6.97531277                8.98168899               77.11570510                0.01000003                0.28729950               -0.21654169                0.12694406                1.07070385                0.24898897                0.04463340
               7.98016743                8.98822049               77.12190065                0.01000001                0.61726710               -0.28286450                0.13267184                1.09364680                0.35614051                0.10504103
               8.98765811                8.99300999               77.12984298                1.00000000                0.35089977                0.13113372                0.14137362                1.14848021                0.21690459                0.23323255
               9.98718542                8.99096652               77.13329998                1.00000000               -0.04726855                0.55474386                0.17688342                0.89968421               -0.00749594                0.17875733
              -0.01139144                9.96969997               77.08194708                1.00000000               -0.03795863               -0.03680056                0.12325132                0.00060156                0.01432275                0.01495343
               0.98822897                9.96083563               77.08615297                0.99999999               -0.03902580               -0.03485141                0.12443920               -0.00085582                0.01773887                0.00024789
               1.98782804                9.95201151               77.09043925                0.99999012               -0.03985639               -0.03503997                0.12518198               -0.00019915                0.02070038               -0.00452014
               2.98743185                9.94324315               77.09469925                0.99999999               -0.03775908               -0.03439882                0.12016728                0.00003809                0.01538333               -0.00001788
               3.98707286                9.93451425               77.09887204                0.01384591               -0.80124296               -0.03269768                0.11492128                1.54349658                0.15659183               -0.00593200
               4.97140699                9.95665895               77.10598095                0.01000000               -0.87419193               -0.01033688                0.12846741                1.25059818                0.30144752               -0.01992219
               5.96958902                9.97081303               77.11239387                0.01000001                0.08240214               -0.10118495                0.13387435                0.64640262                0.27377074                0.00175170
               6.97305503                9.97925183               77.11862828                0.01000000                0.51383930               -0.24371649                0.14031334                0.44268741                0.29308688                0.01806894
               7.97986581                9.98418225               77.12533742                0.01000000                0.83767831               -0.40382411                0.15022279                0.63467765                0.33930808                0.07151804
               8.98980860                9.99254861               77.13245582                1.00000000                0.46871759               -0.04613770                0.17014451                0.52527996                0.19012588                0.00705988
               9.98924016                9.99038687               77.13591280                1.00000000               -0.05684342               -0.05796484                0.20564776               -0.01070044                0.00717220               -0.00715784
              -0.11399673               -0.02716356               78.06111071                1.00000000               -0.02189647               -0.02057942                0.08994806               -0.00214328                0.00410483               -0.00519973
               0.88578431               -0.03211527               78.06422787                1.00000000               -0.02060989               -0.02894109                0.08184890               -0.00244180                0.01003057               -0.00401364
               1.88559108               -0.03696401               78.06739860                0.22887350                0.03429692               -0.01992096                0.07958797                0.06080707                0.14092403                0.00500092
               2.88647025               -0.04055411               78.07294539                0.07683902                0.19656944               -0.01004278                0.12207351                0.57138498                0.00540947               -0.31016857
               3.88952247               -0.03214101               78.07415301                0.08685931               -0.07323185                0.14081424                0.05616516                0.17032053               -0.12223557               -0.01068671
               4.88500561               -0.01989110               78.07652155                0.21551927               -0.28283903                0.02277722               -0.04325116                0.37786135               -0.13045590                0.38850542
               5.88386569               -0.01527998               78.07911701                0.66949332               -0.07278387               -0.02566662                0.06787390                0.09348918               -0.01328035               -0.00570850
               6.88354993               -0.01237228               78.08051798                1.00000000               -0.03346991               -0.04278506                0.12711067                0.01765219               -0.06050255               -0.02105154
               7.88319629               -0.00992532               78.08284101                0.99999999               -0.03329060               -0.03352504                0.10698131               -0.00196692               -0.01201830               -0.00368850
               8.88288412               -0.00752275               78.08540767                0.99999998               -0.02986223               -0.03162382                0.09926466               -0.00238680               -0.00296902                0.00077928
               9.88259904               -0.00511753               78.08803279                1.00000000               -0.02850794               -0.02910678                0.09165504               -0.00371620               -0.00198127               -0.00248195
              -0.10906646                0.97263064               78.06323080                1.00000000               -0.02734273               -0.01476682                0.08754643                0.00315679               -0.00776213                0.00301171
               0.89066012                0.96759532               78.06629790                0.01000000               -0.02574860               -0.03559847                0.07808812                0.01628334               -0.01162895               -0.00281294
               1.89041857                0.96283678               78.06933859                0.01000000               -0.04437586                0.01102261                0.06171058                0.07185654               -0.03199738                0.02168273
               2.88977260                0.95934546               78.07218339                0.01000000               -0.47622027                0.21933216                0.01713952                0.61822609               -0.02434626               -0.09745775
               3.88089417                0.96926713               78.07635324                0.01000000               -0.47094457                0.05293195                0.05365744                1.07564256               -0.03849299                0.07312883
               4.88035371                0.98033667               78.08192150                0.01000000                0.00735010               -0.24486864                0.07920266                0.86262432               -0.09417100                0.20930986
               5.88104117                0.98446336               78.08339057                0.01000001                0.03477085               -0.20236606                0.06471933                0.34773937               -0.14240646               -0.05137055
               6.88104912                0.98719987               78.08420338                0.47990349               -0.01446584               -0.03376481                0.13929861                0.01961922               -0.10495157               -0.07118361
               7.88075185                0.98973943               78.08659000                1.00000000               -0.02963804               -0.03494895                0.11553199                0.00695501               -0.00896825               -0.00621524
               8.88045636                0.99216101               78.08923747                0.99999999               -0.02975934               -0.03286587                0.10743724               -0.00097059                0.00383703                0.00410984
               9.88015666                0.99459140               78.09187401                1.00000000               -0.02996992               -0.03074644                0.09955667               -0.00253376                0.00330467               -0.00121543
              -0.10386295                1.97254110               78.06546958                0.54867828               -0.02332065                0.04008854                0.08258675                0.06565770               -0.00488233                0.06742849
               0.89590384                1.96717277               78.06846350                0.01000000               -0.04294873               -0.09688825                0.08412440                0.14706304                0.00493218               -0.00138208
               1.89527807                1.96325644               78.07155868                0.01000001               -0.17497103               -0.00199618                0.02993799                0.46613135                0.02272785                0.05328322
               2.89240442                1.96383253               78.07554529                0.01000000               -0.26169826                0.22832166                0.05309469                0.86792080                0.06606681                0.13024972
               3.89004411                1.96891763               78.07963714                0.01000000               -0.26712739               -0.07479182                0.13408086                1.45444542                0.02005114                0.12345495
               4.88706187                1.97521153               78.08321738                0.01000001               -0.30434146               -0.34846404                0.14690054                1.33270363                0.00812715               -0.00816459
               5.88395728                1.98067270               78.08633615                0.01000001               -0.41978159               -0.24461548                0.11149208                1.07101462               -0.11794607               -0.02098402
               6.87866624                1.98695242               78.08674119                0.01000000               -0.27915178               -0.13279474                0.05619104                0.63026272               -0.07472541                0.04423932
               7.87837424                1.98937571               78.09024824                0.05254031               -0.03267463               -0.02298573                0.12572179               -0.02899114                0.06139575               -0.10763100
               8.87801275                1.99181993               78.09313438                1.00000000               -0.03433237               -0.03517000                0.11731288                0.00041232                0.01964573                0.01935438
               9.87768759                1.99426754               78.09576665                1.00000000               -0.03251527               -0.03353775                0.10594146               -0.00257056                0.00823509                0.00565580
              -0.09701663                2.97343241               78.06866903                0.37942773               -0.00973296                0.14967330                0.03785045                0.20685331               -0.00402659                0.16756571
               0.90288604                2.96565756               78.07084807                0.01000000                0.00490336               -0.27408708                0.09363255                0.49129693                0.09811155                0.01238692
               1.90308143                2.96279685               78.07469120                0.01000000               -0.07081036               -0.11092770                0.09157134                0.91105490                0.11238711                0.14814575
               2.90146983                2.96391189               78.07882602                0.01000000               -0.22386765               -0.05819917                0.10282668                1.27224790                0.07605517                0.13356609
               3.89860408                2.96777129               78.08300224                0.01000000               -0.31085617               -0.12073808                0.11737282                1.47651024                0.06415760                0.10433729
               4.89525271                2.97336739               78.08681405                0.01000000               -0.39417569               -0.15320596                0.12836210                1.57389837                0.03651912                0.07140754
               5.89072057                2.97957105               78.08986220                0.01000000               -0.51506656               -0.10338373                0.12720310                1.47810981                0.00032393                0.04784044
               6.88495137                2.98454397               78.09224885                0.01000000               -0.77080248               -0.10410496                0.15251622                1.35489926               -0.13085704                0.13660933
               7.87530452                2.98927972               78.09197994                0.01000001               -0.46892972               -0.03651410                0.07823836                0.83069263               -0.00286592                0.08388728
               8.87557278                2.99145761               78.09729191                0.89250992               -0.00472360               -0.03780783                0.12964539               -0.01292533                0.14089614                0.03049384
               9.87521004                2.99392064               78.09978696                0.99999997               -0.03627352               -0.03519295                0.11156074               -0.00129389                0.00246796                0.01286442
              -0.08417618                3.97553457               78.07209019                0.36679641                0.05415158                0.00303233               -0.03154667                0.08880435                0.03101038                0.05156075
               0.91636534                3.96169102               78.07486240                0.01000000               -0.02894923               -0.29651264                0.12146016                0.78059414                0.06566032                0.21466661
               1.91524484                3.96103789               78.07852282                0.01000000               -0.17451986               -0.17045693                0.11868110                1.36302704                0.08472492                0.19909588
               2.91287494                3.96266855               78.08239548                0.01000000               -0.25630105               -0.15636860                0.11946266                1.50332582                0.10138333                0.14038384
               3.91011881                3.96650286               78.08643245                0.01000000               -0.30674266               -0.16541260                0.12220353                1.72192907                0.09834801                0.10052834
               4.90674009                3.97214741               78.09032654                0.01000000               -0.38879610               -0.14623360                0.12438266                1.88919515                0.07808410                0.07226669
               5.90234289                3.97860503               78.09383594                0.01000000               -0.53422671               -0.09258158                0.12990781                1.97208245                0.04161683                0.07123215
               6.89605555                3.98487032               78.09668724                0.01000000               -0.71342193               -0.00097252                0.13001328                1.89900821                0.01934124                0.09397234
               7.88807445                3.98864542               78.09945703                0.01000584               -1.14711168                0.00529996                0.14060777                1.90360393               -0.01627615                0.24236705
               8.87311332                3.99106378               78.10140919                0.01000000               -0.76694001               -0.12542848                0.13004161                1.64986534               -0.02399447                0.13035324
               9.87273565                3.99356368               78.10384008                0.01739880               -0.03776640               -0.96426748                0.11467949                1.70665257                0.00449847                0.14529731
              -0.06755346                4.97349306               78.07506604                0.49915915                0.05480617               -0.22140654                0.04596381                0.13235605               -0.03415939                0.16940370
               0.93299460                4.95972731               78.07993492                0.01000000               -0.15410431               -0.09703196               -0.04502589                0.78481883               -0.16007669                0.21087212
               1.92936445                4.95938772               78.08253405                0.01000001               -0.34616154               -0.15654643                0.13803857                1.39577199               -0.04896740                0.14408229
               2.92607137                4.96078452               78.08580645                0.01000000               -0.29003236               -0.23688343                0.12401485                1.57240602                0.05979042                0.11880312
               3.92356380                4.96446304               78.08985546                0.01000000               -0.25684601               -0.26827473                0.12014097                1.86565157                0.09730465                0.09558114
               4.92093445                4.97044272               78.09388344                0.01000000               -0.30622509               -0.22280225                0.12061711                2.14585799                0.08892327                0.07679591
               5.91743930                4.97771941               78.09771889                0.01000007               -0.40216529               -0.13200159                0.12223905                2.30995971                0.07124601                0.07477888
               6.91289114                4.98452452               78.10128794                0.01000001               -0.51280801               -0.05896194                0.12562959                2.37168879                0.04548631                0.10235040
               7.90718314                4.98938572               78.10451653                0.01000000               -0.46196539               -0.03461706                0.12543758                2.28621755                0.01718901                0.13883684
               8.90365183                4.98894904               78.10750470                0.01000002               -0.14199242               -0.31015934                0.12267538                2.01315264                0.00372971                0.22149547
               9.90434329                4.97463529               78.11046599                0.01000002                0.06914590               -1.15991579                0.11912886                1.32888595               -0.00682928                0.29378907
              -0.05399755                5.97110643               78.07766048                0.70980854                0.01646080               -0.18704697                0.06441785                0.09089569               -0.00574107                0.05729224
               0.94616706                5.95975038               78.08238771                0.01000001               -0.19496936                0.01915663               -0.00832045                0.52758857               -0.09236670                0.01985836
               1.94210306                5.95790696               78.08539733                0.01000001               -0.34596606               -0.19669502                0.11355014                1.09148864               -0.04921837                0.04464314
               2.93924773                5.95793088               78.08889877                0.01000000               -0.21647056               -0.36812515                0.11623347                1.44918392                0.03796235                0.08064487
               3.93777365                5.96113737               78.09301033                0.01000000               -0.14234313               -0.42667775                0.11584119                1.88294869                0.08242774                0.07063265
               4.93640087                5.96769136               78.09725866                0.01000000               -0.16566825               -0.35027244                0.11665934                2.27727409                0.09262019                0.06371244
               5.93446028                5.97596499               78.10148053                0.01000000               -0.22889243               -0.21455819                0.11832448                2.48158642                0.08859193                0.07156732
               6.93182302                5.98369108               78.10555263                0.01000000               -0.25430002               -0.11227752                0.11900228                2.45667511                0.07301713                0.09657925
               7.92937428                5.98795308               78.10941481                0.01000002               -0.18481133               -0.12109463                0.12108264                2.15579443                0.04823226                0.14811865
               8.92812680                5.98486059               78.11303657                0.01000001               -0.07167069               -0.23618453                0.12391425                1.34521473                0.02077980                0.21218847
               9.92794087                5.97036536               78.11646549                0.01000000               -0.01859266               -0.15641852                0.12641584                0.66402359                0.00432666                0.27483674
              -0.04302345                6.96975212               78.07875219                0.99999999               -0.02307045               -0.09481618                0.09728409                0.05806167               -0.00998186                0.00197172
               0.95674585                6.96011044               78.08329351                0.01000001               -0.19814112                0.01267089                0.07656393                0.28559504               -0.02643418               -0.06113407
               1.95301373                6.95545382               78.08739563                0.01000001               -0.24606065               -0.34065335                0.08767488                0.85577782               -0.00253169               -0.02249779
               2.95182463                6.95342202               78.09137646                0.01000000               -0.07757172               -0.49262260                0.10747598                1.18709703                0.03395252                0.02135075
               3.95146229                6.95592949               78.09573036                0.01000000               -0.00861646               -0.68956206                0.11312913                1.79948153                0.07768956                0.02749116
               4.95165230                6.96343727               78.10029377                0.01000001               -0.01954927               -0.48104049                0.11465963                2.31360357                0.10023531                0.03303875
               5.95107131                6.97342825               78.10496116                0.01000000               -0.08078744               -0.25522542                0.11571693                2.44002867                0.11062624                0.05577536
               6.95003655                6.98227897               78.10964729                0.01000002               -0.09708929               -0.14791558                0.11829269                2.30640994                0.10818701                0.09044275
               7.94912952                6.98696383               78.11418759                0.01000001               -0.09463531               -0.05375038                0.12144432                1.91303706                0.08806665                0.16126552
               8.94814385                6.98422535               78.11845649                0.01000001               -0.12576523                0.11111376                0.12706037                1.11832397                0.04734891                0.23661127
               9.94661422                6.97150692               78.12227666                0.01000000               -0.15296310                0.30589390                0.13682311                0.50461603                0.01941073                0.29988602
              -0.03355296                7.96921011               78.08012991                1.00000000               -0.02697830               -0.04965596                0.10449604                0.00705136               -0.00397981                0.01098500
               0.96617726                7.96000380               78.08442407                1.00000000               -0.02700030               -0.01923149                0.09813990                0.01662910               -0.01148393               -0.02502319
               1.96590704                7.95109389               78.08852878                0.01000000               -0.18316278               -0.23422277                0.09954213                0.49554392                0.00551609               -0.03070749
               2.96251400                7.94807843               78.09312755                0.01000001               -0.10795042               -0.57564582                0.10845629                0.94788227                0.05926111               -0.04205954
               3.96374803                7.94734613               78.09782135                0.01000005                0.13300868               -1.14225036                0.11381252                1.63514445                0.09113097               -0.06875972
               4.96517418                7.95807055               78.10281772                0.01000000                0.03355638               -0.44802282                0.11625642                2.24707402                0.12923443                0.00296234
               5.96441916                7.97086049               78.10813681                0.01000002               -0.03792659               -0.21192424                0.11725401                2.11207803                0.15687274                0.03115219
               6.96441565                7.98073277               78.11347836                0.01000001                0.06347438               -0.17090225                0.12027574                1.88119739                0.17246400                0.07059172
               7.96568864                7.98687808               78.11898527                0.01000001                0.07672667               -0.08067160                0.12456637                1.68754465                0.15917219                0.14686816
               8.96595018                7.98708286               78.12407948                0.01005901               -0.11092985                0.30508811                0.13520076                1.27055733                0.10138487                0.34122882
               9.96347005                7.97648324               78.12850055                0.01000002               -0.24801326                0.83140870                0.15016502                0.78313477                0.06257407                0.34699435
              -0.02446980                8.96875900               78.08167182                0.99999998               -0.03355471               -0.04193704                0.11358034                0.00099302                0.00042312                0.01228613
               0.97519465                8.95972581               78.08587744                0.99999999               -0.03401069               -0.03140590                0.11261588               -0.00075075                0.00102916               -0.00396561
               1.97484998                8.95076936               78.09007693                0.99999998               -0.03323039               -0.03337264                0.11227474                0.00207542               -0.00161747               -0.00637617
               2.97453004                8.94190910               78.09421064                0.96533538               -0.03384619               -0.32697477                0.11798703                0.15901089               -0.00246424               -0.03126484
               3.97417306                8.93308448               78.09835497                0.01000000               -0.07253070               -0.73228212                0.12198977                1.59079579                0.12546797               -0.06402183
               4.97307943                8.95447681               78.10505325                0.01000002               -0.17612039               -0.18811953                0.11875146                1.92778108                0.23337724               -0.01265752
               5.97065065                8.96918977               78.11101014                0.01000001               -0.07182563               -0.13555015                0.12263937                1.29534662                0.21248991                0.00836968
               6.97164291                8.97886093               78.11697138                0.01000002                0.29398361               -0.21547242                0.12670913                1.05862645                0.23555780                0.03560403
               7.97653032                8.98535039               78.12324672                0.01000001                0.61534585               -0.27612304                0.13439804                1.09981198                0.33790947                0.09499060
               8.98394983                8.99032711               78.13126322                0.99999871                0.34729197                0.13898521                0.14265810                1.15396176                0.20332704                0.22170225
               9.98347616                8.98813510               78.13506568                1.00000000               -0.04736693                0.55376597                0.17625718                0.89116200               -0.00747829                0.17591910
              -0.01546671                9.96837137               78.08319545                1.00000000               -0.03814017               -0.03876305                0.12529813                0.00074059                0.01135945                0.01021718
               0.98415189                9.95937568               78.08740333                0.99999999               -0.03840170               -0.03501249                0.12494304               -0.00152288                0.01459852               -0.00019630
               1.98376525                9.95042644               78.09167370                0.99999999               -0.03863908               -0.03429225                0.12260370               -0.00031047                0.01775761               -0.00326620
               2.98337910                9.94153893               78.09593090                0.99999998               -0.03845097               -0.03701702                0.12313923               -0.00139121                0.01406848               -0.00006633
               3.98299623                9.93270049               78.10011854                0.01951454               -0.78772957               -0.03839926                0.12560046                1.52077908                0.15648353               -0.00411591
               4.96762451                9.95430816               78.10723266                0.01000000               -0.85271288               -0.01686515                0.12513983                1.22695848                0.30149158               -0.02081268
               5.96594198                9.96814948               78.11372272                0.01000001                0.09015172               -0.10402830                0.13212936                0.63489069                0.27013965               -0.00117893
               6.96942755                9.97642332               78.12002895                0.01000000                0.51383598               -0.24376030                0.13956080                0.43876989                0.28430945                0.01523797
               7.97621870                9.98135561               78.12683223                0.01000000                0.84085829               -0.39947801                0.14955023                0.64079968                0.32943633                0.06690737
               8.98624471                9.98986257               78.13416038                0.99999369                0.47293121               -0.04645451                0.17076914                0.53963545                0.18334312                0.00705735
               9.98567732                9.98755856               78.13796283                1.00000000               -0.05673928               -0.05765375                0.20436891               -0.01028503                0.00716358               -0.00716641
              -0.11700969               -0.02934853               79.06203069                0.99999890               -0.01755338               -0.01860500                0.09377851               -0.00291594                0.00772754               -0.00825109
               0.88281477               -0.03420470               79.06504821                1.00000000               -0.01026668               -0.03248804                0.08106499                0.00071228                0.01784234               -0.00266298
               1.88278497               -0.03871392               79.06819398                0.46564002                0.09451621               -0.01579239                0.06936012                0.14160676                0.09620556                0.00362992
               2.88470510               -0.03997259               79.07246267                0.37281782                0.16437754                0.02308909               -0.05021059                0.14508537                0.08695979                0.00421575
               3.88607252               -0.03456361               79.07471150                0.33886542               -0.03892462                0.06222397                0.02828517                0.12396011               -0.10392400               -0.05188876
               4.88392660               -0.02532109               79.07704179                0.49331946               -0.21022124                0.04228294                0.05687069                0.16752233                0.06976681               -0.03816159
               5.88186810               -0.01966652               79.07978134                0.92775137               -0.13414917               -0.00607438                0.06501892                0.11175273                0.01111673               -0.00842202
               6.88124362               -0.01637577               79.08172063                1.00000000               -0.05734438               -0.02976382                0.11096276                0.01831703               -0.03029852               -0.01306457
               7.88072121               -0.01375560               79.08390367                1.00000000               -0.04652034               -0.03065287                0.10731039               -0.00072533               -0.01411867               -0.00223943
               8.88031321               -0.01138591               79.08640710                0.99999999               -0.03610890               -0.03126452                0.10084081               -0.00379205               -0.00312526                0.00058727
               9.87999903               -0.00902807               79.08896674                1.00000000               -0.03141804               -0.03060594                0.09613847               -0.00348010               -0.00304284               -0.00415606
              -0.11218268                0.97046542               79.06410973                1.00000000               -0.03127267               -0.00955919                0.08921385                0.00477284               -0.00871570               -0.00449088
               0.88750459                0.96547042               79.06707639                0.01000000               -0.03661640               -0.04450209                0.07818100                0.03728818               -0.01794325                0.00549963
               1.88708499                0.96112816               79.06993962                0.01000000               -0.17118961                0.01651302                0.06349878                0.16507982               -0.04072084                0.00753305
               2.88408080                0.96025830               79.07283896                0.01000000               -0.35493063                0.09602295                0.08425480                0.48881503               -0.10231833                0.15851120
               3.87998638                0.96605863               79.07664350                0.01000000               -0.29637564                0.04010803                0.05606005                0.73921649                0.26177948                0.03720584
               4.87815328                0.97510173               79.08131838                0.01000000               -0.07367045               -0.12077206               -0.03202157                0.68993378                0.12192979               -0.06059759
               5.87851297                0.98027273               79.08383128                0.01000001                0.01590228               -0.16313436                0.03545791                0.36350304               -0.03797399               -0.02551184
               6.87847133                0.98332659               79.08556471                0.21183105               -0.01469708               -0.00911176                0.11525175                0.01844010               -0.05777902               -0.11531089
               7.87821902                0.98593787               79.08774872                0.99999999               -0.02799015               -0.03356013                0.11426676                0.00534455               -0.01278607               -0.00197287
               8.87791153                0.98830145               79.09031336                0.99999999               -0.03063152               -0.03332450                0.10748225               -0.00331999                0.00514101                0.00477286
               9.87760639                0.99066587               79.09288364                0.99999729               -0.03051328               -0.03286204                0.10277916               -0.00329084                0.00440063               -0.00397774
              -0.10692424                1.97046029               79.06624055                0.58037728               -0.01779642                0.04136982                0.07714385                0.06761215               -0.00224658                0.02066191
               0.89289780                1.96490526               79.06930254                0.01000000               -0.08885345               -0.12493424                0.08101631                0.20064958               -0.03365343                0.02742875
               1.89129869                1.96161634               79.07166447                0.01000001               -0.16734354               -0.00608507                0.06058591                0.49144171               -0.14650905                0.13222686
               2.88955093                1.96194787               79.07598732                0.01000000               -0.26426385                0.07888694                0.11556897                0.90066502               -0.36119592                0.16320598
               3.88601342                1.96623855               79.08125614                0.01000000               -0.30198750               -0.03596545                0.04534690                1.26348255               -0.22022463                0.09278421
               4.88351118                1.97226346               79.08499795                0.01000001               -0.25500544               -0.24020715                0.11903079                1.23605110               -0.06900863                0.00298566
               5.88091331                1.97707079               79.08736403                0.01000001               -0.37819459               -0.20621226                0.09413839                1.03556000               -0.16994337               -0.00326995
               6.87594729                1.98344199               79.08716225                0.01000001               -0.25300324               -0.12734264                0.05404780                0.65209341               -0.05729206                0.05917674
               7.87585324                1.98557320               79.09153729                0.01000119               -0.02142367               -0.03090408                0.12569418               -0.02535520                0.11000730               -0.11309231
               8.87551881                1.98794760               79.09428998                0.99999997               -0.03244372               -0.03578934                0.11464330               -0.00086246                0.01952904                0.02263463
               9.87520437                1.99031469               79.09682714                1.00000000               -0.03144437               -0.03548077                0.10795842               -0.00213144                0.00912224                0.00245156
              -0.09972039                2.97129282               79.06874738                0.38152733                0.00819115                0.10248901                0.01735967                0.13265444               -0.00071561                0.05397520
               0.90036152                2.96297174               79.07189983                0.01000000               -0.02041983               -0.28608954                0.09446964                0.48601492                0.03752535                0.10762461
               1.89987122                2.96100646               79.07568525                0.01000000               -0.14448169               -0.11454189                0.11807522                0.97118435                0.03379473                0.25480119
               2.89747189                2.96183604               79.07994027                0.01000000               -0.24653944               -0.06509221                0.10607994                1.22449001                0.06131206                0.18602106
               3.89494043                2.96533932               79.08415314                0.01000000               -0.27149113               -0.11430479                0.11083171                1.47353828                0.03966541                0.02998558
               4.89204207                2.97029759               79.08804867                0.01000000               -0.34473935               -0.15425491                0.10404806                1.55411959                0.01629871               -0.00602522
               5.88804564                2.97614849               79.09108374                0.01000000               -0.45156384               -0.09307048                0.10913923                1.46028554                0.03476394                0.03118325
               6.88301079                2.98077973               79.09399149                0.01000000               -0.74196662               -0.11841982                0.14255261                1.34086068               -0.05345384                0.16198159
               7.87320631                2.98531979               79.09312190                0.01000000               -0.49290040               -0.05292175                0.21337482                0.83342162                0.31435302               -0.07297483
               8.87315278                2.98758566               79.09855124                1.00000000               -0.01883589               -0.03499527                0.11833644               -0.00610358                0.15289599                0.03132941
               9.87282959                2.98995626               79.10089353                0.99999997               -0.03231927               -0.03370204                0.10679157                0.00001635               -0.00040703                0.00914413
              -0.08762899                3.97251007               79.07193888                0.32893850                0.05334439                0.00107507               -0.01246047                0.05538626               -0.01217455                0.07550713
               0.91290446                3.95918347               79.07573189                0.01000009               -0.02564658               -0.27707749                0.07674180                0.74182200               -0.00707744                0.19322667
               1.91185808                3.95932550               79.07964733                0.01000000               -0.15982957               -0.16987950                0.10717322                1.33960560                0.03900340                0.20544793
               2.90970786                3.96064602               79.08358768                0.01000001               -0.24177271               -0.15736655                0.11888437                1.49388798                0.07056339                0.14625572
               3.90702263                3.96395245               79.08768330                0.01000000               -0.29617311               -0.16497646                0.11666609                1.69946043                0.08619020                0.08095022
               4.90378440                3.96917837               79.09155751                0.01000000               -0.36928752               -0.13378227                0.11326834                1.85375623                0.07534255                0.04027653
               5.89963688                3.97520938               79.09512302                0.01000000               -0.50956023               -0.08228066                0.11724050                1.91501802                0.05494802                0.04263831
               6.89359320                3.98107359               79.09800250                0.01000000               -0.69605633                0.00833548                0.12765331                1.81282096                0.06700544                0.01698519
               7.88571575                3.98451476               79.10095282                0.01000001               -1.14164628                0.01771830                0.13034146                1.86105758               -0.02915934                0.20807795
               8.87076027                3.98724770               79.10268935                0.01000002               -0.76261224               -0.11493814                0.11469730                1.63562993               -0.02475842                0.12115554
               9.87046350                3.98964065               79.10497881                0.01000000               -0.02967679               -0.93587879                0.10347946                1.66528322                0.00412307                0.13954351
              -0.07195947                4.97131432               79.07565924                0.38996735                0.03419921               -0.16115074                0.04597980                0.08004587               -0.00538781                0.11919153
               0.92838253                4.95743019               79.07985462                0.01000000               -0.14198789               -0.05026199               -0.00621323                0.75587478               -0.05294916                0.11644145
               1.92520078                4.95760887               79.08327743                0.01000001               -0.28299123               -0.16634980                0.07294389                1.36394491               -0.04200082                0.13725968
               2.92272270                4.95868870               79.08707178                0.01000000               -0.24017424               -0.23935817                0.11327348                1.51730440                0.04079672                0.10705685
               3.92039729                4.96203979               79.09104746                0.01000000               -0.24312167               -0.25670331                0.11465800                1.81210710                0.07573980                0.07307635
               4.91786027                4.96762195               79.09508411                0.01000000               -0.29732589               -0.20785908                0.11428855                2.08656012                0.08268600                0.05230273
               5.91445077                4.97450287               79.09892515                0.01000392               -0.39492197               -0.11207608                0.11526871                2.24409685                0.07411557                0.04356832
               6.90996183                4.98094644               79.10254285                0.01000007               -0.50987085               -0.03739862                0.11910711                2.30852388                0.04407112                0.07162782
               7.90425336                4.98567415               79.10574260                0.01000000               -0.46111678               -0.00099507                0.11970904                2.23599297                0.02146174                0.10592548
               8.90073949                4.98528690               79.10871730                0.01000001               -0.14520028               -0.29137824                0.12229445                1.97964581                0.00409758                0.20324419
               9.90134935                4.97123868               79.11163993                0.01000000                0.06098577               -1.12413980                0.11958600                1.29910041               -0.00411171                0.29204792
              -0.05825981                5.96928705               79.07829346                0.75842197               -0.00127901               -0.14803484                0.06775942                0.11162903                0.01346730               -0.00109712
               0.94172740                5.95817823               79.08234555                0.01000001               -0.19308662                0.05145737                0.01328271                0.53100029               -0.01662962                0.04817443
               1.93787846                5.95599851               79.08612068                0.01000001               -0.30521867               -0.19799108                0.06721786                1.06977239               -0.02258879                0.05038696
               2.93562303                5.95585886               79.09003198                0.01000000               -0.17734667               -0.36275028                0.10382727                1.40141200                0.03254134                0.05470787
               3.93433153                5.95881839               79.09416103                0.01000000               -0.12852534               -0.41585671                0.11126994                1.82450643                0.06877152                0.05050821
               4.93305252                5.96502118               79.09841846                0.01001183               -0.15686058               -0.33587389                0.11275210                2.21349402                0.08426374                0.04247408
               5.93119431                5.97296786               79.10265306                0.01008729               -0.22300636               -0.19524628                0.11375127                2.41312233                0.08222567                0.05021501
               6.92859239                5.98032562               79.10673184                0.01000000               -0.25495801               -0.09288113                0.11616187                2.39919867                0.06950921                0.07191315
               7.92609515                5.98449486               79.11062016                0.01000002               -0.19018665               -0.09945212                0.11906315                2.11873707                0.04507399                0.12873764
               8.92478866                5.98142013               79.11427132                0.01000001               -0.07766036               -0.21615100                0.12231185                1.32173733                0.01997752                0.19934036
               9.92454195                5.96715785               79.11772714                0.01000000               -0.02467145               -0.14113643                0.12527815                0.65322716                0.00373551                0.27400787
              -0.04750924                6.96835362               79.07970760                0.99999999               -0.01996859               -0.07745623                0.09329105                0.03115233               -0.00557803               -0.02033078
               0.95229107                6.95845933               79.08394185                0.01000000               -0.17875826                0.01092719                0.06462788                0.27325656               -0.00450881               -0.01736680
               1.94891559                6.95364905               79.08820119                0.01000591               -0.21800058               -0.32969872                0.07947642                0.83687409                0.02051737               -0.01507253
               2.94793106                6.95143370               79.09241050                0.01000000               -0.05952510               -0.48347201                0.09992450                1.14560063                0.04272458                0.00474572
               3.94772509                6.95372266               79.09685006                0.01000000                0.00248081               -0.67671894                0.10970293                1.74609255                0.07391472                0.01251454
               4.94798068                6.96090447               79.10143619                0.01000007               -0.01581550               -0.46824387                0.11316204                2.25409805                0.09187008                0.01727162
               5.94740878                6.97059795               79.10611523                0.01000000               -0.07809393               -0.24498586                0.11476293                2.37934826                0.10041993                0.03919893
               6.94641880                6.97908882               79.11082224                0.01000002               -0.09375981               -0.13276075                0.11596113                2.25660773                0.09854860                0.07212966
               7.94553359                6.98368511               79.11539760                0.01000000               -0.09537775               -0.03885463                0.12035253                1.88380519                0.08019146                0.14302425
               8.94451124                6.98096388               79.11972226                0.01000001               -0.12975674                0.12618281                0.12656876                1.10198106                0.04337002                0.22188261
               9.94293845                6.96841595               79.12364062                0.01000000               -0.15727933                0.31425034                0.13568504                0.49655400                0.01967062                0.29651038
              -0.03784819                7.96773793               79.08119699                1.00000000               -0.02547048               -0.05527316                0.10515284                0.00811748               -0.00473971               -0.00843937
               0.96189711                7.95839677               79.08539085                1.00000000               -0.02551190               -0.01668783                0.09558985                0.01921557               -0.00828567               -0.01604990
               1.96164158                7.94940453               79.08949817                0.01000000               -0.17178394               -0.22797881                0.09590534                0.47726489                0.01758285               -0.02382635
               2.95846143                7.94618942               79.09419166                0.01000000               -0.09294838               -0.56376044                0.10563363                0.91519582                0.06856545               -0.04298166
               3.95978261                7.94528401               79.09895213                0.01000001                0.13988808               -1.12295278                0.11293569                1.58771731                0.09088874               -0.07312672
               4.96125919                7.95565631               79.10397627                0.01000000                0.04071594               -0.44051208                0.11516053                2.19331123                0.12241314               -0.00772552
               5.96059693                7.96806814               79.10930725                0.01000002               -0.03109031               -0.20957971                0.11722637                2.06792123                0.14665265                0.01871450
               6.96063739                7.97767041               79.11468020                0.01000000                0.06496375               -0.16191690                0.11994991                1.85090831                0.16041736                0.05657975
               7.96189620                7.98371777               79.12023533                0.01000001                0.07300286               -0.07058845                0.12501714                1.66867856                0.14781665                0.13276513
               8.96209744                7.98394379               79.12541712                0.01000007               -0.11636613                0.31996285                0.13435828                1.25597730                0.09067782                0.32265360
               9.95956888                7.97344286               79.12996550                0.01000002               -0.25285633                0.83033319                0.14878019                0.77453181                0.05467839                0.34594559
              -0.02866458                8.96724816               79.08280358                0.99999999               -0.03266405               -0.04404423                0.11185917                0.00115101                0.00016198               -0.00001048
               0.97100878                8.95812558               79.08699358                0.99999999               -0.03335854               -0.03084182                0.11054020               -0.00065513                0.00106894               -0.00481623
               1.97066825                8.94908947               79.09118620                0.99999999               -0.03266366               -0.03259499                0.11035240                0.00234788                0.00220281               -0.00293103
               2.97035550                8.94015849               79.09539062                0.99999999               -0.03278491               -0.31940590                0.11602805                0.14905406                0.00280380               -0.02885085
               3.97001255                8.93126360               79.09958892                0.01000002               -0.06463663               -0.71896032                0.11925378                1.55269510                0.12607602               -0.06059444
               4.96906277                8.95209423               79.10624132                0.01000632               -0.16297208               -0.18862218                0.11937546                1.88580973                0.22701249               -0.01734522
               5.96675311                8.96640635               79.11223088                0.01000001               -0.06377162               -0.13519291                0.12230832                1.26774308                0.20467415                0.00111608
               6.96778734                8.97585048               79.11823928                0.01000001                0.29403338               -0.21144834                0.12714510                1.04306608                0.22358478                0.02795584
               7.97263378                8.98227334               79.12458861                0.01000002                0.60591790               -0.26841877                0.13451803                1.09697797                0.32116100                0.08657184
               8.97990570                8.98736314               79.13269615                1.00000000                0.33985848                0.14758267                0.14391957                1.14983423                0.19155887                0.21256946
               9.97943094                8.98502262               79.13682512                0.99999999               -0.04747525                0.55031860                0.17563277                0.87643065               -0.00747500                0.17675300
              -0.01958000                9.96685704               79.08445305                1.00000000               -0.03773008               -0.03911151                0.12432051                0.00074707                0.00594082                0.00284096
               0.98004269                9.95777994               79.08865183                1.00000000               -0.03821878               -0.03456407                0.12375975               -0.00182870                0.00872021               -0.00129544
               1.97965562                9.94875263               79.09289132                1.00000000               -0.03871577               -0.03368343                0.12137265               -0.00019461                0.01249036               -0.00154072
               2.97926838                9.93980130               79.09716203                0.99999998               -0.03774231               -0.03571909                0.12073943               -0.00110413                0.01168019                0.00079726
               3.97890077                9.93090480               79.10138405                0.05635447               -0.77178728               -0.03587985                0.12197577                1.49295062                0.15419293               -0.00097971
               4.96383263                9.95188386               79.10848375                0.01000000               -0.83526209               -0.02103634                0.12583858                1.19996014                0.30025249               -0.02036131
               5.96219553                9.96536428               79.11503645                0.01000003                0.08995421               -0.10420716                0.13098132                0.62212121                0.26712738               -0.00413456
               6.96563172                9.97344144               79.12141950                0.01000000                0.50637890               -0.24090439                0.13908152                0.43369329                0.27702195                0.01288280
               7.97232311                9.97834939               79.12832843                0.01000001                0.83565681               -0.39239514                0.14986516                0.64163358                0.32176226                0.06441853
               8.98234485                9.98689544               79.13587121                0.99999999                0.47277105               -0.04676928                0.17139461                0.54890772                0.17774784                0.00705801
               9.98177853                9.98444923               79.14000018                0.99999991               -0.05663233               -0.05733834                0.20310784               -0.00986241                0.00716268               -0.00716182
              -0.11987720               -0.03148667               80.06298628                1.00000000               -0.01449302               -0.01823621                0.09573429               -0.00350803                0.00810784               -0.00650575
               0.87997787               -0.03622488               80.06584917                1.00000000               -0.00110348               -0.03241377                0.07838229                0.00454872                0.01278936                0.00301765
               1.88010073               -0.04038269               80.06878581                0.52993575                0.08570326               -0.01003532                0.05326943                0.12421084                0.03268292                0.00362701
               2.88169193               -0.04122238               80.07194118                0.43245955                0.13820664                0.02134084               -0.03697681                0.10003666               -0.00743087                0.00768587
               3.88286486               -0.03704280               80.07471871                0.34260482               -0.01804118                0.05093990               -0.00583271                0.07929023               -0.03122493               -0.01655519
               4.88133111               -0.02920751               80.07765896                0.46588594               -0.17278356                0.03760745                0.05584858                0.10206708                0.02102511               -0.00607546
               5.87940919               -0.02354830               80.08041739                1.00000000               -0.12547411               -0.00812779                0.06884160                0.10690485               -0.01415860                0.00550134
               6.87882163               -0.02032175               80.08273723                1.00000000               -0.05908739               -0.02262250                0.09865341                0.00985314               -0.03147609               -0.00601133
               7.87822744               -0.01766019               80.08498722                1.00000000               -0.05315402               -0.02734484                0.10648883                0.00191477               -0.02486286               -0.00027669
               8.87775855               -0.01532354               80.08742449                0.99999999               -0.04042732               -0.03028731                0.10148715               -0.00214155               -0.01212949               -0.00020900
               9.87741889               -0.01303445               80.08995556                1.00000000               -0.03396511               -0.03141047                0.10045389               -0.00256872               -0.00858717               -0.00859382
              -0.11517407                0.96833097               80.06501508                1.00000000               -0.03545638               -0.00983192                0.09138696                0.00426782               -0.00475699               -0.00845112
               0.88447136                0.96345098               80.06786152                0.01000000               -0.04921726               -0.04386113                0.07795431                0.05074876               -0.01122234                0.01478989
               1.88384158                0.95951696               80.07060856                0.01000000               -0.17245057                0.02690213                0.06765299                0.05512194                0.00121495                0.02326711
               2.88102235                0.95899103               80.07386849                0.08271842               -0.30956263                0.06088565                0.09318419               -0.10767315                0.06785459                0.10815030
               3.87765033                0.96346660               80.07747445                0.01002488               -0.27089118                0.01532380                0.07853364                0.29708272                0.14422252               -0.00875527
               4.87560453                0.97116856               80.08128107                0.01000000               -0.08074862               -0.11257672                0.00364255                0.55732623                0.07221453                0.02786502
               5.87603536                0.97637042               80.08409973                0.01000001                0.01857872               -0.15484311                0.03523330                0.36341902                0.01126385                0.02199578
               6.87597610                0.97945202               80.08650841                0.02212847               -0.01439386                0.00154660                0.08531076                0.01107263               -0.01462263               -0.12553083
               7.87574748                0.98206636               80.08887533                0.99999999               -0.02759219               -0.02995672                0.10795682                0.00703952               -0.00677002                0.00204301
               8.87542426                0.98437359               80.09138711                0.99999999               -0.03216792               -0.03208563                0.10672650               -0.00299925                0.00221974                0.00454066
               9.87510412                0.98665145               80.09392959                1.00000000               -0.03201377               -0.03294362                0.10591197               -0.00337400                0.00298006               -0.00786252
              -0.11003187                1.96831669               80.06701246                0.57349271               -0.01612737                0.02413105                0.08126675                0.05003183                0.00105649               -0.01356650
               0.88980685                1.96289790               80.07008382                0.01000000               -0.21525066               -0.10351411                0.07397117                0.20329864               -0.01861722                0.05298232
               1.88566311                1.96015535               80.07277040                0.01000001               -0.71090142                0.01965304                0.21115604                0.44863727               -0.04350170                0.15989637
               2.87558882                1.95999534               80.07785667                0.01000000               -0.45170651                0.05204601                0.07563212                0.81570772               -0.46500167                0.08481628
               3.87662898                1.96326368               80.08054408                0.01000000                0.19924923               -0.07613751               -0.04607354                1.10921390               -0.24195690                0.11010803
               4.87957381                1.96854095               80.08559799                0.01000001                0.08825629               -0.22406198                0.00685946                1.15673541                0.05067742                0.02345099
               5.87839411                1.97335484               80.08821892                0.01000002               -0.31133344               -0.19673487                0.06866587                1.03029460               -0.11433658                0.03709332
               6.87334714                1.97970918               80.08782215                0.01000002               -0.24737232               -0.12543332                0.15373808                0.71269336                0.07070378               -0.01376226
               7.87344666                1.98174067               80.09276212                0.01000000               -0.01168325               -0.18308351                0.11655614                0.28049605                0.14025011               -0.01451939
               8.87311348                1.98403475               80.09542725                0.99745195               -0.03254781               -0.03443858                0.11149030                0.00004068                0.01877391                0.01960973
               9.87279571                1.98630668               80.09792581                1.00000000               -0.03177691               -0.03497917                0.10885641               -0.00214783                0.01006442               -0.00569584
              -0.10333584                2.96881359               80.06901622                0.30485596                0.00345208                0.09080779                0.04642122                0.15801925                0.00013667               -0.00354378
               0.89669868                2.96138070               80.07273746                0.01000000               -0.04736345               -0.26485672                0.06950488                0.49024551                0.02065170                0.17458120
               1.89571689                2.95991002               80.07705271                0.01000000               -0.12352470               -0.13003447                0.13325943                1.05786289                0.02857575                0.24426908
               2.89422818                2.96003195               80.08094762                0.01000000               -0.22139478               -0.07665901                0.12165018                1.63476224                0.09193002                0.12943107
               3.89128899                2.96194385               80.08521888                0.01002798               -0.27900535               -0.10180644                0.08444948                1.69495875                0.07098255                0.08747333
               4.88864808                2.96668732               80.08889502                0.01000000               -0.29079836               -0.13117299                0.06730472                1.58626415                0.04018085                0.00435194
               5.88547302                2.97243573               80.09204498                0.01000000               -0.34019703               -0.08692296                0.08378825                1.44293959                0.07117118                0.02378551
               6.88184413                2.97694336               80.09509990                0.01000000               -0.42205972               -0.15252562                0.08900274                1.20938397                0.03604126                0.16607333
               7.87703183                2.97840469               80.09624744                0.01000001               -0.54925322               -0.07771959                0.25243290                0.80496044                0.27617042               -0.05143321
               8.87085907                2.98368482               80.09965864                0.89229615               -0.32572576               -0.03569626                0.11829330                0.15129313                0.05734192                0.02214784
               9.87051731                2.98595186               80.10192279                0.99999999               -0.03417560               -0.03492646                0.11199931               -0.00112038               -0.00197026               -0.00556138
              -0.09200571                3.97013285               80.07184098                0.23487546                0.05210427                0.03543579                0.00073246                0.11098426               -0.00464525                0.12536114
               0.90851534                3.95760076               80.07639723                0.01000000                0.00874124               -0.29691115                0.05515143                0.75202825               -0.02291895                0.21486389
               1.90816912                3.95755466               80.08066628                0.01000000               -0.11325490               -0.21252293                0.10187010                1.32258960                0.04069730                0.15610201
               2.90625024                3.95846216               80.08477317                0.01001750               -0.21481648               -0.17752983                0.10956837                1.42809889                0.06131812                0.12619000
               3.90387279                3.96122755               80.08876577                0.01000000               -0.27215103               -0.12485065                0.09908501                1.66163051                0.07692866                0.06990422
               4.90080722                3.96591749               80.09259191                0.01000000               -0.34379599               -0.10297516                0.09315094                1.82256133                0.07701804                0.04133716
               5.89699687                3.97161638               80.09618075                0.01000000               -0.46206807               -0.06874938                0.09480788                1.83655128                0.06547341                0.04134789
               6.89156586                3.97665867               80.09924031                0.01000003               -0.70962298                0.01421862                0.11465576                1.68404412                0.06729735                0.01749301
               7.88280441                3.98018628               80.10206386                0.01000001               -1.14868442                0.17160981                0.10737222                1.55341277               -0.03195856                0.12813695
               8.86859217                3.98332083               80.10370314                0.01000002               -0.72825967               -0.11264307                0.12487576                1.61996259               -0.01897126                0.12182011
               9.86823921                3.98560815               80.10590967                0.01563339               -0.03529519               -0.91119729                0.11675999                1.62365589                0.00448793                0.13955963
              -0.07605199                4.96952230               80.07598563                0.26138126                0.03694138               -0.15483548                0.03046406                0.10068289               -0.02579753                0.18958174
               0.92431743                4.95544248               80.07981065                0.01000000               -0.13203646               -0.04870584                0.01125278                0.78145816               -0.00547441                0.11344442
               1.92130728                4.95565956               80.08399293                0.01000001               -0.26000756               -0.17818618                0.07329992                1.34173096                0.02596206                0.10166362
               2.91911727                4.95648136               80.08807192                0.01000000               -0.21205095               -0.23879250                0.09669842                1.46976262                0.04727256                0.08022534
               3.91706626                4.95944684               80.09214862                0.01000000               -0.22034022               -0.24413110                0.10352053                1.75181373                0.06854158                0.05937525
               4.91471047                4.96462782               80.09616921                0.01000000               -0.28016938               -0.18643681                0.10235783                2.02003996                0.07499003                0.04417459
               5.91146288                4.97106074               80.10002426                0.01000002               -0.38776783               -0.09185835                0.10467663                2.16972287                0.07161736                0.03659145
               6.90695511                4.97722773               80.10367008                0.01000002               -0.50124754                0.00956423                0.10761537                2.22281986                0.04507385                0.06319473
               7.90143793                4.98183689               80.10691071                0.01000000               -0.45593287                0.03432768                0.11443085                2.20680533                0.02443026                0.10574487
               8.89783646                4.98143196               80.10995059                0.01001317               -0.15110683               -0.27391996                0.11813972                1.93591168                0.01027011                0.20228307
               9.89841579                4.96772792               80.11285771                0.01000000                0.05793324               -1.08816581                0.11893200                1.27283215               -0.00051759                0.29940027
              -0.06183239                5.96703614               80.07901567                0.76955303               -0.01603636               -0.15401636                0.07458800                0.18147385                0.01907530                0.00215669
               0.93800724                5.95662664               80.08265336                0.01000001               -0.21013762                0.06376638                0.04983053                0.53997266                0.03116874                0.07914136
               1.93396486                5.95399094               80.08674169                0.01000002               -0.30745166               -0.19423403                0.06672841                1.03539020                0.03409210                0.04433711
               2.93185821                5.95368631               80.09097532                0.01000000               -0.16011288               -0.35620497                0.09209621                1.36334802                0.05116401                0.04086949
               3.93076260                5.95634493               80.09523572                0.01000000               -0.11320485               -0.40290803                0.10356022                1.76755428                0.06662185                0.03687622
               4.92959411                5.96218876               80.09951370                0.01000002               -0.14855908               -0.32014640                0.10671763                2.14741753                0.07516414                0.03241363
               5.92779142                5.96977921               80.10375556                0.01000000               -0.21740053               -0.17513476                0.10795824                2.34459900                0.07189250                0.03757787
               6.92524610                5.97684995               80.10787586                0.01000000               -0.25275656               -0.07272623                0.11221428                2.34318355                0.05919432                0.06807285
               7.92273629                5.98087284               80.11179608                0.01000001               -0.19133664               -0.08138708                0.11656714                2.06939385                0.04222335                0.11662066
               8.92141937                5.97784243               80.11548280                0.01000000               -0.08161713               -0.19573753                0.12163092                1.29518862                0.02009275                0.18808392
               9.92110394                5.96384483               80.11897105                0.01000000               -0.03154280               -0.12645744                0.12460574                0.63799717                0.00460409                0.27196621
              -0.05160353                6.96644198               80.08061801                1.00000000               -0.02343973               -0.05454014                0.08946088                0.01742806               -0.00223179               -0.04113060
               0.94816208                6.95671780               80.08458607                0.01000002               -0.17205254                0.00022178                0.07050039                0.25180114                0.01645518                0.00519820
               1.94495542                6.95177488               80.08898516                0.01000940               -0.20659150               -0.31792947                0.08098024                0.80662436                0.04933511               -0.00478768
               2.94403025                6.94935726               80.09337495                0.01000000               -0.05202631               -0.47238126                0.09580524                1.10934685                0.05836362                0.00134192
               3.94391490                6.95138868               80.09792442                0.01000000                0.00971433               -0.66000952                0.10618024                1.69431132                0.07551161                0.00516735
               4.94422453                6.95822489               80.10255701                0.01000002               -0.01106178               -0.45389216                0.11072791                2.19212878                0.08757160                0.00767262
               5.94369366                6.96755804               80.10725642                0.01000000               -0.07496869               -0.23300422                0.11292644                2.32025870                0.09700080                0.02436173
               6.94272516                6.97577320               80.11196651                0.01001747               -0.09301679               -0.12013158                0.11477590                2.20504545                0.09454281                0.06445041
               7.94183333                6.98020915               80.11659464                0.01000000               -0.09784639               -0.02652331                0.11987537                1.84578903                0.07588166                0.12893885
               8.94076823                6.97751721               80.12098787                0.01000001               -0.13312017                0.13598126                0.12680570                1.08019073                0.04053950                0.21180511
               9.93917092                6.96519877               80.12499036                0.01000000               -0.15973096                0.31864067                0.13516953                0.48630085                0.01894905                0.29776179
              -0.04203548                7.96594533               80.08223297                0.99999998               -0.02541508               -0.04696228                0.10023040                0.00642327               -0.00428313               -0.02621929
               0.95771037                7.95663108               80.08633587                0.99999999               -0.02533143               -0.01746488                0.09415870                0.01791731               -0.00416499               -0.00798617
               1.95745789                7.94763235               80.09044689                0.01000000               -0.16395085               -0.22286468                0.09550216                0.45745882                0.02990234               -0.01633320
               2.95443135                7.94423868               80.09524023                0.01000001               -0.08383502               -0.54977738                0.10469570                0.88327667                0.07979692               -0.03908009
               3.95578119                7.94314474               80.10008006                0.01001192                0.14179865               -1.09740040                0.11199244                1.54006044                0.09277351               -0.07554855
               4.95726732                7.95311092               80.10512093                0.01000000                0.04335448               -0.43012296                0.11470023                2.13637870                0.11810138               -0.01654215
               5.95664828                7.96511913               80.11048133                0.01000001               -0.02857064               -0.20375805                0.11767845                2.01944563                0.13666416                0.00910031
               6.95669591                7.97444732               80.11587736                0.01000000                0.06298921               -0.15462299                0.12036821                1.81274827                0.14816043                0.04810557
               7.95790806                7.98034237               80.12148561                0.01000001                0.06688266               -0.06102040                0.12543760                1.63890424                0.13696842                0.12025114
               8.95803356                7.98056205               80.12676664                0.01000546               -0.12206105                0.33036022                0.13531653                1.23257680                0.08468243                0.30983349
               9.95546684                7.97021765               80.13147615                0.01000002               -0.25667217                0.82183568                0.15004462                0.76044853                0.05350998                0.34944682
              -0.03284655                8.96550273               80.08390900                0.99999999               -0.03200403               -0.04080351                0.10800643                0.00107811               -0.00024363               -0.01254554
               0.96683341                8.95636851               80.08808825                0.99999999               -0.03282254               -0.02989075                0.10808045               -0.00037508                0.00138194               -0.00555838
               1.96649700                8.94731758               80.09228397                0.99999999               -0.03250071               -0.03234838                0.10933280                0.00200866                0.00542912                0.00135072
               2.96618339                8.93836171               80.09653120                1.00000000               -0.03265626               -0.31133199                0.11472090                0.14058554                0.00589573               -0.02617966
               3.96584387                8.92944067               80.10074005                0.01000002               -0.06028396               -0.70270516                0.11725220                1.51189565                0.12814961               -0.05799333
               4.96497772                8.94962243               80.10744076                0.01004545               -0.15488520               -0.18474170                0.11970715                1.83760255                0.22249085               -0.02045325
               5.96274617                8.96348288               80.11345631                0.01000000               -0.06104160               -0.13317393                0.12356973                1.23794017                0.19594292               -0.00382357
               6.96375688                8.97268074               80.11951428                0.01000001                0.28752547               -0.20633878                0.12837279                1.02429800                0.21232383                0.02247065
               7.96849668                8.97898874               80.12593708                0.01000002                0.58938048               -0.25890097                0.13554436                1.08689193                0.30597788                0.07911508
               8.97554449                8.98412441               80.13414161                1.00000000                0.32860148                0.15457773                0.14516513                1.13705480                0.18102338                0.20378359
               9.97506871                8.98163548               80.13857833                0.99994039               -0.04757850                0.54237823                0.17500996                0.85589619               -0.00746958                0.17530664
              -0.02374547                9.96512926               80.08568186                1.00000000               -0.03665195               -0.03734673                0.11977062                0.00050842                0.00017148               -0.00522970
               0.97588801                9.95603327               80.08987852                1.00000000               -0.03748370               -0.03352402                0.12052715               -0.00173371                0.00294480               -0.00252127
               1.97550486                9.94698538               80.09410115                0.99999999               -0.03840181               -0.03322022                0.11974873               -0.00027514                0.00635482                0.00066853
               2.97511998                9.93801204               80.09834569                0.99999997               -0.03732404               -0.03496672                0.11862063               -0.00107924                0.00642292                0.00005962
               3.97475838                9.92909063               80.10255805                0.05253264               -0.75714084               -0.03500354                0.11925512                1.46165242                0.15369135               -0.00057598
               4.95997716                9.94941608               80.10974944                0.01000000               -0.82048038               -0.02063519                0.12606838                1.16819532                0.30176916               -0.01972904
               5.95834877                9.96245565               80.11634235                0.01000001                0.08494272               -0.10272321                0.13101043                0.60548330                0.26341204               -0.00616538
               6.96167601                9.97032055               80.12281058                0.01000000                0.49267317               -0.23601997                0.13957033                0.42734818                0.27137522                0.01113236
               7.96820223                9.97516435               80.12982953                0.01000003                0.82259504               -0.38243860                0.15065481                0.63720864                0.31629352                0.06223230
               8.97812792                9.98365361               80.13758827                0.99999999                0.46801974               -0.04708047                0.17201789                0.55338518                0.17315936                0.00705807
               9.97756263                9.98106521               80.14202499                0.99999991               -0.05652869               -0.05702707                0.20186273               -0.00944772                0.00716001               -0.00716026
              -0.12257332               -0.03353624               81.06394538                1.00000000               -0.01556468               -0.01935352                0.09306381               -0.00301893                0.00522143               -0.00225689
               0.87727104               -0.03816904               81.06661585                0.97062163               -0.00400308               -0.02993867                0.07646761                0.00402975                0.00190729                0.00894812
               1.87734662               -0.04228689               81.06925937                0.45297097                0.06762682               -0.01042019                0.05356563                0.10034709               -0.01778918                0.00452727
               2.87862357               -0.04367349               81.07172313                0.32945071                0.11918101                0.01793063                0.00230130                0.08887869               -0.04354839                0.02066498
               3.87973024               -0.04040618               81.07459484                0.23270914                0.00124291                0.04643407               -0.00942013                0.12213478                0.01909842               -0.01688051
               4.87864843               -0.03268681               81.07815877                0.30884222               -0.16117918                0.04068171                0.04745839                0.10663522                0.06459114               -0.02262169
               5.87650666               -0.02692119               81.08115817                1.00000000               -0.13020837               -0.01676955                0.07885241                0.13284569               -0.02294692                0.01704296
               6.87604427               -0.02403837               81.08369369                1.00000000               -0.04849804               -0.02305803                0.09370335                0.00509290               -0.04367220               -0.00482186
               7.87553670               -0.02153736               81.08603345                0.99999998               -0.04709904               -0.02588130                0.10097772                0.00297440               -0.04050043                0.00213346
               8.87510228               -0.01931534               81.08843684                0.99999999               -0.03857771               -0.02951647                0.09945066               -0.00059424               -0.02552844               -0.00028605
               9.87476514               -0.01714800               81.09097582                0.99999917               -0.03371396               -0.03136276                0.10134720               -0.00167741               -0.01737387               -0.01423182
              -0.11797070                0.96627022               81.06593747                1.00000000               -0.03426360               -0.01379705                0.09109327                0.00250871                0.00027809               -0.00659689
               0.88168666                0.96153157               81.06863547                0.01000000               -0.04634891               -0.03709958                0.07669642                0.04175771                0.00125868                0.01787698
               1.88110232                0.95760890               81.07129268                0.01000000               -0.15573272                0.03285098                0.06767126                0.01417146                0.04792610                0.12919528
               2.87857201                0.95650581               81.07470264                0.01000000               -0.28220348                0.01192790                0.07315940               -0.18485531                0.13805036                0.00293980
               3.87545825                0.96005816               81.07821417                0.01001469               -0.27998592                0.05512314                0.06980656                0.24584548                0.12896948               -0.09483710
               4.87297229                0.96772001               81.08139123                0.01000000               -0.09736768               -0.10973277                0.02497592                0.55272037                0.04558120                0.00608659
               5.87351090                0.97291111               81.08453594                0.01000001                0.02154949               -0.16057021                0.05623236                0.39534012                0.04179291                0.05041550
               6.87340328                0.97573105               81.08727093                0.01000004               -0.01529842               -0.06931854                0.07799054                0.10333038                0.00951039               -0.03677360
               7.87320493                0.97820383               81.08990785                1.00000000               -0.02508070               -0.02759686                0.10037142                0.00874467                0.00084692                0.00708510
               8.87290166                0.98038950               81.09244789                0.99999999               -0.03119441               -0.03081976                0.10431583               -0.00185722               -0.00126335                0.00342321
               9.87258104                0.98253837               81.09500188                1.00000000               -0.03206250               -0.03222097                0.10654006               -0.00294405                0.00016682               -0.01498645
              -0.11304583                1.96618782               81.06786588                0.56224304               -0.01866550                0.00615966                0.08820863                0.03064308                0.00173618               -0.02273938
               0.88676751                1.96108897               81.07078197                0.01000000               -0.21491781               -0.06908119                0.06922807                0.16168599                0.10812155                0.05285225
               1.88265581                1.95837013               81.07588759                0.01000001               -0.71451468                0.01935269                0.19925222                0.33031791                0.17885843                0.13610877
               2.87247722                1.95656506               81.07749996                0.01000000               -0.46114254                0.05011722                0.08704496                0.74492326                0.52203497                0.12348664
               3.87343296                1.96069628               81.08033467                0.01000000                0.21863334               -0.05955319                0.06289479                1.07539499                0.45888454                0.06662560
               4.87684988                1.96511854               81.08513514                0.01000001                0.14847295               -0.21646477               -0.00363168                1.11092082                0.23114321                0.07279746
               5.87640242                1.96986740               81.08873735                0.01000002               -0.20158625               -0.21243748                0.04771981                0.96050065                0.04614767                0.07280814
               6.87281816                1.97457526               81.09023701                0.01000001               -0.26746359               -0.15240060                0.24164559                0.70845913                0.16557942               -0.04295872
               7.87105315                1.97791070               81.09386841                0.01000000               -0.10437798               -0.16072189                0.10746675                0.32295266                0.07456985                0.03068607
               8.87073060                1.98006827               81.09651978                0.99999999               -0.03223094               -0.03183867                0.10858900                0.00097400                0.01782110                0.02353273
               9.87040853                1.98220758               81.09900427                0.99999999               -0.03220723               -0.03385978                0.10877359               -0.00202675                0.00957692               -0.00945472
              -0.10716014                2.96639342               81.06967581                0.24445856               -0.01017916                0.09300290                0.08112653                0.18622478               -0.00141635               -0.03068099
               0.89273807                2.96014995               81.07328993                0.01000000               -0.03036429               -0.23407049                0.05324555                0.42279051                0.05889618                0.16889495
               1.89223258                2.95799596               81.07835044                0.01000000               -0.07968758               -0.14314013                0.11470349                0.94992461                0.14857804                0.05591969
               2.89114432                2.95750816               81.08237327                0.01000000               -0.19099493               -0.02597729                0.10678134                1.56143261                0.07636774                0.13797855
               3.88841268                2.95886709               81.08584212                0.01000002               -0.25623704               -0.11377393                0.06661081                1.65960283                0.10411960                0.19852514
               4.88601958                2.96339071               81.08939476                0.01000000               -0.25742484               -0.11938119                0.05675160                1.54275840                0.11359236                0.11104024
               5.88326418                2.96866236               81.09275950                0.01000000               -0.32452085               -0.09051728                0.07620037                1.35939268                0.09367539                0.05644403
               6.87952916                2.97268304               81.09577154                0.01000000               -0.45466042               -0.08609959                0.07952633                1.12824542                0.01933082                0.11194235
               7.87417097                2.97498939               81.09817056                0.01000001               -0.54524456               -0.07482399                0.16772021                0.83151435               -0.00054238                0.10589900
               8.86862427                2.97975273               81.10091710                0.99999999               -0.29545418               -0.03380606                0.11924767                0.13381088                0.02484353                0.03420213
               9.86826189                2.98186117               81.10313352                0.99999999               -0.03623810               -0.03553291                0.11546025               -0.00257155               -0.00080204               -0.00032591
              -0.09683440                3.96804788               81.07195353                0.17275249                0.04551768                0.07689225                0.03529128                0.18770208                0.01585186                0.11205557
               0.90362078                3.95640756               81.07683492                0.01000001                0.05652444               -0.33535003                0.03967879                0.74935600                0.00254112                0.22193346
               1.90429609                3.95550732               81.08168473                0.01000000               -0.03930213               -0.22146137                0.08945899                1.24320692                0.06108075                0.10168824
               2.90283474                3.95604552               81.08577905                0.01000002               -0.17768148               -0.17085452                0.09498972                1.36408098                0.06437507                0.08276958
               3.90074246                3.95842080               81.08966500                0.01000000               -0.24624772               -0.10548745                0.08537633                1.59717702                0.07221999                0.08611246
               4.89790978                3.96273091               81.09342053                0.01000000               -0.32222589               -0.09035320                0.08176486                1.75505512                0.08148946                0.08076154
               5.89429794                3.96805706               81.09701918                0.01000000               -0.44268700               -0.05012329                0.08394076                1.76202142                0.07157519                0.07140643
               6.88905604                3.97285327               81.10029561                0.01000002               -0.68420977                0.04458729                0.10138108                1.64024273                0.04715922                0.07819978
               7.88061375                3.97641422               81.10310027                0.01011625               -1.12605038                0.15337220                0.11534642                1.54146770                0.00932708                0.11875435
               8.86653503                3.97939215               81.10518687                0.01000001               -0.72367721               -0.10999138                0.13079226                1.57281602                0.00412825                0.11026616
               9.86614020                3.98149692               81.10731400                0.05403164               -0.03948305               -0.88479322                0.12518644                1.57362043                0.00749755                0.12886158
              -0.08012545                4.96793126               81.07626852                0.19131550                0.03911982               -0.16750338                0.03980898                0.13520423               -0.02923941                0.22395716
               0.92026574                4.95344295               81.08007968                0.01000000               -0.12078965               -0.07109569                0.03962839                0.83197268                0.01506868                0.12116014
               1.91745875                4.95356673               81.08474343                0.01000001               -0.23766397               -0.18071540                0.07594980                1.32951906                0.06387018                0.07355765
               2.91551246                4.95409107               81.08900574                0.01000000               -0.18939626               -0.23361518                0.08927184                1.42540748                0.05867695                0.06068004
               3.91367083                4.95675734               81.09311787                0.01000000               -0.20140204               -0.23203440                0.09322116                1.69378498                0.06635711                0.05900172
               4.91148442                4.96158365               81.09713127                0.01000000               -0.26442874               -0.17246249                0.09399580                1.95143712                0.07002157                0.05535167
               5.90838225                4.96765990               81.10101868                0.01000003               -0.37537852               -0.07849014                0.09813038                2.09815981                0.06723456                0.05479293
               6.90397685                4.97357479               81.10469515                0.01004740               -0.49604009                0.02686895                0.10424830                2.15383291                0.05077540                0.07230491
               7.89846145                4.97805683               81.10803122                0.01000000               -0.44894779                0.03645620                0.11367758                2.13485234                0.02765792                0.11268977
               8.89499790                4.97755290               81.11108009                0.01000526               -0.14683457               -0.26238055                0.11882317                1.87944924                0.01793290                0.18673345
               9.89552476                4.96416531               81.11401857                0.01000000                0.05268620               -1.05161919                0.11944359                1.23710756                0.00597123                0.28838625
              -0.06515368                5.96469781               81.07978522                0.81414323               -0.02215558               -0.18087745                0.07445173                0.26055676                0.01801435                0.02904825
               0.93462476                5.95498564               81.08334216                0.01000001               -0.23039838                0.07189235                0.07574911                0.55912453                0.04232509                0.08934871
               1.93023835                5.95189302               81.08745525                0.01006276               -0.32362442               -0.18593215                0.07688980                1.00211180                0.05569618                0.03994744
               2.92815227                5.95137322               81.09187391                0.01000000               -0.15563853               -0.34477199                0.09045329                1.32668565                0.06852718                0.03183279
               3.92712558                5.95378011               81.09623223                0.01000000               -0.10581517               -0.38878392                0.09830851                1.71454425                0.06819590                0.03449920
               4.92603597                5.95928166               81.10055282                0.01000003               -0.14277891               -0.30664815                0.10260794                2.08114135                0.07032756                0.03451524
               5.92427000                5.96648726               81.10481223                0.01000000               -0.21501030               -0.16502453                0.10597953                2.28330157                0.06778206                0.03962339
               6.92173576                5.97339065               81.10897613                0.01000000               -0.24686594               -0.05992267                0.11021336                2.28253373                0.05788526                0.06828877
               7.91933268                5.97714335               81.11295151                0.01000001               -0.18601101               -0.07412393                0.11634617                2.01611502                0.04488816                0.11227593
               8.91801554                5.97414454               81.11670394                0.01000000               -0.08375734               -0.18183796                0.12210712                1.26248044                0.02251054                0.18438373
               9.91765754                5.96046453               81.12021926                0.01000000               -0.03580083               -0.11496102                0.12586811                0.62138446                0.00689947                0.27529854
              -0.05548999                6.96431371               81.08149681                1.00000000               -0.02569870               -0.03876272                0.08594011                0.00740979               -0.00122012               -0.04644278
               0.94425303                6.95488079               81.08535186                0.01000002               -0.16982992               -0.01253861                0.08120685                0.22547506                0.02814377                0.00787531
               1.94111341                6.94984809               81.08982079                0.01003378               -0.20469723               -0.30569778                0.08783681                0.77058750                0.06586365                0.00089371
               2.94015908                6.94719563               81.09432661                0.01000000               -0.05300742               -0.45608268                0.09668630                1.07027505                0.06986200                0.00260878
               3.94005327                6.94898167               81.09897367                0.01000002                0.01205127               -0.64113528                0.10471395                1.64434237                0.07772574                0.00538286
               4.94040011                6.95545069               81.10365075                0.01001376               -0.00569849               -0.44199737                0.10931859                2.12808591                0.08247014                0.00683743
               5.93993930                6.96435941               81.10837376                0.01000000               -0.07143351               -0.22184975                0.11204466                2.26147158                0.08921321                0.02224546
               6.93897144                6.97237633               81.11311776                0.01001526               -0.09547164               -0.11529497                0.11624981                2.15377510                0.08722499                0.05755012
               7.93802986                6.97657435               81.11779511                0.01000002               -0.10225589               -0.01815004                0.12095637                1.79767054                0.07040516                0.12055134
               8.93692632                6.97391614               81.12225838                0.01000001               -0.13587049                0.14210895                0.12802382                1.05383706                0.03845603                0.20334792
               9.93531245                6.96186609               81.12634401                0.01000000               -0.16138651                0.31896445                0.13611751                0.47312138                0.01888107                0.29906111
              -0.04613965                7.96392255               81.08320160                0.99999999               -0.02604665               -0.03826781                0.09429768                0.00433348               -0.00212196               -0.03542289
               0.95359989                7.95473487               81.08727403                1.00000000               -0.02625440               -0.02045185                0.09417243                0.01324617                0.00043731               -0.00432408
               1.95333527                7.94577906               81.09140821                0.01000002               -0.15878445               -0.21929334                0.09759124                0.43685758                0.03929676               -0.01100222
               2.95042420                7.94225156               81.09628557                0.01000001               -0.07889482               -0.53330987                0.10574290                0.85183042                0.08736888               -0.03291701
               3.95175737                7.94095741               81.10119198                0.01006629                0.13978746               -1.06779607                0.11281042                1.49014364                0.09235324               -0.07140514
               4.95321995                7.95044171               81.10627028                0.01000000                0.04082081               -0.41970124                0.11646518                2.07445393                0.11168949               -0.01710085
               5.95257379                7.96205026               81.11166082                0.01000001               -0.03118142               -0.19452698                0.11881302                1.96510922                0.12755938                0.00578159
               6.95259632                7.97108475               81.11708757                0.01000002                0.05862509               -0.15048288                0.12221691                1.76558437                0.13758089                0.04083263
               7.95374629                7.97678035               81.12274408                0.01000001                0.06021169               -0.05313141                0.12702376                1.59990518                0.12757388                0.11073172
               8.95380055                7.97698672               81.12812345                0.01000002               -0.12631101                0.33505200                0.13648640                1.20110382                0.07919741                0.29892060
               9.95122007                7.96684382               81.13296640                0.01000002               -0.25804855                0.80569117                0.14974889                0.74049369                0.05186384                0.35333454
              -0.03702795                8.96354836               81.08496371                0.99999999               -0.03106080               -0.03579132                0.10238223                0.00082731               -0.00016003               -0.02049322
               0.96266144                8.95447176               81.08915519                0.99999998               -0.03190884               -0.02929545                0.10519684               -0.00018621                0.00224967               -0.00550947
               1.96233387                8.94546222               81.09337286                0.99999997               -0.03220492               -0.03237072                0.10883775                0.00189770                0.00909547                0.00504511
               2.96201734                8.93652943               81.09768503                0.99999999               -0.03339435               -0.30390246                0.11648156                0.13396310                0.01006769               -0.02246638
               3.96166599                8.92762574               81.10193397                0.01001699               -0.06105064               -0.68500659                0.12190137                1.46703592                0.12833331               -0.05277367
               4.96079633                8.94705666               81.10863546                0.01000001               -0.15337707               -0.17848939                0.12177469                1.78534482                0.21650313               -0.02048574
               5.95859845                8.96046887               81.11470228                0.01000000               -0.06216461               -0.12906863                0.12583243                1.20694286                0.18753222               -0.00533005
               6.95955304                8.96936668               81.12080674                0.01000001                0.27637781               -0.20066333                0.13054341                1.00092920                0.20118167                0.01821922
               7.96412600                8.97551173               81.12729950                0.01000002                0.56659398               -0.24855987                0.13743244                1.06877537                0.29168748                0.07312917
               8.97088492                8.98061718               81.13559945                0.99999328                0.31410557                0.15782839                0.14639549                1.11401075                0.17133946                0.19556014
               9.97040811                8.97797991               81.14032532                0.99999999               -0.04768055                0.52844460                0.17439033                0.82768475               -0.00746502                0.17487586
              -0.02796990                9.96320673               81.08684846                0.99999916               -0.03478036               -0.03416292                0.11248391                0.00002838               -0.00437939               -0.01118946
               0.97168230                9.95414896               81.09106237                1.00000000               -0.03572778               -0.03227952                0.11553329               -0.00166857               -0.00178301               -0.00303207
               1.97131554                9.94513165               81.09528630                1.00000000               -0.03711796               -0.03305760                0.11726059               -0.00060524                0.00164246                0.00257112
               2.97093994                9.93617351               81.09953445                0.99999997               -0.03723441               -0.03559174                0.11941102               -0.00145918                0.00305994               -0.00049803
               3.97057086                9.92725727               81.10376915                0.05653585               -0.74281090               -0.03684695                0.12318402                1.42540772                0.15178340                0.00029225
               4.95608372                9.94687193               81.11100511                0.01000000               -0.80841146               -0.01847340                0.12719071                1.13931957                0.30292693               -0.01888308
               5.95440263                9.95946889               81.11765666                0.01000000                0.07441617               -0.09999792                0.13317159                0.59039608                0.26202697               -0.00617808
               6.95757204                9.96707148               81.12421091                0.01000000                0.47343314               -0.22951922                0.14123464                0.41891350                0.26703590                0.00971266
               7.96387129                9.97180915               81.13134152                0.01000004                0.80202696               -0.37025776                0.15227917                0.62811891                0.31232494                0.06059527
               8.97361258                9.98014328               81.13931156                0.99999677                0.45885041               -0.04738960                0.17264145                0.55294474                0.16926724                0.00705850
               9.97304830                9.97741271               81.14403743                0.99985871               -0.05642839               -0.05671959                0.20063631               -0.00903826                0.00715799               -0.00715848
              -0.12511372               -0.03551600               82.06484756                1.00000000               -0.01842572               -0.02054766                0.08526725               -0.00199396                0.00324695                0.00169287
               0.87470202               -0.04008516               82.06737853                0.93495130               -0.01243060               -0.02724362                0.07628368                0.00179279               -0.00137855                0.00890894
               1.87463766               -0.04435876               82.06985712                0.38517184                0.03917376               -0.01685893                0.06784698                0.07538013               -0.03299045                0.00378953
               2.87548549               -0.04676809               82.07198721                0.22795699                0.10867651                0.00410936                0.06254766                0.12462180               -0.07744407                0.02681963
               3.87681119               -0.04461907               82.07453031                0.15111087                0.02870555                0.04491024                0.02557220                0.20515387                0.03917337                0.00032140
               4.87605961               -0.03612488               82.07860813                0.19050933               -0.16979360                0.04388037                0.05195247                0.14628232                0.12757167               -0.04573650
               5.87341532               -0.02996299               82.08199443                0.99917692               -0.14933527               -0.02374602                0.08466362                0.18523089               -0.00768366                0.02084754
               6.87307290               -0.02757266               82.08461130                1.00000000               -0.03705188               -0.02541069                0.09012142                0.00198302               -0.04880379               -0.00438125
               7.87267428               -0.02536633               82.08700677                1.00000000               -0.03836476               -0.02605715                0.09452520                0.00238191               -0.05054536                0.00506269
               8.87230560               -0.02335136               82.08941350                1.00000000               -0.03404143               -0.02895233                0.09500786               -0.00030774               -0.03593844               -0.00019296
               9.87199346               -0.02137120               82.09198250                0.99999998               -0.03121484               -0.03055277                0.09762818               -0.00138150               -0.02502088               -0.01965740
              -0.12056451                0.96427852               82.06683695                0.99999999               -0.02941642               -0.01802144                0.08699981                0.00060880                0.00278081               -0.00128308
               0.87914133                0.95964241               82.06939545                0.01000000               -0.03512797               -0.03071794                0.07634421                0.02198414                0.00745675                0.01412234
               1.87873293                0.95547265               82.07196199                0.01000001               -0.11397314                0.00892688                0.06990599                0.07576069                0.06161379                0.13179735
               2.87686187                0.95327300               82.07533168                0.01000000               -0.25959039                0.07812658                0.06034977                0.32271640                0.18375431                0.05321151
               3.87354113                0.95583003               82.07887058                0.01000002               -0.33337408                0.07936565                0.06429764                0.62006129                0.14311309               -0.07996915
               4.87019439                0.96431392               82.08178058                0.01000000               -0.12748030               -0.09408713                0.05928632                0.68519572                0.03868947               -0.01469115
               5.87099152                0.96979955               82.08522438                0.01000001                0.03000073               -0.17247861                0.07835994                0.43295890                0.06018223                0.05174164
               6.87079440                0.97217323               82.08806823                0.01674648               -0.02020331               -0.10389744                0.08438091                0.15141576                0.02123706                0.05010140
               7.87058745                0.97437310               82.09088276                0.99999999               -0.02447175               -0.02709913                0.09682875                0.00834444                0.00664247                0.01233772
               8.87030496                0.97635912               82.09347343                0.99999999               -0.02939851               -0.03062206                0.10097027               -0.00106980               -0.00339548                0.00377988
               9.86999948                0.97832327               82.09606039                1.00000000               -0.03054806               -0.03214249                0.10381872               -0.00234415               -0.00207742               -0.02023432
              -0.11582931                1.96412357               82.06877663                0.55600345               -0.02231059               -0.00830988                0.09136983                0.01629575                0.00194046               -0.01329684
               0.88394758                1.95930049               82.07146838                0.01000001               -0.08242000               -0.04683837                0.07198446                0.08784198                0.12843777                0.03769494
               1.88252229                1.95581977               82.07675545                0.01000001               -0.11825701               -0.01206890                0.03586979                0.31830590                0.31376188                0.12803233
               2.88158244                1.95479444               82.07959757                0.01000000               -0.21753946                0.06197191                0.13488623                0.62752234                0.58996522                0.14319389
               3.87817150                1.95696824               82.08180197                0.01000000               -0.28942220                0.03769990                0.16129538                1.00038535                0.44974909                0.03617040
               4.87579400                1.96199338               82.08552536                0.01000001               -0.19781538               -0.18455925                0.08529529                1.17136790                0.22543533                0.08918370
               5.87421519                1.96658744               82.08917332                0.01004972               -0.21331651               -0.22583857                0.06392877                0.91671222                0.10002469                0.08344481
               6.87152767                1.97034939               82.09265506                0.01012066               -0.27799495               -0.15248144                0.24991312                0.67647726               -0.03341230                0.15606828
               7.86865529                1.97409169               82.09491146                0.01000000               -0.15968129               -0.15411423                0.10425622                0.34873878                0.00674554                0.05313587
               8.86833404                1.97603620               82.09759903                0.99999999               -0.03185114               -0.03286712                0.10713148               -0.00088621                0.01907692                0.02334449
               9.86801827                1.97798595               82.10010129                0.99999999               -0.03157723               -0.03438299                0.10847479               -0.00157723                0.01033455               -0.01703423
              -0.11059242                2.96411233               82.07063875                0.20665084               -0.02056149                0.08288344                0.10356213                0.17822370                0.00000583               -0.03177792
               0.88920197                2.95870564               82.07380237                0.01000000                0.00987583               -0.20254039                0.05912345                0.30031567                0.11017480                0.12872819
               1.88960510                2.95523127               82.07934678                0.01000000               -0.04690604               -0.13121688                0.07369551                0.68655591                0.19728611                0.03437564
               2.88826385                2.95451244               82.08308324                0.01000000               -0.16276026               -0.06546791                0.07522356                0.96638942                0.12214174                0.07741130
               3.88634990                2.95658403               82.08655109                0.01000001               -0.21306528               -0.06470917                0.07901689                1.28072540                0.14732136                0.17970338
               4.88400254                2.96062274               82.09003005                0.01000000               -0.26900727               -0.10985777                0.07945030                1.39937931                0.13355733                0.14836094
               5.88096975                2.96528278               82.09356899                0.01000000               -0.35914238               -0.09010558                0.09541691                1.29194840                0.07803500                0.12299239
               6.87681970                2.96912360               82.09669042                0.01000000               -0.45471633               -0.05251688                0.09783381                1.04541589                0.05198959                0.10287670
               7.87187542                2.97129082               82.09960184                0.01000000               -0.52133560               -0.06954890                0.13654097                0.80112850                0.03368236                0.09870528
               8.86639298                2.97570177               82.10204359                1.00000000               -0.29034902               -0.03365179                0.11291408                0.12358736                0.01053892                0.03000483
               9.86606844                2.97763561               82.10423199                0.99999997               -0.03245405               -0.03428095                0.11014751               -0.00078502               -0.00091775               -0.00955170
              -0.10145147                3.96578124               82.07254681                0.13171128                0.02864185                0.10287124                0.08989068                0.26350979                0.02935712                0.07052586
               0.89883495                3.95524968               82.07719081                0.01000001                0.09490365               -0.36736015                0.04123022                0.71780595                0.03870232                0.23003421
               1.90044661                3.95319544               82.08245546                0.01000000                0.03612590               -0.19355372                0.06829460                1.11444622                0.10277443                0.07764993
               2.89955747                3.95348508               82.08667297                0.01000001               -0.13854510               -0.14561694                0.07821535                1.30655732                0.07608363                0.08303514
               3.89767571                3.95567406               82.09047330                0.01000000               -0.22373212               -0.12621953                0.08155474                1.51145648                0.07575496                0.10243681
               4.89508283                3.95979622               82.09422721                0.01000001               -0.30612074               -0.10100847                0.08567914                1.66594063                0.08388854                0.11131781
               5.89155329                3.96478533               82.09785957                0.01000000               -0.43274402               -0.04596169                0.09108406                1.68883821                0.07660740                0.10038094
               6.88642795                3.96929905               82.10126793                0.01000003               -0.67267996                0.04348524                0.10518014                1.60268881                0.05988721                0.10300298
               7.87809969                3.97270071               82.10437079                0.01000000               -1.09834770                0.14743130                0.12306918                1.48974161                0.00991101                0.10396838
               8.86446099                3.97536316               82.10631899                0.01000000               -0.69823973               -0.10261080                0.11627459                1.52071980               -0.00016444                0.10831344
               9.86413490                3.97730033               82.10841340                0.05290407               -0.03260973               -0.85226091                0.11257057                1.52320703                0.00860823                0.12634047
              -0.08425909                4.96616975               82.07678181                0.14397722                0.04029863               -0.16962149                0.06740259                0.16214225               -0.03225649                0.21542420
               0.91614389                4.95135844               82.08060322                0.01000000               -0.10411422               -0.10541195                0.06476692                0.87696043                0.02218632                0.14455059
               1.91365862                4.95136019               82.08551192                0.01000001               -0.21137595               -0.17414560                0.07547034                1.31710458                0.08645141                0.07020773
               2.91191637                4.95160010               82.08985735                0.01000000               -0.16953700               -0.22414907                0.08304948                1.37968700                0.06881941                0.05764297
               3.91026788                4.95405964               82.09401304                0.01000001               -0.18531459               -0.22474738                0.08838917                1.63871853                0.06913342                0.06817747
               4.90821008                4.95860257               82.09804913                0.01000000               -0.25121012               -0.17183217                0.09327149                1.88208777                0.07075711                0.07123488
               5.90524368                4.96436355               82.10198687                0.01000006               -0.36259977               -0.07843629                0.09963742                2.02805974                0.06953186                0.07308891
               6.90095809                4.96999331               82.10575505                0.01000009               -0.48187669                0.02470351                0.10816638                2.08562375                0.05794918                0.08108961
               7.89560615                4.97423944               82.10918427                0.01000000               -0.43751624                0.03268773                0.11743849                2.07313975                0.04529890                0.10089657
               8.89220776                4.97364956               82.11232706                0.01000001               -0.14739468               -0.25056737                0.12407255                1.82458945                0.02599631                0.18585325
               9.89265825                4.96059039               82.11524658                0.01000002                0.04504903               -1.01374809                0.12390832                1.19790362                0.00710471                0.28996844
              -0.06858599                5.96238881               82.08050471                0.86102927               -0.02302892               -0.20365022                0.07126308                0.32131619                0.01383304                0.04705749
               0.93118372                5.95314144               82.08416835                0.01000001               -0.24334857                0.07925047                0.08499745                0.57903961                0.03542020                0.08870987
               1.92654704                5.94971252               82.08827948                0.01004690               -0.33659753               -0.17602021                0.08622140                0.97499925                0.05950520                0.04198098
               2.92445177                5.94900210               82.09278438                0.01000000               -0.15497154               -0.33011658                0.09189505                1.29124102                0.07423817                0.03721429
               3.92344761                5.95117911               82.09720189                0.01000000               -0.10155480               -0.37615239                0.09729905                1.66174328                0.06992392                0.04020223
               4.92242067                5.95635958               82.10156586                0.01000006               -0.13619312               -0.29791938                0.10197221                2.01506267                0.06965661                0.04254049
               5.92072374                5.96321660               82.10587515                0.01000001               -0.20780729               -0.16045927                0.10717283                2.21003943                0.06855602                0.04724703
               6.91826453                5.96979312               82.11008013                0.01000000               -0.24087530               -0.05902697                0.11238506                2.21140461                0.06414022                0.06260030
               7.91590624                5.97335447               82.11412300                0.01001373               -0.18313467               -0.07059227                0.11892028                1.95266765                0.04833671                0.10773429
               8.91460183                5.97035182               82.11792494                0.01000002               -0.08474677               -0.17424490                0.12484954                1.22257956                0.02540127                0.17679175
               9.91421130                5.95702537               82.12148841                0.01000000               -0.03905313               -0.10787710                0.12957596                0.60330665                0.01048298                0.27525866
              -0.05933802                6.96209675               82.08233681                1.00000000               -0.02610033               -0.03094169                0.08248530                0.00283024               -0.00074952               -0.04349085
               0.94040097                6.95294345               82.08621020                0.01000001               -0.16820143               -0.02000824                0.08825213                0.20359105                0.03201331                0.00402533
               1.93729795                6.94783979               82.09074190                0.01000795               -0.20631816               -0.29261418                0.09499662                0.73697815                0.07214300                0.00065106
               2.93627461                6.94499777               82.09530868                0.01000000               -0.05763399               -0.43900902                0.10053490                1.03199939                0.07401782                0.00817913
               3.93614527                6.94653659               82.10001870                0.01000003                0.00996157               -0.62113863                0.10619036                1.59211778                0.07818723                0.01175467
               4.93647384                6.95264418               82.10474338                0.01000000               -0.00671734               -0.42876948                0.11035720                2.06146874                0.07696381                0.01257076
               5.93601092                6.96115436               82.10949731                0.01000000               -0.07127634               -0.21551778                0.11377230                2.19135105                0.07967183                0.02575157
               6.93504832                6.96881277               82.11429151                0.01000002               -0.09550568               -0.11090667                0.11842930                2.08864852                0.07847876                0.05038852
               7.93410081                6.97282760               82.11901377                0.01000002               -0.10299308               -0.01509242                0.12347230                1.74346557                0.06511396                0.11301548
               8.93298845                6.97016466               82.12354834                0.01000000               -0.13617621                0.14237893                0.13046467                1.01993088                0.03687664                0.19605476
               9.93137728                6.95843285               82.12771271                0.01000000               -0.16111695                0.31388282                0.13870827                0.45716488                0.01906438                0.29993006
              -0.05022278                7.96176998               82.08411892                0.99999999               -0.02647169               -0.03253718                0.08959710                0.00239586               -0.00021532               -0.03808472
               0.94951250                7.95274127               82.08821932                0.99999999               -0.02724679               -0.02367390                0.09477351                0.00792728                0.00356947               -0.00401009
               1.94923228                7.94386024               82.09239872                0.01000070               -0.15587700               -0.21496952                0.10073479                0.41658776                0.04503201               -0.00826346
               2.94639496                7.94022192               82.09735508                0.01000000               -0.07943655               -0.51671295                0.10925956                0.82225620                0.09133007               -0.02651902
               3.94764355                7.93875634               82.10233627                0.01000000                0.13186581               -1.03642846                0.11577132                1.44385556                0.08913438               -0.06227563
               4.94903227                7.94778419               82.10745024                0.01000000                0.03693135               -0.40831500                0.11940817                2.01077681                0.10145466               -0.00915361
               5.94838218                7.95890625               82.11285759                0.01000001               -0.03340064               -0.18869630                0.12133136                1.90527093                0.11812977                0.00590458
               6.94836426                7.96757499               82.11832170                0.01000002                0.05207420               -0.14454900                0.12493603                1.71406775                0.12785055                0.03445401
               7.94942366                7.97305262               82.12402609                0.01000000                0.05154684               -0.04868572                0.12991429                1.55306562                0.11810617                0.10193914
               8.94939520                7.97319939               82.12949637                0.01000000               -0.13027190                0.33414192                0.13867996                1.16037033                0.07345018                0.28721802
               9.94681822                7.96330302               82.13447113                0.01000002               -0.25769772                0.78145556                0.15147630                0.71488174                0.05007341                0.35534322
              -0.04123270                8.96144600               82.08595664                1.00000000               -0.02980451               -0.03169972                0.09619917                0.00049136                0.00029904               -0.02430032
               0.95846926                8.95246997               82.09019218                0.99999998               -0.03091213               -0.02915136                0.10228589               -0.00017943                0.00324823               -0.00529798
               1.95814906                8.94354040               82.09446073                0.99999999               -0.03228090               -0.03251571                0.10892393                0.00134483                0.01211217                0.00781373
               2.95782364                8.93466351               82.09886083                0.99999999               -0.03444751               -0.29593297                0.11883701                0.12854891                0.01360724               -0.01863325
               3.95746011                8.92580802               82.10317808                0.01000000               -0.06420862               -0.66651171                0.12705670                1.42471002                0.12720977               -0.04707364
               4.95653947                8.94447788               82.10987625                0.01000001               -0.15672861               -0.17425353                0.12635290                1.73441663                0.21005869               -0.01564718
               5.95432554                8.95738043               82.11597296                0.01000002               -0.06780841               -0.12414644                0.12937175                1.17226255                0.17958210               -0.00542542
               6.95518330                8.96592179               82.12212515                0.01000001                0.26060903               -0.19342637                0.13372679                0.97205295                0.19070161                0.01515799
               7.95953772                8.97185388               82.12868573                0.01000538                0.53810784               -0.23802066                0.14010759                1.04250615                0.27775443                0.06765722
               8.96594546                8.97684750               82.13706952                0.99999997                0.29649719                0.15855765                0.14760842                1.08151138                0.16199604                0.18744205
               9.96546766                8.97406196               82.14206614                0.99999999               -0.04777939                0.50973974                0.17377050                0.79323763               -0.00745982                0.17371136
              -0.03226089                9.96113598               82.08793154                1.00000000               -0.03245987               -0.03100207                0.10383267               -0.00059260               -0.00745709               -0.01453294
               0.96741451                9.95215825               82.09218919                0.99999997               -0.03367382               -0.03117222                0.10978460               -0.00177718               -0.00516784               -0.00303078
               1.96706564                9.94320993               82.09644636                1.00000000               -0.03580985               -0.03304738                0.11487003               -0.00109172               -0.00198291                0.00402907
               2.96669832                9.93430326               82.10073391                0.99999999               -0.03711301               -0.03602501                0.12045210               -0.00172341                0.00029937               -0.00072603
               3.96632338                9.92542610               82.10502173                0.06226046               -0.72750634               -0.03819175                0.12723882                1.38611964                0.14889107                0.00160448
               4.95214819                9.94429912               82.11229325                0.01000002               -0.79699296               -0.01787634                0.13138453                1.11073319                0.30038321               -0.01493843
               5.95038352                9.95642332               82.11900578                0.01000000                0.05918414               -0.09571174                0.13740788                0.57616531                0.25978318               -0.00508145
               6.95333187                9.96370646               82.12563527                0.01000000                0.44822785               -0.22153262                0.14471736                0.40830181                0.26260973                0.00907069
               7.95934807                9.96829220               82.13287511                0.01000001                0.77427372               -0.35616777                0.15460221                0.61423978                0.30848598                0.05911695
               8.96881735                9.97637055               82.14104110                0.99999999                0.44529877               -0.04769514                0.17326212                0.54746987                0.16552785                0.00705973
               9.96825405                9.97349782               82.14603771                0.99999998               -0.05632982               -0.05641430                0.19942422               -0.00863415                0.00715686               -0.00715611
              -0.12757031               -0.03748116               83.06565072                0.99631157               -0.01957849               -0.02033498                0.07508411               -0.00053403                0.00332223                0.00426656
               0.87223391               -0.04202471               83.06814153                0.90684407               -0.01757808               -0.02511266                0.07591058                0.00070040                0.00206596                0.00549183
               1.87207813               -0.04642084               83.07061631                0.37282230                0.00837972               -0.02326317                0.08178174                0.04195715               -0.01091242                0.00305037
               2.87240150               -0.04982604               83.07297409                0.17587024                0.09073273               -0.02142783                0.12311127                0.16072766               -0.06851005                0.01445091
               3.87389279               -0.04908029               83.07510629                0.10849709                0.06671189                0.02674014                0.12697110                0.29186154                0.01851091                0.03292321
               4.87373574               -0.03994645               83.07919782                0.12530897               -0.17714832                0.04554045                0.10318067                0.17146148                0.15885998               -0.04393134
               5.87034982               -0.03296413               83.08285144                0.99838969               -0.18399459               -0.02688041                0.08628689                0.25303798                0.01091309                0.01913240
               6.87005585               -0.03103985               83.08549612                1.00000000               -0.03131151               -0.02708367                0.08768313                0.00018169               -0.04728727               -0.00308005
               7.86972359               -0.02918808               83.08792395                0.99999999               -0.03240316               -0.02660233                0.08967771                0.00093814               -0.05399388                0.00745541
               8.86940779               -0.02743905               83.09033700                1.00000000               -0.02984349               -0.02813807                0.08947180               -0.00060853               -0.04146995                0.00052765
               9.86912672               -0.02569693               83.09292839                1.00000000               -0.02810658               -0.02881738                0.09032482               -0.00190299               -0.02957038               -0.02276100
              -0.12303209                0.96231549               83.06767747                1.00000000               -0.02571534               -0.01993821                0.08063093               -0.00014435                0.00249470                0.00452426
               0.87671075                0.95772416               83.07016236                0.01000000               -0.02847706               -0.02696724                0.07792559                0.00772880                0.00720951                0.00862217
               1.87639837                0.95334652               83.07269080                0.01000001               -0.06861250               -0.00165857                0.07893943                0.04796242                0.04972402                0.08953448
               2.87533850                0.94995968               83.07590964                0.01000000               -0.22633814                0.07517097                0.06832155                0.23345363                0.16465883                0.06156049
               3.87187160                0.95118711               83.07950013                0.01000002               -0.39731147                0.14097316                0.06062275                0.65783225                0.17158695               -0.01201742
               4.86739228                0.96050896               83.08257696                0.01000000               -0.17223521               -0.07004038                0.09708528                0.79157311                0.06455610               -0.00499668
               5.86842690                0.96676706               83.08610314                0.01000001                0.03886817               -0.19220887                0.09429827                0.45518729                0.06090878                0.04958628
               6.86816964                0.96868932               83.08895855                0.10378170               -0.02471631                0.00571372                0.09355135                0.00673788                0.02397092                0.13627548
               7.86793257                0.97054590               83.09184443                1.00000000               -0.02567573               -0.02787910                0.09664599                0.00553751                0.00948120                0.01646782
               8.86765612                0.97227957               83.09446730                0.99999999               -0.02835042               -0.02979780                0.09786746               -0.00082370               -0.00393853                0.00477266
               9.86736557                0.97401490               83.09707826                0.99999999               -0.02905588               -0.03038920                0.09869099               -0.00226762               -0.00309290               -0.02340934
              -0.11839053                1.96212008               83.06969328                0.55978935               -0.02520192               -0.01639051                0.09061771                0.00882785                0.00205425                0.00389879
               0.88135745                1.95743594               83.07222165                0.01000001               -0.04038055               -0.03610386                0.07964371                0.04743479                0.09267797                0.02331156
               1.88080186                1.95354599               83.07660498                0.01000001               -0.10637290               -0.01815340                0.01380497                0.23702500                0.19029646                0.13152904
               2.87922999                1.95167738               83.08019769                0.01000000               -0.21508529                0.10106542                0.05718345                0.56187586                0.11618347                0.10634790
               3.87650015                1.95373917               83.08356058                0.01000000               -0.26213724                0.13013640                0.12942640                0.97580327                0.12621330                0.07681955
               4.87398725                1.95865275               83.08684104                0.01000001               -0.26134729               -0.14264383                0.11916832                1.18665368                0.10703082                0.09176365
               5.87127321                1.96319169               83.09001592                0.01008500               -0.37877382               -0.21655521                0.11603863                1.00796435                0.13236221                0.10103426
               6.86641177                1.96907443               83.09523527                0.01001605               -0.25145591               -0.12808066                0.15998887                0.67145571               -0.07412795                0.18727881
               7.86624409                1.97025434               83.09595354                0.01000001               -0.02447310               -0.15208654                0.10578770                0.22247210               -0.06929858                0.06657500
               8.86592231                1.97196499               83.09866241                1.00000000               -0.03166923               -0.03233513                0.10611277               -0.00051378                0.02013233                0.02468041
               9.86561070                1.97369529               83.10117377                1.00000000               -0.03116051               -0.03284375                0.10561351               -0.00191177                0.01060405               -0.02098983
              -0.11348726                2.96198768               83.07174705                0.19239517               -0.02791944                0.05976268                0.11375857                0.14420351                0.00280255               -0.00397161
               0.88623354                2.95700208               83.07447240                0.01000000                0.01923467               -0.16142747                0.07722903                0.20622485                0.12787951                0.08993101
               1.88689743                2.95298346               83.07982435                0.01000000                0.00746477               -0.13254049                0.04465836                0.55232358                0.19668036                0.10201165
               2.88638284                2.95198099               83.08387775                0.01000000               -0.12425644               -0.03726341                0.06782831                0.89574779                0.14951916                0.10262557
               3.88441230                2.95378984               83.08742246                0.01000001               -0.23550042               -0.03657896                0.08734054                1.19391293                0.12730647                0.11008952
               4.88167283                2.95765608               83.09098377                0.01000000               -0.31238979               -0.08572804                0.10124680                1.34300781                0.11396665                0.11940063
               5.87816451                2.96243596               83.09466784                0.01000001               -0.35683629               -0.07724452                0.11207231                1.29938900                0.06721195                0.14032771
               6.87453610                2.96612770               83.09772822                0.01000000               -0.43365270               -0.16128609                0.12568382                1.11995027                0.06896410                0.04211831
               7.86949145                2.96750417               83.10090138                0.01000000               -0.51656026               -0.06715865                0.12425186                0.75109929                0.03557390                0.10212015
               8.86420490                2.97163287               83.10317538                1.00000000               -0.28123571               -0.03450194                0.11478161                0.12103399                0.00423808                0.03165738
               9.86386674                2.97335802               83.10533647                0.99999996               -0.03381610               -0.03430770                0.11114880               -0.00184227               -0.00239352               -0.01333317
              -0.10553526                3.96331533               83.07375134                0.10637543                0.00214341                0.11470824                0.15374287                0.34289935                0.02197035                0.04972941
               0.89448617                3.95420739               83.07765953                0.01000001                0.12023432               -0.38228298                0.05781383                0.66628310                0.06903588                0.23356324
               1.89686942                3.95089518               83.08305062                0.01000000                0.09261991               -0.19182973                0.05743844                0.98804673                0.14371395                0.09703577
               2.89633857                3.95093211               83.08734336                0.01000001               -0.10830528               -0.14242390                0.06672594                1.20586569                0.09975215                0.09030550
               3.89470332                3.95300759               83.09129609                0.01000000               -0.20686442               -0.11987691                0.08244575                1.42277476                0.09297863                0.10641792
               4.89220128                3.95693819               83.09513411                0.01000001               -0.29569765               -0.09931939                0.09435912                1.59460575                0.08811646                0.11175646
               5.88878937                3.96164680               83.09884086                0.01000000               -0.42293563               -0.06649316                0.10571414                1.64064932                0.08370985                0.10023415
               6.88374257                3.96584871               83.10239921                0.01000001               -0.65142260                0.01283382                0.11595262                1.53333515                0.07023344                0.10771493
               7.87576091                3.96891117               83.10556165                0.01000000               -1.06267187                0.14091921                0.12226484                1.43651078                0.02085648                0.09117528
               8.86248913                3.97127495               83.10751236                0.01000000               -0.68186862               -0.09844305                0.12307220                1.46742878                0.00512658                0.10677697
               9.86212354                3.97300914               83.10956542                0.06253709               -0.03655904               -0.82341799                0.11809257                1.47147107                0.00752990                0.12413239
              -0.08841340                4.96428185               83.07761657                0.11565720                0.03927584               -0.16156864                0.11720800                0.17400590               -0.01820144                0.17496888
               0.91197936                4.94935642               83.08137502                0.01000000               -0.08264772               -0.15272680                0.08984435                0.89686168                0.03318355                0.18009277
               1.90993365                4.94914686               83.08625283                0.01000001               -0.17958113               -0.16962575                0.07397808                1.28595413                0.10399764                0.08856705
               2.90838774                4.94913251               83.09066673                0.01000000               -0.15359629               -0.21329648                0.08013199                1.33107461                0.08460413                0.07493175
               3.90686172                4.95139230               83.09488565                0.01000001               -0.17310003               -0.22145450                0.08868722                1.57882228                0.07831591                0.07879094
               4.90492574                4.95566969               83.09899670                0.01000000               -0.23973747               -0.17499826                0.09767857                1.81341816                0.07735204                0.07881587
               5.90206697                4.96110610               83.10301143                0.01000000               -0.34936482               -0.08625236                0.10602871                1.95260850                0.07467025                0.07732513
               6.89793844                4.96638438               83.10685848                0.01000000               -0.46357758                0.01287445                0.11430276                2.01223024                0.06527994                0.07685043
               7.89279542                4.97032255               83.11037999                0.01000000               -0.42414675                0.02786824                0.12209922                1.99866562                0.05124093                0.09293834
               8.88945550                4.96966400               83.11356154                0.01000001               -0.14838117               -0.24079351                0.12620519                1.76180698                0.03011351                0.17863571
               9.88982780                4.95688966               83.11649674                0.01004671                0.03722917               -0.97527754                0.12768385                1.15340207                0.01055284                0.28835607
              -0.07220430                5.96008396               83.08121048                0.90710513               -0.02373132               -0.22260826                0.07059032                0.36497184                0.01056095                0.04615552
               0.92755839                5.95115286               83.08504211                0.01000001               -0.24916418                0.07769528                0.08862635                0.59637748                0.02545652                0.08306675
               1.92281242                5.94750266               83.08917968                0.01000002               -0.34218810               -0.17024920                0.09420302                0.95187405                0.06014683                0.05535108
               2.92071463                5.94666618               83.09371181                0.01000001               -0.15349189               -0.31720016                0.09493640                1.25253723                0.07689032                0.05171272
               3.91974258                5.94857850               83.09817821                0.01000000               -0.09793899               -0.36549576                0.09930316                1.60463126                0.07291874                0.05129951
               4.91875585                5.95343822               83.10259226                0.01000000               -0.13078656               -0.29259873                0.10471462                1.94391400                0.07055424                0.04981461
               5.91712685                5.95992175               83.10695568                0.01000000               -0.19925643               -0.16070513                0.11025878                2.12928047                0.06892618                0.04902811
               6.91477072                5.96610620               83.11122383                0.01000000               -0.23361238               -0.06209225                0.11660969                2.13164487                0.06476069                0.05912550
               7.91245460                5.96946853               83.11532991                0.01000001               -0.18062805               -0.06954865                0.12325490                1.88163875                0.05058147                0.09789322
               8.91115816                5.96645908               83.11920093                0.01000001               -0.08571699               -0.16990984                0.13015348                1.17722306                0.02727569                0.16888633
               9.91074026                5.95350358               83.12281077                0.01000000               -0.04178952               -0.10038462                0.13506163                0.58131095                0.01166374                0.27288359
              -0.06325176                6.95982968               83.08314652                1.00000000               -0.02600354               -0.02714641                0.07975374                0.00104262               -0.00046039               -0.03857222
               0.93648821                6.95091033               83.08711690                0.01000001               -0.16452192               -0.02400837                0.09165366                0.18726460                0.03148281               -0.00065041
               1.93345780                6.94574188               83.09172072                0.01002663               -0.20627824               -0.28038489                0.10120945                0.70829498                0.07144490                0.00171656
               2.93236264                6.94278851               83.09633731                0.01000000               -0.06377486               -0.42485788                0.10686437                0.99695608                0.07453923                0.01758871
               3.93218231                6.94408238               83.10109748                0.01000001                0.00490618               -0.60129934                0.11062309                1.53657664                0.07611381                0.02115686
               4.93246076                6.94981772               83.10585790                0.01000000               -0.00988500               -0.41562251                0.11345832                1.98907394                0.07252593                0.01886262
               5.93198461                6.95789199               83.11064921                0.01000000               -0.07181034               -0.21145204                0.11700983                2.11314435                0.07459286                0.02612376
               6.93102456                6.96514254               83.11548634                0.01000001               -0.09546498               -0.10830029                0.12115826                2.01268528                0.07388435                0.04549945
               7.93007531                6.96893158               83.12026455                0.01000000               -0.10298229               -0.01606836                0.12702238                1.68012037                0.06203692                0.10240679
               8.92896491                6.96626581               83.12486767                0.01000000               -0.13551459                0.13754075                0.13433457                0.98083756                0.03584641                0.18673582
               9.92736501                6.95488197               83.12911817                0.01000000               -0.15998978                0.30468361                0.14315849                0.43820452                0.01964827                0.29727583
              -0.05434474                7.95954103               83.08499354                0.99999999               -0.02637761               -0.02899727                0.08549423                0.00110139                0.00120611               -0.03796640
               0.94539148                7.95067269               83.08916950                1.00000000               -0.02775601               -0.02572014                0.09490412                0.00440247                0.00540409               -0.00526534
               1.94510014                7.94189496               83.09342291                0.01000000               -0.15391191               -0.20855152                0.10395256                0.39729989                0.04817903               -0.00639887
               2.94231324                7.93816902               83.09847076                0.01000000               -0.08276186               -0.50052860                0.11490669                0.79335253                0.09222915               -0.01940769
               3.94344490                7.93655251               83.10350741                0.01000000                0.12072355               -1.00417869                0.12058864                1.39846030                0.08601713               -0.05203562
               4.94472772                7.94512577               83.10865844                0.01000000                0.03100099               -0.39585074                0.12347261                1.94410289                0.09453118               -0.00430168
               5.94406492                7.95569271               83.11408744                0.01000001               -0.03714384               -0.18399102                0.12520743                1.83855026                0.10833018                0.00666411
               6.94398484                7.96394019               83.11958629                0.01000001                0.04344079               -0.13931382                0.12827211                1.65420940                0.11729506                0.03005431
               7.94493374                7.96914716               83.12534237                0.01000000                0.04198376               -0.04578670                0.13310576                1.49655599                0.10822924                0.09198187
               8.94482451                7.96920990               83.13089705                0.01000001               -0.13308570                0.32777419                0.14161758                1.11148076                0.06756949                0.27480933
               9.94227202                7.95959726               83.13599592                0.01000002               -0.25524909                0.75027896                0.15394269                0.68376918                0.04817092                0.35470605
              -0.04549305                8.95924973               83.08688770                1.00000000               -0.02846290               -0.02873748                0.09009175                0.00013908                0.00080086               -0.02594708
               0.95422232                8.95039593               83.09120090                0.99999998               -0.02997425               -0.02891755                0.09948064               -0.00031283                0.00401125               -0.00529089
               1.95390747                8.94157085               83.09555134                1.00000000               -0.03250906               -0.03270041                0.10920441                0.00065163                0.01434332                0.00966695
               2.95357214                8.93277794               83.10006177                1.00000000               -0.03563509               -0.28780941                0.12155817                0.12426362                0.01658437               -0.01506643
               3.95319476                8.92399881               83.10447510                0.01000000               -0.06847577               -0.64752321                0.13265554                1.38336044                0.12399165               -0.03945787
               4.95220263                8.94190070               83.11116252                0.01000001               -0.16267863               -0.16933047                0.13203729                1.67964918                0.20134438               -0.01184964
               5.94994119                8.95421217               83.11728971                0.01000001               -0.07741662               -0.11955522                0.13481446                1.13234502                0.17067996               -0.00454715
               6.95065429                8.96235626               83.12348127                0.01000000                0.23977626               -0.18537728                0.13804511                0.93868701                0.17959750                0.01318028
               7.95473672                8.96801584               83.13010165                0.01000002                0.50450706               -0.22672172                0.14334653                1.00832397                0.26337034                0.06164108
               8.96074443                8.97282129               83.13855162                0.99999998                0.27644828                0.15657101                0.14880432                1.04038660                0.15268217                0.17883053
               9.96026568                8.96988755               83.14380073                0.99999999               -0.04787519                0.48645921                0.17315026                0.75293531               -0.00745560                0.17152513
              -0.03663434                9.95896628               83.08892511                1.00000000               -0.03015464               -0.02834553                0.09503898               -0.00132338               -0.00941865               -0.01634711
               0.96306411                9.95009434               83.09325807                1.00000000               -0.03172493               -0.03015882                0.10416303               -0.00208715               -0.00756638               -0.00295549
               1.96273116                9.94124095               83.09758370                1.00000000               -0.03467783               -0.03298937                0.11263714               -0.00170564               -0.00479044                0.00499524
               2.96237056                9.93241283               83.10194349                1.00000000               -0.03709101               -0.03651009                0.12137598               -0.00210367               -0.00201625               -0.00103481
               3.96198934                9.92360205               83.10631393                0.09316029               -0.71316105               -0.03967591                0.13110735                1.34577397                0.14532711                0.00260286
               4.94810734                9.94173916               83.11363280                0.01000002               -0.78665366               -0.01615441                0.13765682                1.07544886                0.29689959               -0.01146297
               5.94625627                9.95330161               83.12040482                0.01000000                0.04237859               -0.09105659                0.14364392                0.55618175                0.25539751               -0.00423167
               6.94895491                9.96023264               83.12710525                0.01000000                0.41894582               -0.21236150                0.15000419                0.39561758                0.25679632                0.00919755
               7.95463518                9.96461273               83.13443357                0.01000001                0.74028154               -0.34031146                0.15797020                0.59528046                0.30335691                0.05697656
               8.96376054                9.97234132               83.14277681                0.99999999                0.42815125               -0.04799723                0.17388003                0.53729597                0.16176630                0.00706034
               9.96319821                9.96932644               83.14802592                1.00000000               -0.05623292               -0.05611107                0.19822599               -0.00823516                0.00715510               -0.00715462
              -0.13002889               -0.03948416               84.06634924                0.96902395               -0.01933643               -0.01893865                0.06773529                0.00116848                0.00465011                0.00620892
               0.86977775               -0.04401698               84.06889674                0.88663656               -0.01921289               -0.02482996                0.07628333                0.00131502                0.00784796                0.00249674
               1.86958686               -0.04844674               84.07149275                0.40644068               -0.00762157               -0.02785992                0.09162495                0.02266764                0.02738100                0.00225075
               2.86962532               -0.05235018               84.07444943                0.16884072                0.06854129               -0.03692129                0.14666291                0.15696215                0.01396168               -0.00053986
               3.87095768               -0.05274829               84.07706973                0.09692027                0.09331659               -0.01163211                0.23133047                0.36420494                0.03599699                0.01519193
               4.87149165               -0.04376180               84.08067175                0.10883434               -0.18112026                0.03325579                0.19413630                0.17231187                0.06186045                0.00749592
               5.86733528               -0.03608374               84.08372017                0.99927408               -0.22185050               -0.02894660                0.08783073                0.30941755               -0.01318836                0.01617546
               6.86705464               -0.03455911               84.08636496                1.00000000               -0.02908732               -0.02812981                0.08638966               -0.00093229               -0.04338581               -0.00150773
               7.86675353               -0.03305817               84.08880033                1.00000000               -0.02914334               -0.02689579                0.08584794               -0.00063527               -0.05351117                0.00930000
               8.86647177               -0.03160141               84.09120294                1.00000000               -0.02671281               -0.02694346                0.08357269               -0.00134039               -0.04327604                0.00116148
               9.86621927               -0.03012616               84.09378900                1.00000000               -0.02524990               -0.02641355                0.08144500               -0.00283147               -0.03142463               -0.02436726
              -0.12548438                0.96032645               84.06844957                1.00000000               -0.02434278               -0.01919346                0.07505258                0.00002234                0.00125312                0.00991713
               0.87427219                0.95573472               84.07095396                0.01000001               -0.02677414               -0.02631734                0.08076592                0.00299487                0.00570473                0.00433001
               1.87398013                0.95127466               84.07354078                0.01000002               -0.04632354               -0.01182269                0.09030439                0.01556066                0.03762250                0.07092895
               2.87334572                0.94728061               84.07669811                0.01000000               -0.18372959                0.06517327                0.08860028                0.15929587                0.10005395                0.08118160
               3.87030554                0.94713539               84.08008303                0.01000000               -0.42316121                0.16652934                0.06876755                0.61924367                0.15683159                0.05743789
               4.86488249                0.95657076               84.08372229                0.01000000               -0.22387162               -0.04081799                0.13794419                0.82395114                0.10784798                0.05577587
               5.86582811                0.96362679               84.08711035                0.01000000                0.03250186               -0.19364179                0.10555079                0.48608790                0.05011381                0.06391084
               6.86553253                0.96515959               84.08993925                0.21382935               -0.02798912               -0.00577967                0.10161854                0.00494680                0.02163359                0.11472925
               7.86526833                0.96667287               84.09281568                1.00000000               -0.02700819               -0.02877970                0.09772326                0.00291089                0.00918820                0.01905953
               8.86499237                0.96812916               84.09543078                0.99999998               -0.02763063               -0.02884350                0.09491389               -0.00092441               -0.00421494                0.00551603
               9.86471571                0.96960970               84.09803421                0.99999999               -0.02766528               -0.02829500                0.09247063               -0.00252727               -0.00342494               -0.02535439
              -0.12084498                1.96013197               84.07058898                0.58035226               -0.02655852               -0.01758084                0.08809912                0.00733658                0.00165368                0.02269278
               0.87888944                1.95545668               84.07306126                0.01001010               -0.04014190               -0.03341675                0.08677638                0.02974553                0.07542888                0.01465967
               1.87835218                1.95131681               84.07703155                0.01000001               -0.09694617               -0.02244008                0.05452730                0.18249180                0.13572208                0.11565041
               2.87695051                1.94895329               84.08074124                0.01000000               -0.21498897                0.10693359                0.05830363                0.47879411                0.12407809                0.13880552
               3.87405240                1.95058229               84.08439050                0.01000000               -0.27356232                0.19574584                0.07881578                0.89765077                0.10698064                0.13112302
               4.87147927                1.95542184               84.08790872                0.01000001               -0.27921003               -0.09265389                0.10422395                1.18075653                0.10397212                0.11910794
               5.86846820                1.96004342               84.09149409                0.01000001               -0.36858861               -0.21811951                0.13552967                0.98224404                0.13983718                0.11603171
               6.86410749                1.96532530               84.09585484                0.01000002               -0.23130108               -0.11787800                0.06713883                0.63778622                0.04662275                0.08158801
               7.86384218                1.96636624               84.09702721                0.01000000               -0.02955186               -0.14738846                0.10940033                0.21839180               -0.04497243                0.06999250
               8.86351646                1.96782172               84.09972128                0.99999999               -0.03172715               -0.03220934                0.10608292               -0.00040055                0.02053699                0.02560991
               9.86320764                1.96930794               84.10221356                1.00000000               -0.03088182               -0.03162034                0.10254881               -0.00224391                0.01074599               -0.02406565
              -0.11598706                2.95997484               84.07291392                0.20645315               -0.03306769                0.03871664                0.11757032                0.10998226                0.00462431                0.05237462
               0.88368226                2.95506639               84.07534695                0.01000000                0.00602104               -0.12191780                0.09496588                0.14389880                0.12385927                0.05885854
               1.88413336                2.95082586               84.08023994                0.01000000               -0.00130729               -0.13045735                0.05171145                0.48188834                0.18960774                0.11007598
               2.88365612                2.94941928               84.08443981                0.01000000               -0.11716782               -0.02255427                0.06020895                0.82904852                0.13257366                0.11807610
               3.88179000                2.95105030               84.08829790                0.01000001               -0.23098097               -0.01215340                0.08502674                1.14952584                0.11450546                0.12166464
               4.87903650                2.95471768               84.09205498                0.01000000               -0.31102328               -0.07017101                0.10587681                1.30176130                0.11266777                0.12014048
               5.87556954                2.95926440               84.09581044                0.01000001               -0.35355278               -0.07985015                0.11600567                1.27892657                0.10358570                0.10055060
               6.87196544                2.96280203               84.09920410                0.01000000               -0.42148998               -0.15011020                0.13517700                1.07325152                0.06582246                0.03340289
               7.86713974                2.96372510               84.10208688                0.01000000               -0.49613918               -0.06603151                0.11889966                0.71222151                0.02643491                0.10390606
               8.86204266                2.96748497               84.10433923                1.00000000               -0.27206662               -0.03545885                0.11818323                0.11477463                0.00495771                0.03269456
               9.86169840                2.96897730               84.10645497                0.99999993               -0.03442520               -0.03426153                0.11210202               -0.00218018               -0.00248637               -0.01658507
              -0.10882844                3.96090630               84.07562167                0.10190595               -0.02551773                0.11175748                0.19399417                0.40355423               -0.00405913                0.08778798
               0.89091639                3.95301832               84.07834709                0.01000000                0.12327472               -0.37443405                0.08193894                0.61452012                0.10615921                0.19714652
               1.89363706                3.94870766               84.08360423                0.01000000                0.11953282               -0.19116905                0.06097826                0.88986923                0.18471133                0.11920648
               2.89330704                3.94850220               84.08800748                0.01000001               -0.09462694               -0.13444993                0.06961330                1.14755456                0.12933836                0.11050901
               3.89174452                3.95033923               84.09212221                0.01000000               -0.20033247               -0.11484853                0.08626628                1.36152282                0.11031222                0.11017799
               4.88930039                3.95401842               84.09611439                0.01000000               -0.28910668               -0.09984716                0.10168614                1.53510191                0.10274423                0.10363090
               5.88596239                3.95844642               84.09997385                0.01000000               -0.40942856               -0.07345898                0.11564492                1.58052172                0.09252629                0.08764861
               6.88111182                3.96232309               84.10358698                0.01000000               -0.62793565               -0.00481648                0.12344280                1.47644394                0.07951356                0.08069744
               7.87340367                3.96504561               84.10681608                0.01000000               -1.02760314                0.13024207                0.12805305                1.37888106                0.02507554                0.08245123
               8.86055976                3.96711254               84.10878043                0.01000001               -0.66121434               -0.09756339                0.13022121                1.41138639                0.00892997                0.10382401
               9.86017939                3.96862271               84.11077525                0.20005482               -0.03803736               -0.79325705                0.12281394                1.41604193                0.00892324                0.12204986
              -0.09214001                4.96220999               84.07912597                0.11217089                0.03113149               -0.15621631                0.17144270                0.17629221                0.00622250                0.08274400
               0.90817130                4.94757771               84.08240011                0.01000000               -0.07065639               -0.19787153                0.12238330                0.87998826                0.06866038                0.20667462
               1.90644686                4.94700248               84.08699149                0.01000001               -0.15978310               -0.16780035                0.07786631                1.22978979                0.12352255                0.11548090
               2.90497564                4.94673028               84.09145999                0.01000000               -0.14713116               -0.20682115                0.08345203                1.27174221                0.10633926                0.09675445
               3.90350424                4.94875333               84.09578678                0.01000000               -0.16721509               -0.21729771                0.09366117                1.51357328                0.09418257                0.08920563
               4.90163134                4.95272074               84.10000270                0.01000000               -0.23144686               -0.17618761                0.10408337                1.73978932                0.08682516                0.07944462
               5.89887530                4.95779522               84.10410744                0.01000001               -0.33681046               -0.09435160                0.11325777                1.87466368                0.08167374                0.06884134
               6.89489513                4.96270570               84.10804110                0.01000000               -0.44736981                0.00123405                0.12136418                1.93042059                0.07042514                0.06610232
               7.88992790                4.96632995               84.11162625                0.01000000               -0.41009230                0.01910786                0.12808850                1.91825477                0.05337856                0.08129946
               8.88669329                4.96553370               84.11485116                0.01000003               -0.14644929               -0.23445664                0.13243352                1.69444672                0.03240952                0.16742366
               9.88699892                4.95311215               84.11780026                0.01000002                0.03056339               -0.93805528                0.13446523                1.11012038                0.01241446                0.28775385
              -0.07603803                5.95778198               84.08191651                0.95465592               -0.02383097               -0.23338688                0.07043237                0.37049182                0.00777194                0.01087722
               0.92372366                5.94906089               84.08594087                0.01000000               -0.24408433                0.06126738                0.09017105                0.59273994                0.01746034                0.06955601
               1.91908028                5.94535166               84.09016354                0.01000001               -0.33663102               -0.16857953                0.10528199                0.91822356                0.06430526                0.08163069
               2.91699104                5.94436578               84.09468311                0.01000001               -0.15273756               -0.30698479                0.10001339                1.20273093                0.08117597                0.06970517
               3.91602553                5.94599327               84.09918796                0.01000000               -0.09683733               -0.35613991                0.10422663                1.53858043                0.07703664                0.06335691
               4.91505429                5.95049467               84.10366015                0.01000001               -0.12774157               -0.28827427                0.10963126                1.86537015                0.07274574                0.05321901
               5.91347070                5.95655939               84.10808032                0.01000000               -0.19343896               -0.16250742                0.11520529                2.04260676                0.06899929                0.04495105
               6.91118551                5.96234777               84.11241232                0.01000000               -0.22649649               -0.06726996                0.12137473                2.04419519                0.06369316                0.05040924
               7.90894077                5.96542776               84.11658810                0.01000001               -0.17595122               -0.07333350                0.12837152                1.80539766                0.05142332                0.08427036
               8.90766649                5.96242341               84.12052801                0.01000001               -0.08579382               -0.16652211                0.13585580                1.12961575                0.02848956                0.15715581
               9.90722489                5.94986160               84.12418964                0.01000000               -0.04415954               -0.09594680                0.14209146                0.55733527                0.01219674                0.26835561
              -0.06728800                6.95754225               84.08393189                1.00000000               -0.02555765               -0.02562521                0.07729519                0.00045322               -0.00004015               -0.03321549
               0.93245642                6.94880305               84.08804328                0.01000001               -0.16027791               -0.02544611                0.09261611                0.17780988                0.03093383               -0.00457260
               1.92950644                6.94363089               84.09276609                0.01000001               -0.20338904               -0.27250021                0.11148549                0.68009230                0.06972487                0.00301843
               2.92838864                6.94059059               84.09744596                0.01000000               -0.06797437               -0.41282408                0.11610419                0.95818245                0.06922302                0.03108140
               3.92814696                6.94163053               84.10223116                0.01000000               -0.00080083               -0.58276370                0.11575499                1.47576766                0.07168787                0.03180070
               4.92837263                6.94695525               84.10701255                0.01000000               -0.01363113               -0.40505699                0.11814470                1.91015549                0.06744262                0.02414364
               5.92787433                6.95454507               84.11183751                0.01000000               -0.07309848               -0.20801811                0.12077650                2.02776417                0.06897027                0.02409411
               6.92691066                6.96136030               84.11671467                0.01000001               -0.09570572               -0.10833139                0.12445553                1.92939648                0.06884802                0.03790389
               7.92596022                6.96486328               84.12155422                0.01000001               -0.10294472               -0.01863014                0.13059213                1.60898383                0.05876457                0.08936090
               8.92485176                6.96220326               84.12623503                0.01000003               -0.13454865                0.12941109                0.13912015                0.93782456                0.03451213                0.17410775
               9.92326925                6.95119322               84.13057588                0.01000000               -0.15825179                0.29264916                0.14894668                0.41694572                0.01972250                0.29121121
              -0.05855058                7.95726947               84.08582881                1.00000000               -0.02582064               -0.02733802                0.08178820                0.00049459                0.00250445               -0.03694424
               0.94119121                7.94855197               84.09011740                1.00000000               -0.02774119               -0.02637365                0.09448765                0.00307979                0.00681533               -0.00671128
               1.94089459                7.93990165               84.09447777                0.01000001               -0.15180849               -0.20289720                0.10677921                0.38129716                0.05086998               -0.00570491
               2.93815504                7.93610930               84.09965322                0.01000811               -0.08591901               -0.48505653                0.12264986                0.76396327                0.09237646               -0.01298690
               3.93917621                7.93433800               84.10474804                0.01000000                0.10939087               -0.97090995                0.12786478                1.34882362                0.08068189               -0.04098875
               4.94034286                7.94239353               84.10991969                0.01000000                0.02223587               -0.38443653                0.12927903                1.87200716                0.08588071                0.00038214
               5.93962093                7.95239903               84.11536174                0.01000001               -0.04438105               -0.17864795                0.12962116                1.76668325                0.09723370                0.00727298
               6.93945524                7.96018114               84.12088714                0.01000001                0.03282768               -0.13469364                0.13152533                1.58543965                0.10612501                0.02504378
               7.94027749                7.96505516               84.12668820                0.01000003                0.03188985               -0.04338849                0.13575225                1.43025264                0.09872114                0.08110940
               8.94009304                7.96501163               84.13232872                0.01000000               -0.13467978                0.31705439                0.14450185                1.05538368                0.06222610                0.25991188
               9.93758389                7.95571458               84.13754998                0.01000002               -0.25091459                0.71346241                0.15707436                0.64784884                0.04618780                0.35013778
              -0.04984309                8.95699549               84.08775848                0.99999999               -0.02710627               -0.02676319                0.08413015               -0.00021996                0.00126737               -0.02697587
               0.94988584                8.94827558               84.09218180                0.99999998               -0.02909245               -0.02835780                0.09667626               -0.00045756                0.00459707               -0.00549183
               1.94957506                8.93957295               84.09664482                1.00000000               -0.03271400               -0.03282716                0.10947260                0.00018431                0.01615684                0.01093622
               2.94923156                8.93088946               84.10129200                0.99999999               -0.03679303               -0.27950811                0.12475641                0.12060525                0.01931483               -0.01238603
               3.94883920                8.92221234               84.10583119                0.01001917               -0.07399097               -0.62687505                0.13893753                1.33707272                0.11969372               -0.03136865
               4.94775174                8.93926652               84.11251700                0.01000003               -0.17094063               -0.16321199                0.13963269                1.62061072                0.18947920               -0.00777825
               5.94542038                8.95097212               84.11866924                0.01000001               -0.08942143               -0.11452787                0.14152439                1.08989971                0.15890962               -0.00270540
               6.94596331                8.95866643               84.12488605                0.01000003                0.21571998               -0.17693438                0.14278323                0.90036036                0.16697883                0.01127538
               7.94973478                8.96399551               84.13155266                0.01000000                0.46683501               -0.21436317                0.14642996                0.96720465                0.24849423                0.05574165
               8.95530001                8.96854435               84.14004561                0.99999999                0.25427692                0.15248704                0.14998630                0.99171230                0.14311155                0.16954944
               9.95482032                8.96546247               84.14552914                0.99999999               -0.04796937                0.45948840                0.17253249                0.70756379               -0.00745182                0.16785165
              -0.04111517                9.95673421               84.08983232                1.00000000               -0.02802299               -0.02612788                0.08658105               -0.00214717               -0.01094550               -0.01769498
               0.95860460                9.94798481               84.09427245                0.99999999               -0.03002123               -0.02907707                0.09883512               -0.00257912               -0.00958161               -0.00301576
               1.95828441                9.93924511               84.09869911                0.99999999               -0.03384216               -0.03278390                0.11041720               -0.00234869               -0.00741140                0.00559751
               2.95792776                9.93051913               84.10316143                0.99999998               -0.03719030               -0.03703204                0.12200333               -0.00261092               -0.00442808               -0.00139649
               3.95754060                9.92180050               84.10764388                0.19521388               -0.69662325               -0.04118383                0.13460841                1.30064832                0.14202324                0.00360123
               4.94399529                9.93912929               84.11504639                0.01000095               -0.77607910               -0.01372329                0.14730346                1.03975363                0.29487241               -0.00892723
               5.94201902                9.95010847               84.12187866                0.01000000                0.02218805               -0.08636473                0.15284940                0.53552200                0.24979801               -0.00299433
               6.94443905                9.95664246               84.12863536                0.01000000                0.38623201               -0.20239721                0.15692262                0.38054555                0.24907888                0.00909228
               7.94974366                9.96076790               84.13603452                0.01006009                0.70106336               -0.32276080                0.16204103                0.57183356                0.29649193                0.05505093
               8.95846032                9.96806137               84.14451870                0.99999995                0.40776350               -0.04829737                0.17449838                0.52285342                0.15709354                0.00706114
               9.95789893                9.96490435               84.15000223                0.99998902               -0.05613924               -0.05581140                0.19704459               -0.00784136                0.00715355               -0.00715347
              -0.13257229               -0.04155763               85.06700543                0.94661223               -0.01803496               -0.01682805                0.06385707                0.00248716                0.00440869                0.00466632
               0.86724736               -0.04608923               85.06966719                0.87044709               -0.01773254               -0.02645313                0.07714038                0.00291566                0.01255170               -0.00170056
               1.86707306               -0.05047188               85.07244881                0.46742962               -0.00717988               -0.03018107                0.09774407                0.02111334                0.05697842                0.00131195
               2.86710376               -0.05433419               85.07590734                0.19870992                0.06586792               -0.03743035                0.13555439                0.15279794                0.11389559               -0.00357754
               3.86839041               -0.05480306               85.07973290                0.11481078                0.06093749               -0.01818478                0.22222146                0.38119266                0.10842244               -0.02725720
               4.86832251               -0.04589762               85.08308054                0.14656213               -0.19987884                0.02851153                0.18872891                0.18904563               -0.12350414                0.05218393
               5.86439284               -0.03942097               85.08460805                1.00000000               -0.21072666               -0.03076666                0.09066936                0.26588948               -0.08169332                0.01251445
               6.86410798               -0.03821858               85.08722392                1.00000000               -0.02887231               -0.02873924                0.08552772               -0.00169062               -0.03858268                0.00087078
               7.86381539               -0.03703278               85.08964091                0.99999998               -0.02771914               -0.02670119                0.08218684               -0.00170385               -0.05101828                0.01075237
               8.86355359               -0.03587150               85.09200845                0.99999999               -0.02446459               -0.02569556                0.07756415               -0.00212529               -0.04298030                0.00150673
               9.86332610               -0.03467469               85.09455729                1.00000000               -0.02274937               -0.02420509                0.07261036               -0.00390885               -0.03168507               -0.02511391
              -0.12801582                0.95827409               85.06917852                0.97378764               -0.02505411               -0.01663978                0.07236201                0.00072948               -0.00050046                0.01247259
               0.87173364                0.95364624               85.07177767                0.01000001               -0.02887546               -0.02873140                0.08412137                0.00641662                0.00382748               -0.00045769
               1.87140667                0.94922631               85.07449689                0.01000000               -0.04681543               -0.01841479                0.09866795                0.02042644                0.02639970                0.05789873
               2.87079733                0.94529151               85.07768164                0.01008400               -0.17113076                0.05229896                0.10247746                0.15188100                0.04204930                0.09423691
               3.86798405                0.94501509               85.08087548                0.01000000               -0.41377037                0.14749077                0.10361569                0.60889293                0.09701664                0.14149368
               4.86252192                0.95438750               85.08533584                0.01000000               -0.23859199               -0.07000848                0.18768826                0.79484312                0.12960908                0.11538730
               5.86321221                0.96027136               85.08821416                0.01000000                0.01875268               -0.18833984                0.11441613                0.44187629                0.02113551                0.05590058
               6.86289698                0.96149402               85.09099092                0.33040561               -0.02937011               -0.01700383                0.10730013                0.00659858                0.01694846                0.09152111
               7.86262481                0.96270020               85.09379889                1.00000000               -0.02718403               -0.02921132                0.09835885                0.00201603                0.00701887                0.02042246
               8.86235330                0.96387154               85.09636558                0.99999998               -0.02673064               -0.02798769                0.09204582               -0.00119182               -0.00452067                0.00586350
               9.86209020                0.96508326               85.09892767                1.00000000               -0.02630951               -0.02660444                0.08664502               -0.00307934               -0.00344895               -0.02680052
              -0.12330200                1.95810958               85.07145526                0.61547033               -0.02745311               -0.01357990                0.08762215                0.01040577                0.00083760                0.04055584
               0.87642347                1.95333614               85.07395718                0.01000001               -0.04308406               -0.03764085                0.09325954                0.03506596                0.06185751                0.00889660
               1.87583632                1.94915983               85.07769553                0.01000001               -0.10354354               -0.03070098                0.07727138                0.17828528                0.11108451                0.10282498
               2.87435260                1.94671179               85.08136376                0.01000000               -0.21820183                0.08923802                0.07457588                0.45829753                0.10239750                0.16566430
               3.87147228                1.94814676               85.08513689                0.01000000               -0.26947470                0.17381616                0.08745269                0.85468025                0.11759436                0.19961855
               4.86896310                1.95270221               85.08892552                0.01000001               -0.26742227               -0.12671352                0.11079257                1.12786027                0.13196950                0.13295010
               5.86612384                1.95681223               85.09272652                0.01000000               -0.35759996               -0.21520769                0.12503647                0.93070075                0.15161828                0.11265922
               6.86181110                1.96144134               85.09657805                0.01000003               -0.23228205               -0.12152039                0.08113979                0.61249472                0.04150428                0.07953637
               7.86147820                1.96238299               85.09814154                0.01000000               -0.03321995               -0.14533940                0.11285551                0.21938070               -0.02305927                0.06865701
               8.86114671                1.96356874               85.10078407                1.00000000               -0.03185569               -0.03219648                0.10648941               -0.00035522                0.02044310                0.02629580
               9.86084108                1.96479322               85.10322474                0.99999998               -0.03056239               -0.03093140                0.09989633               -0.00278618                0.01074220               -0.02682268
              -0.11826084                2.95800249               85.07409845                0.24941835               -0.03544547                0.03747315                0.11645217                0.10082851                0.00553872                0.11063368
               0.88138471                2.95289342               85.07637171                0.01006807               -0.00712156               -0.11194873                0.10680412                0.14065615                0.11570701                0.03635332
               1.88159673                2.94861229               85.08085857                0.01000000               -0.02041782               -0.13160317                0.07460849                0.46248898                0.19062596                0.10227256
               2.88097635                2.94707627               85.08508192                0.01000000               -0.12547469               -0.02948420                0.07586205                0.79669399                0.14893917                0.14184155
               3.87908724                2.94849142               85.08912300                0.01000001               -0.22813485               -0.02122430                0.09108717                1.10536685                0.13362917                0.14640909
               4.87641365                2.95185323               85.09310130                0.01000000               -0.30000667               -0.08195628                0.10994729                1.24586077                0.13407486                0.12835740
               5.87308710                2.95596721               85.09698796                0.01000000               -0.34187709               -0.08547334                0.11968982                1.21269247                0.11991806                0.08812620
               6.86957611                2.95906362               85.10043176                0.01000000               -0.41010390               -0.14078433                0.12322804                1.02528572                0.07820476                0.03527516
               7.86488502                2.95979342               85.10327937                0.01000001               -0.48200741               -0.06810857                0.12192189                0.68773891                0.03284514                0.09866632
               8.85993596                2.96322761               85.10553905                0.99999998               -0.26497499               -0.03646210                0.12197767                0.11165344                0.00877536                0.03413198
               9.85958552                2.96446463               85.10757851                0.99999997               -0.03504382               -0.03441893                0.11231740               -0.00273412               -0.00284326               -0.01966915
              -0.11106729                3.95885904               85.07763122                0.12337454               -0.03059189                0.08196919                0.17471587                0.39499399               -0.01782914                0.14931059
               0.88862679                3.95109717               85.07929831                0.01000000                0.09852716               -0.34986464                0.10866198                0.58855366                0.15305328                0.14221578
               1.89090325                3.94652776               85.08427019                0.01000001                0.08902804               -0.18575638                0.08104521                0.83862089                0.21828388                0.12714104
               2.89040735                3.94612210               85.08873562                0.01000001               -0.10502980               -0.13421457                0.08366632                1.09686905                0.15314739                0.12723606
               3.88880266                3.94772227               85.09302142                0.01000000               -0.20014123               -0.11903752                0.09701500                1.30282060                0.12937786                0.11995557
               4.88640453                3.95106309               85.09716784                0.01000000               -0.28176810               -0.10702007                0.11055674                1.46542103                0.11791855                0.10077212
               5.88316730                3.95510276               85.10115375                0.01000328               -0.39569593               -0.07953794                0.12129112                1.50687543                0.10658912                0.07373017
               6.87849061                3.95862565               85.10486807                0.01000000               -0.60491587               -0.00912646                0.12968426                1.40850395                0.08771989                0.06299317
               7.87106898                3.96102082               85.10812271                0.01000000               -0.98910234                0.11915542                0.13372818                1.31908781                0.03173798                0.07188975
               8.85870856                3.96283950               85.11011679                0.01000000               -0.63783072               -0.09813588                0.13719943                1.35388709                0.01580824                0.09953206
               9.85831236                3.96410484               85.11202170                0.21840242               -0.03961983               -0.76171398                0.12577350                1.35615182                0.00989738                0.12039680
              -0.09483722                4.95964188               85.08104543                0.14658559                0.03242724               -0.16817259                0.15880590                0.17391092                0.03822368               -0.04688842
               0.90548705                4.94589613               85.08382268                0.01000000               -0.09092858               -0.20981807                0.16346068                0.81445304                0.09955331                0.20278014
               1.90334421                4.94489716               85.08781016                0.01000001               -0.18839158               -0.15835461                0.09320715                1.14744391                0.12557574                0.13695866
               2.90171922                4.94439197               85.09233577                0.01000000               -0.15707726               -0.20238946                0.09533493                1.20599413                0.12710900                0.11287040
               3.90020267                4.94611067               85.09675887                0.01000000               -0.16888217               -0.21605030                0.10416445                1.44122323                0.10860141                0.09531224
               4.89834158                4.94971283               85.10107836                0.01000020               -0.22703107               -0.17851659                0.11260426                1.65898244                0.09626684                0.07540464
               5.89566204                4.95437645               85.10527659                0.01000000               -0.32567221               -0.10060296                0.12049167                1.78778138                0.08731645                0.05594698
               6.89182814                4.95888109               85.10928576                0.01000001               -0.43045554               -0.00924213                0.12745518                1.84231380                0.07488577                0.04754235
               7.88705293                4.96217653               85.11294176                0.01000000               -0.39492259                0.01025770                0.13465899                1.83411028                0.05783951                0.06381381
               8.88392968                4.96126489               85.11621021                0.01000001               -0.14375256               -0.23105877                0.14042649                1.62358313                0.03622145                0.15466767
               9.88417788                4.94923035               85.11918604                0.01000001                0.02481986               -0.90048793                0.14528008                1.06397418                0.01577568                0.28818415
              -0.08009758                5.95549559               85.08261913                0.98589395               -0.02418587               -0.21943998                0.07206527                0.30861585                0.00530960               -0.04452128
               0.91966056                5.94690081               85.08684553                0.01000000               -0.22730682                0.03731100                0.09231112                0.53253559                0.01484916                0.03906668
               1.91535629                5.94336067               85.09128532                0.01000000               -0.31734156               -0.17045701                0.10701411                0.86394563                0.07770705                0.10133752
               2.91331373                5.94207432               85.09571208                0.01000000               -0.15250075               -0.29759736                0.11035790                1.13017015                0.08407053                0.08259673
               3.91230627                5.94340126               85.10026275                0.01000002               -0.09976696               -0.34761782                0.11158637                1.46326266                0.08276472                0.07007738
               4.91131839                5.94749275               85.10478489                0.01000000               -0.12758051               -0.28358865                0.11644790                1.77755623                0.07363133                0.05176952
               5.90975466                5.95309071               85.10925979                0.01000000               -0.18907926               -0.16419964                0.12086916                1.94739485                0.06758017                0.03485417
               6.90753681                5.95844081               85.11365133                0.01000000               -0.21936419               -0.07276451                0.12586487                1.94959725                0.06232517                0.03451789
               7.90536738                5.96122597               85.11789734                0.01000000               -0.17052037               -0.07789164                0.13281820                1.72274079                0.05159394                0.06680991
               8.90412640                5.95821832               85.12191805                0.01000000               -0.08532202               -0.16588197                0.14250974                1.07864588                0.02991870                0.14247450
               9.90366094                5.94609508               85.12565260                0.01000000               -0.04654642               -0.09422446                0.15277109                0.53267053                0.01300625                0.26181107
              -0.07147534                6.95525308               85.08469242                1.00000000               -0.02519781               -0.02600164                0.07562395                0.00021427                0.00081354               -0.02790482
               0.92827268                6.94664235               85.08896923                0.01000001               -0.15375230               -0.02504315                0.09269563                0.17266060                0.03605649               -0.00714350
               1.92544961                6.94148802               85.09395043                0.01000001               -0.19953251               -0.27292674                0.14112334                0.65115554                0.05636854                0.01626172
               2.92428203                6.93844003               85.09865939                0.01000000               -0.07000676               -0.40055327                0.11671985                0.91235247                0.06409967                0.03414083
               3.92404948                6.93915831               85.10341258                0.01000000               -0.00393842               -0.56342778                0.12189995                1.40434092                0.06697930                0.04266593
               4.92420326                6.94404105               85.10822079                0.01000001               -0.01937969               -0.39318964                0.12348340                1.82236905                0.06049800                0.02686270
               5.92366189                6.95109246               85.11306474                0.01000000               -0.07592254               -0.20421345                0.12426093                1.93361141                0.06066612                0.01758137
               6.92268481                6.95742580               85.11797545                0.01000000               -0.09658253               -0.10855613                0.12718758                1.83851545                0.06175716                0.02520521
               7.92173023                6.96061869               85.12287640                0.01000001               -0.10256601               -0.02275346                0.13322292                1.53103280                0.05422252                0.07343204
               8.92063349                6.95794725               85.12765007                0.01000001               -0.13262272                0.11896198                0.14345195                0.89040103                0.03303359                0.15864737
               9.91907778                6.94734586               85.13209711                0.01000000               -0.15557126                0.27758327                0.15670841                0.39447681                0.02015175                0.28142411
              -0.06287184                7.95497555               85.08662930                0.99999998               -0.02493347               -0.02731849                0.07835429                0.00048902                0.00394290               -0.03592256
               0.93687883                7.94639994               85.09105925                0.99998361               -0.02732220               -0.02556549                0.09372005                0.00409125                0.00840503               -0.00742880
               1.93658172                7.93790214               85.09555849                0.01000000               -0.14941659               -0.19598962                0.10928636                0.36670466                0.05527635               -0.00944164
               2.93389050                7.93406325               85.10092376                0.01000001               -0.08948272               -0.47090139                0.13282964                0.73603038                0.09366592               -0.01240238
               3.93479207                7.93213271               85.10606470                0.01000001                0.09705660               -0.93413556                0.13515598                1.29399356                0.07111727               -0.02703212
               4.93583163                7.93962896               85.11124402                0.01000000                0.01250400               -0.37113042                0.13480111                1.79123073                0.07265472                0.00698290
               5.93504215                7.94900644               85.11667987                0.01000000               -0.05253737               -0.17256541                0.13255946                1.68645863                0.08377069                0.00532381
               6.93478088                7.95626969               85.12221679                0.01000001                0.02122157               -0.12961239                0.13352253                1.50950523                0.09466335                0.01683527
               7.93546658                7.96077090               85.12805741                0.01000002                0.02131868               -0.04171655                0.13762159                1.35723428                0.08981713                0.06871445
               8.93520726                7.96059756               85.13378708                0.01000001               -0.13566570                0.30375241                0.14661720                0.99362679                0.05718831                0.24304138
               9.93275326                7.95164675               85.13913741                0.01000000               -0.24539926                0.67232363                0.16020716                0.60850790                0.04434970                0.33988891
              -0.05431434                8.95470671               85.08857030                0.99999999               -0.02577372               -0.02554261                0.07822787               -0.00065055                0.00175480               -0.02832240
               0.94542793                8.94613104               85.09313443                0.99999998               -0.02826307               -0.02736125                0.09383495               -0.00058070                0.00519970               -0.00579135
               1.94512040                8.93756823               85.09774079                0.99999995               -0.03279292               -0.03289071                0.10976550                0.00015939                0.01813062                0.01212837
               2.94477207                8.92902200               85.10255690                0.99999351               -0.03783814               -0.27086075                0.12857962                0.11770459                0.02245472               -0.01097729
               3.94436364                8.92047560               85.10725385                0.01000000               -0.08089577               -0.60420111                0.14603141                1.28746149                0.11508159               -0.02180886
               4.94315415                8.93661844               85.11395517                0.01000001               -0.18066532               -0.15635619                0.14859263                1.55519617                0.17526600                0.00079518
               5.94075033                8.94764115               85.12012020                0.01000000               -0.10218504               -0.10917738                0.14783366                1.04181082                0.14463754               -0.00150042
               6.94111045                8.95483355               85.12633694                0.01000001                0.18983560               -0.16769073                0.14628774                0.85714801                0.15330589                0.00792199
               7.94454704                8.95978436               85.13303025                0.01000005                0.42598676               -0.20104306                0.14853850                0.92019279                0.23362058                0.04932167
               8.94963019                8.96402230               85.14155134                0.99999999                0.23012652                0.14693949                0.15115401                0.93677034                0.13369547                0.15979999
               9.94914957                8.96079233               85.14725138                1.00000000               -0.04806116                0.42952217                0.17191565                0.65805055               -0.00744820                0.16247883
              -0.04573351                9.95446470               85.09065673                1.00000000               -0.02607976               -0.02420053                0.07837308               -0.00311580               -0.01254326               -0.01921137
               0.95400569                9.94585272               85.09523477                1.00000000               -0.02862700               -0.02783213                0.09368779               -0.00324247               -0.01173146               -0.00321797
               1.95369395                9.93724432               85.09979204                1.00000000               -0.03342341               -0.03239099                0.10812725               -0.00297949               -0.01051112                0.00605772
               2.95333722                9.92864603               85.10438355                0.99999997               -0.03745485               -0.03759647                0.12211656               -0.00326620               -0.00758207               -0.00189127
               3.95294485                9.92004869               85.10900610                0.23395286               -0.67836093               -0.04269117                0.13734856                1.25091144                0.14100009                0.00486803
               4.93977000                9.93650184               85.11657887                0.01000000               -0.76407972               -0.01166056                0.16259073                1.00029530                0.29527108               -0.00272490
               5.93766326                9.94682289               85.12346181                0.01000000                0.00053125               -0.08182591                0.16689227                0.51199424                0.24211802               -0.00218059
               6.93978063                9.95291587               85.13024371                0.01000000                0.35092114               -0.19176756                0.16530801                0.36337548                0.23761845                0.00863072
               7.94468168                9.95675004               85.13767439                0.01000001                0.65770314               -0.30343190                0.16539186                0.54448761                0.28688807                0.05288110
               8.95293469                9.96353635               85.14626677                1.00000000                0.38462675               -0.04859479                0.17511598                0.50480794                0.15167963                0.00706216
               9.95237421                9.96023719               85.15196681                1.00000000               -0.05604771               -0.05551420                0.19587772               -0.00745242                0.00715249               -0.00715223
              -0.13526424               -0.04373702               86.06762638                0.93085652               -0.01503572               -0.01369102                0.06143910                0.00366091                0.00390695                0.00206807
               0.86458540               -0.04827195               86.07043954                0.85536165               -0.01247429               -0.02924695                0.07694020                0.00551489                0.01698702               -0.00530816
               1.86448627               -0.05251666               86.07344763                0.53792972                0.00168714               -0.02974249                0.09910404                0.02686967                0.07183620               -0.00045046
               2.86461915               -0.05597033               86.07716052                0.25597844                0.07333295               -0.03207417                0.11459898                0.16579959                0.14885529               -0.00015758
               3.86595293               -0.05557860               86.08151416                0.16881453               -0.02363688                0.01398624                0.13164348                0.30095400                0.09686102               -0.01649425
               4.86414641               -0.04722873               86.08444632                0.25831208               -0.21974482                0.02622488                0.11056665                0.22560618               -0.19176558                0.11092406
               5.86155804               -0.04304566               86.08553356                0.99999999               -0.14481396               -0.03280032                0.09578408                0.16142204               -0.09441725                0.00802698
               6.86125013               -0.04207570               86.08807552                1.00000000               -0.03047044               -0.02884213                0.08471516               -0.00200787               -0.03440119                0.00421460
               7.86094863               -0.04115908               86.09044406                0.99999999               -0.02771671               -0.02602255                0.07834796               -0.00194929               -0.04795446                0.01195370
               8.86069579               -0.04028552               86.09275422                0.99999999               -0.02303605               -0.02436674                0.07177982               -0.00276772               -0.04176791                0.00154794
               9.86048791               -0.03936920               86.09524121                1.00000000               -0.02078875               -0.02245597                0.06498803               -0.00490365               -0.03133377               -0.02564014
              -0.13069270                0.95612607               86.06989681                0.93522738               -0.02769312               -0.01199135                0.07245093                0.00255955               -0.00259864                0.01403953
               0.86903037                0.95143558               86.07263639                0.01000000               -0.03515712               -0.03437408                0.08725927                0.01803829                0.00109361               -0.00385799
               1.86860416                0.94718592               86.07551414                0.01000000               -0.06111277               -0.02358608                0.10305875                0.04771876                0.01277544                0.05110366
               2.86780812                0.94370893               86.07874766                0.01000000               -0.20062433                0.04183090                0.11001335                0.21566464                0.01795273                0.10106733
               3.86459167                0.94456126               86.08215535                0.01000000               -0.38360591                0.09528739                0.14257771                0.61070929                0.08620398                0.18204540
               4.86013600                0.95303352               86.08747606                0.01000000               -0.19979636               -0.12279452                0.18053229                0.72238532                0.12650218                0.08457581
               5.86059575                0.95662634               86.08939867                0.01000291                0.00753832               -0.17157683                0.12079708                0.34461795               -0.03029804                0.04303249
               6.86028676                0.95763588               86.09208525                0.44709127               -0.02808498               -0.02245585                0.10939221                0.01133889                0.01136933                0.07381293
               7.86003405                0.95858069               86.09478286                1.00000000               -0.02567921               -0.02910097                0.09760522                0.00306418                0.00427519                0.02104236
               8.85977318                0.95947081               86.09727169                0.99999999               -0.02557461               -0.02701558                0.08908283               -0.00140654               -0.00473959                0.00613465
               9.85952255                0.96040624               86.09976711                1.00000000               -0.02506254               -0.02550758                0.08184797               -0.00379596               -0.00332542               -0.02822244
              -0.12583207                1.95602315               86.07234143                0.66201705               -0.02816138               -0.00572606                0.08946483                0.01523584               -0.00110461                0.05362239
               0.87388632                1.95104057               86.07492645                0.01000001               -0.05003183               -0.04916247                0.09993863                0.05971889                0.05252116                0.00303089
               1.87316730                1.94701162               86.07857697                0.01009967               -0.11646114               -0.04446322                0.09859556                0.22286157                0.10079263                0.09504372
               2.87155710                1.94486629               86.08223276                0.01000000               -0.21623854                0.05876587                0.10045659                0.49389419                0.09658381                0.17790621
               3.86884253                1.94632715               86.08613956                0.01000001               -0.25140320                0.07663506                0.11670217                0.86503132                0.13351157                0.21535737
               4.86652903                1.95031538               86.09012458                0.01000001               -0.24972424               -0.19955030                0.13234353                1.04563495                0.14888685                0.08682386
               5.86384804                1.95352281               86.09399482                0.01000248               -0.35032395               -0.20133258                0.12742589                0.86007470                0.13891005                0.09889999
               6.85952256                1.95747518               86.09747763                0.01000002               -0.23365317               -0.12091811                0.09476809                0.58437232                0.03827626                0.07564426
               7.85917498                1.95825890               86.09928432                0.01000001               -0.03402170               -0.14317147                0.11429927                0.21771448               -0.00795965                0.06581344
               8.85884212                1.95917417               86.10185107                0.99999996               -0.03169203               -0.03179586                0.10668160                0.00037969                0.02030125                0.02765663
               9.85854114                1.96012064               86.10421148                0.99999999               -0.03009828               -0.03096381                0.09771702               -0.00334896                0.01057758               -0.03004271
              -0.12042281                2.95601155               86.07524297                0.31331452               -0.03409121                0.04611932                0.10865657                0.10972196                0.00607192                0.13426762
               0.87923628                2.95045233               86.07748304                0.01000784               -0.01707624               -0.13144518                0.11383406                0.18686358                0.10935230                0.02397331
               1.87923567                2.94629666               86.08173211                0.01000000               -0.04329020               -0.13563630                0.10003524                0.49150210                0.18611003                0.09769728
               2.87837048                2.94488425               86.08595705                0.01007372               -0.13962308               -0.05366090                0.10132139                0.79294842                0.15710613                0.15254647
               3.87644321                2.94609396               86.09011965                0.01000001               -0.22587210               -0.06123422                0.11222167                1.06078019                0.14904568                0.15560020
               4.87385303                2.94904252               86.09425393                0.01000000               -0.29028818               -0.11292899                0.12328424                1.17515610                0.14848381                0.12336428
               5.87063744                2.95259969               86.09820423                0.01000000               -0.33074578               -0.09452086                0.12611173                1.13604449                0.12624647                0.07498454
               6.86723812                2.95521752               86.10166866                0.01000000               -0.39740456               -0.13731158                0.12664650                0.97461414                0.08368596                0.04286937
               7.86268935                2.95571726               86.10452532                0.01000000               -0.46595452               -0.07189411                0.12810624                0.66160580                0.04038474                0.09550454
               8.85791903                2.95883489               86.10677878                1.00000000               -0.25633655               -0.03710716                0.12617528                0.11022580                0.01374053                0.03691778
               9.85756262                2.95978696               86.10870132                0.99999999               -0.03564081               -0.03487668                0.11195891               -0.00347453               -0.00348404               -0.02383593
              -0.11251919                3.95694554               86.07911598                0.17549160               -0.01423259                0.01363798                0.12010027                0.32125019               -0.00665557                0.14647944
               0.88733849                3.94841166               86.08052033                0.01000000                0.05423040               -0.31831243                0.13291470                0.57573568                0.17854449                0.12475512
               1.88856542                3.94429890               86.08522513                0.01000002                0.01401364               -0.17850645                0.11109393                0.82955145                0.22228894                0.13220561
               2.88761876                3.94379307               86.08968081                0.01000001               -0.13327795               -0.14365066                0.10813204                1.05010991                0.16260769                0.13450172
               3.88589986                3.94510246               86.09406251                0.01000001               -0.20461660               -0.13378566                0.11446566                1.23771010                0.14080551                0.12307767
               4.88352643                3.94805680               86.09832552                0.01000000               -0.27529639               -0.12153679                0.12305627                1.38579282                0.12790724                0.09338178
               5.88039393                3.95163239               86.10239967                0.01000001               -0.38145822               -0.08957801                0.12921699                1.42244664                0.11389285                0.06044584
               6.87589726                3.95472895               86.10618067                0.01000000               -0.58021088               -0.01721111                0.13444449                1.33390920                0.09487345                0.04795756
               7.86878972                3.95682102               86.10949065                0.01000001               -0.94601613                0.10571638                0.14100365                1.25869850                0.04289884                0.06000297
               8.85697694                3.95843202               86.11152442                0.01000002               -0.61111003               -0.10045490                0.14448357                1.29282485                0.02618796                0.09601099
               9.85656752                3.95942311               86.11329072                0.27591599               -0.04094250               -0.72710151                0.12723850                1.28911635                0.01159735                0.12203220
              -0.09693005                4.95628431               86.08230209                0.24393593                0.03276884               -0.18504921                0.10503461                0.18690404                0.09022251               -0.12294037
               0.90339764                4.94408608               86.08566932                0.01000000               -0.13123310               -0.18579911                0.16750516                0.72290917                0.07464272                0.17815624
               1.90044529                4.94272653               86.08885563                0.01000001               -0.24142639               -0.15303825                0.11954444                1.05638062                0.08746164                0.13247110
               2.89856911                4.94201124               86.09336669                0.01000000               -0.17558054               -0.20494885                0.11473236                1.13839887                0.13023201                0.11762367
               3.89693368                4.94341825               86.09787007                0.01000000               -0.17650740               -0.21806722                0.12006949                1.36543482                0.11572905                0.09324715
               4.89503896                4.94661178               86.10225479                0.01000002               -0.22597236               -0.18345856                0.12441919                1.56966639                0.09828864                0.06689723
               5.89241423                4.95080813               86.10651728                0.01000001               -0.31556426               -0.10820351                0.12860093                1.69117186                0.08729224                0.03930535
               6.88872768                4.95487329               86.11059021                0.01000001               -0.41269906               -0.01902543                0.13279794                1.74603286                0.07410919                0.02742014
               7.88416025                4.95783159               86.11431943                0.01000002               -0.37771225                0.00041542                0.13930164                1.74343549                0.05984644                0.04231844
               8.88117343                4.95682580               86.11765969                0.01000000               -0.13987374               -0.22994919                0.15018225                1.54729984                0.04236852                0.14001691
               9.88136277                4.94524493               86.12070586                0.01000003                0.01893418               -0.86181764                0.16561565                1.01433268                0.02019557                0.29503767
              -0.08438465                5.95324456               86.08335782                0.99601172               -0.02608957               -0.16551647                0.07863114                0.20034844                0.00290597               -0.06442511
               0.91535445                5.94469568               86.08778709                0.01003639               -0.19237351                0.01801933                0.09772280                0.42577405                0.00525587               -0.01019061
               1.91176788                5.94123813               86.09230383                0.01000001               -0.28297194               -0.15217878                0.10702361                0.77483877                0.06869303                0.09078539
               2.90969502                5.93969410               86.09689027                0.01000000               -0.15799337               -0.29747591                0.12777354                1.05711856                0.10691494                0.06197840
               3.90860801                5.94074112               86.10141968                0.01000001               -0.10825701               -0.33681747                0.12363663                1.38425015                0.08203199                0.07141472
               4.90752988                5.94438763               86.10598911                0.01000001               -0.13260761               -0.27892049                0.12633419                1.68093327                0.06924329                0.04296324
               5.90595586                5.94946832               86.11049771                0.01000001               -0.18677080               -0.16657531                0.12762460                1.84397859                0.06034185                0.01825356
               6.90379446                5.95434844               86.11492962                0.01000002               -0.21249680               -0.07871778                0.12992604                1.84837359                0.05541777                0.01451430
               7.90170592                5.95682932               86.11924446                0.01000003               -0.16424296               -0.08298720                0.13516562                1.63471990                0.04740507                0.04548348
               8.90050960                5.95383304               86.12337821                0.01000007               -0.08450108               -0.16593119                0.14849093                1.02378632                0.02886573                0.12499668
               9.90001590                5.94218676               86.12724507                0.01000000               -0.04936972               -0.09540167                0.17066726                0.50614388                0.01293892                0.25271386
              -0.07582533                6.95297398               86.08544437                1.00000000               -0.02551240               -0.02857055                0.07577914               -0.00009974                0.00209517               -0.02435033
               0.92391954                6.94444647               86.08989719                0.01000000               -0.16155093               -0.02287472                0.09312205                0.18923199                0.06368274               -0.00912317
               1.92094365                6.93968295               86.09558856                0.01000002               -0.18555236               -0.26578338                0.20841290                0.59914904                0.20742399               -0.15847380
               2.92020850                6.93606172               86.09978036                0.01000000               -0.05092532               -0.38651789                0.11696048                0.84130412                0.06800001                0.05339946
               3.91992514                6.93668190               86.10466916                0.01000000               -0.01390361               -0.53925185                0.13222691                1.33209707                0.06808789                0.04836738
               4.91993042                6.94103337               86.10948221                0.01000001               -0.02960748               -0.37944151                0.12875943                1.72228181                0.04978809                0.01987218
               5.91933299                6.94747662               86.11432273                0.01000002               -0.07981400               -0.20091396                0.12816520                1.83166384                0.04949937                0.00207296
               6.91833414                6.95329894               86.11925842                0.01000003               -0.09814722               -0.10960389                0.13012405                1.74358620                0.05214333                0.00723112
               7.91737005                6.95617185               86.12421867                0.01000000               -0.10212091               -0.02768618                0.13517165                1.45029240                0.04651665                0.05570135
               8.91629173                6.95350717               86.12910407                0.01005768               -0.12959165                0.10690763                0.14549715                0.84061276                0.02941876                0.14168267
               9.91477822                6.94333690               86.13371005                0.01000000               -0.15135101                0.25856652                0.16439586                0.37068892                0.01988398                0.26422082
              -0.06733162                7.95267315               86.08739589                0.99999999               -0.02382551               -0.02861861                0.07487883                0.00095795                0.00559676               -0.03578401
               0.93243012                7.94423819               86.09199180                1.00000000               -0.02663837               -0.02311163                0.09272583                0.00745614                0.01061521               -0.00710739
               1.93213561                7.93592246               86.09666349                0.01000001               -0.14539872               -0.20504940                0.11181193                0.36485485                0.06329447               -0.03317802
               2.92952215                7.93196374               86.10230981                0.01000000               -0.09286562               -0.44258011                0.14098062                0.69963566                0.09290474               -0.00252295
               3.93027830                7.92995608               86.10745116                0.01000002                0.08293190               -0.89235698                0.14374384                1.23262385                0.05785955               -0.01017284
               4.93118079                7.93679880               86.11261571                0.01000002                0.00226362               -0.35428997                0.13635248                1.69771256                0.05473511                0.00627121
               5.93032357                7.94545004               86.11801293                0.01000003               -0.06049141               -0.16582284                0.13258110                1.59779685                0.07024439               -0.00680826
               6.92997096                7.95215636               86.12355759                0.01000000                0.00899833               -0.12504901                0.13504531                1.43054012                0.08535140                0.00195607
               7.93050354                7.95627560               86.12944063                0.01000005                0.00929237               -0.04034397                0.13905515                1.28187851                0.08198192                0.05538280
               8.93015681                7.95597119               86.13526107                0.01000001               -0.13666525                0.28767430                0.14764506                0.92717748                0.05284620                0.22557251
               9.92777023                7.94735809               86.14075412                0.01000000               -0.23865733                0.62728734                0.16128047                0.56334279                0.04308447                0.32514643
              -0.05893626                8.95240161               86.08932304                0.99999999               -0.02443945               -0.02480159                0.07223541               -0.00126144                0.00226455               -0.03025642
               0.94081935                8.94398424               86.09405850                0.99999998               -0.02742734               -0.02592083                0.09098418               -0.00075528                0.00601769               -0.00593316
               1.94051520                8.93558196               86.09884013                0.99999995               -0.03258769               -0.03293544                0.11021730                0.00078337                0.02097316                0.01358206
               2.94016759                8.92721012               86.10386359                1.00000000               -0.03863204               -0.25678664                0.13316311                0.11463532                0.02696321               -0.01129466
               3.93974255                8.91883476               86.10875181                0.01000002               -0.08884398               -0.57813594                0.15398404                1.23122204                0.11109127               -0.00866577
               4.93839071                8.93394757               86.11548885                0.01000000               -0.19055927               -0.14857050                0.15627142                1.47948127                0.16032173                0.00781585
               5.93593137                8.94416017               86.12162592                0.01000000               -0.11356640               -0.10342003                0.14928406                0.98616803                0.13089231               -0.00812539
               6.93611939                8.95079796               86.12781180                0.01000000                0.16307106               -0.15774126                0.14695096                0.81063438                0.14382366               -0.00056357
               7.93919279                8.95536497               86.13452343                0.01000000                0.38167014               -0.18691801                0.15037394                0.87087570                0.22346065                0.04294268
               8.94375279                8.95926066               86.14306869                0.99999999                0.20392449                0.14002818                0.15230786                0.87811794                0.12496773                0.15012140
               9.94327128                8.95588264               86.14896746                1.00000000               -0.04815086                0.39861820                0.17129970                0.60578222               -0.00744510                0.15560517
              -0.05052210                9.95217711               86.09139978                1.00000000               -0.02432310               -0.02244945                0.07025183               -0.00431896               -0.01450054               -0.02112727
               0.94923466                9.94371977               86.09614620                1.00000000               -0.02762477               -0.02644649                0.08865662               -0.00413625               -0.01437763               -0.00351246
               1.94892540                9.93526376               86.10086165                0.99999996               -0.03363024               -0.03182072                0.10577734               -0.00356783               -0.01473468                0.00651041
               2.94856206                9.92682801               86.10560376                0.99999999               -0.03800584               -0.03821099                0.12159424               -0.00407314               -0.01231314               -0.00266628
               3.94816528                9.91839336               86.11039085                0.33011775               -0.65585264               -0.04413982                0.13891312                1.19224223                0.14551386                0.00687178
               4.93544501                9.93382739               86.11829820                0.01000000               -0.74843675               -0.01201796                0.19495482                0.95484320                0.30888943                0.00289133
               5.93319655                9.94338164               86.12521651                0.01000000               -0.02330804               -0.07785257                0.18734460                0.48522516                0.22815285               -0.00462134
               6.93497885                9.94900154               86.13194152                0.01000000                0.31309022               -0.17964186                0.16994701                0.34372601                0.22233070                0.00512096
               7.93945835                9.95253724               86.13934235                0.01000001                0.61113226               -0.28277264                0.16918897                0.51506706                0.27747750                0.05194717
               8.94720149                9.95877176               86.14802102                0.99999999                0.35917780               -0.04889017                0.17573296                0.48453074                0.14605817                0.00706362
               9.94664191                9.95533045               86.15391979                0.99999999               -0.05595825               -0.05521904                0.19472443               -0.00706758                0.00715134               -0.00715172
              -0.13812048               -0.04605711               87.06823421                0.91928252               -0.01136775               -0.01030502                0.06164394                0.00415471                0.00439426               -0.00002042
               0.86176585               -0.05058908               87.07120600                0.84025156               -0.00453601               -0.03287418                0.07643967                0.00939445                0.02054730               -0.00668948
               1.86178880               -0.05461389               87.07443089                0.60550502                0.01242469               -0.02670624                0.09543800                0.03008383                0.07307865               -0.00220525
               2.86201434               -0.05751162               87.07819932                0.32520188                0.06265142               -0.02477666                0.09566868                0.16001217                0.12568668                0.00467157
               3.86304183               -0.05641532               87.08236576                0.25094572               -0.07732709                0.04459211                0.07195372                0.18244124                0.04665535                0.00913565
               4.86046780               -0.04973860               87.08529187                0.44213763               -0.20832658                0.01393631                0.07854843                0.20531780               -0.13079401                0.07146918
               5.85887530               -0.04699065               87.08652374                1.00000000               -0.09791763               -0.03385983                0.10116143                0.09141702               -0.07982928                0.00312801
               6.85850945               -0.04615377               87.08891822                1.00000000               -0.03488513               -0.02780660                0.08358281               -0.00095949               -0.03421774                0.00756407
               7.85817760               -0.04547129               87.09120787                0.99999999               -0.02941767               -0.02479111                0.07454208               -0.00145820               -0.04620075                0.01277724
               8.85792109               -0.04487549               87.09344405                0.99999999               -0.02260752               -0.02271258                0.06647911               -0.00308479               -0.04106208                0.00126569
               9.85772545               -0.04423930               87.09585705                0.99791382               -0.01956449               -0.02121643                0.05910682               -0.00564004               -0.03146816               -0.02658387
              -0.13354696                0.95383984               87.07062754                0.89996779               -0.03148606               -0.00535118                0.07386676                0.00555107               -0.00410397                0.01431206
               0.86613818                0.94908218               87.07352286                0.01605890               -0.04510655               -0.04304021                0.08891963                0.03758551               -0.00080899               -0.00432851
               1.86555091                0.94511905               87.07655806                0.01000000               -0.08115026               -0.02716928                0.10483993                0.09577489                0.00364688                0.05028738
               2.86451517                0.94224062               87.07988191                0.01000001               -0.22855864                0.02860692                0.11563102                0.28094541                0.02543281                0.10182409
               3.86097974                0.94403061               87.08372703                0.01000000               -0.33532655                0.04524589                0.15009474                0.56845039                0.11564340                0.14699270
               4.85780864                0.95040076               87.08894649                0.01000000               -0.14913408               -0.13002912                0.11921442                0.61289628                0.11550254                0.00940041
               5.85799706                0.95267075               87.09063010                0.01000000               -0.00342355               -0.15123422                0.12037813                0.29205398               -0.04385908                0.03114542
               6.85774017                0.95356816               87.09317876                0.56403291               -0.02365887               -0.02377056                0.10723571                0.01938621                0.00655306                0.06112401
               7.85752388                0.95428080               87.09575100                1.00000000               -0.02329617               -0.02859533                0.09518704                0.00485916                0.00197769                0.02104517
               8.85727425                0.95489738               87.09814723                0.99999999               -0.02455106               -0.02548584                0.08585245               -0.00138927               -0.00501223                0.00661801
               9.85703286                0.95554853               87.10056463                0.99999999               -0.02413928               -0.02512691                0.07824336               -0.00456649               -0.00329685               -0.03021812
              -0.12849413                1.95383586               87.07324456                0.71020044               -0.02675207                0.00367267                0.08929036                0.01779591               -0.00343073                0.05664255
               0.87123835                1.94855011               87.07595596                0.01000000               -0.04800030               -0.06515834                0.10396677                0.09756421                0.04858996               -0.00030310
               1.87054586                1.94484272               87.07966744                0.01000001               -0.12583283               -0.06004851                0.10079907                0.29022071                0.09324693                0.08587196
               2.86872169                1.94306052               87.08337289                0.01000001               -0.21475834                0.02192630                0.12423547                0.54313205                0.10460818                0.16983600
               3.86625069                1.94448960               87.08747094                0.01000003               -0.23180562               -0.01750710                0.13804930                0.86959137                0.15033311                0.17372260
               4.86408558                1.94766082               87.09157239                0.01000001               -0.23508584               -0.21405987                0.14263820                0.94925820                0.14503907                0.04067989
               5.86154898                1.94998467               87.09527504                0.01000000               -0.33992258               -0.18043542                0.12537751                0.79551234                0.11355022                0.07705383
               6.85728713                1.95337082               87.09847341                0.01000001               -0.23017068               -0.11750973                0.10033739                0.55803543                0.03714587                0.07079830
               7.85694556                1.95395680               87.10042753                0.01000001               -0.03307783               -0.13918059                0.11245371                0.21513475                0.00329008                0.06453499
               8.85662557                1.95461479               87.10291770                1.00000000               -0.03068756               -0.03023799                0.10615796                0.00309415                0.02095097                0.03095199
               9.85633181                1.95525816               87.10517908                0.99999999               -0.02937564               -0.03199305                0.09604717               -0.00376744                0.01040088               -0.03462658
              -0.12261954                2.95391329               87.07627159                0.38171550               -0.02978551                0.04468189                0.09687177                0.11082404                0.00691613                0.12011458
               0.87708260                2.94777901               87.07864840                0.01000001               -0.02677715               -0.15720645                0.11806329                0.24274852                0.10303706                0.02758114
               1.87684492                2.94391808               87.08285928                0.01000001               -0.06758331               -0.13971816                0.12329780                0.52714102                0.17573483                0.09890681
               2.87573094                2.94267914               87.08710835                0.01000000               -0.15368232               -0.08290128                0.12539725                0.79314111                0.15590880                0.14935051
               3.87377127                2.94368046               87.09136743                0.01000001               -0.22160969               -0.10281011                0.13360333                1.00818909                0.15203305                0.14123011
               4.87129874                2.94611956               87.09556699                0.01000000               -0.27869851               -0.13654750                0.13701276                1.09607571                0.14846772                0.09811130
               5.86819730                2.94906204               87.09951019                0.01000000               -0.31849985               -0.09930138                0.13367615                1.05697173                0.12380382                0.05823990
               6.86492875                2.95121797               87.10296469                0.01000000               -0.38073490               -0.13537792                0.13184689                0.92225605                0.08672484                0.04526884
               7.86058260                2.95149718               87.10584150                0.01000001               -0.44469868               -0.07650174                0.13464317                0.63561468                0.05030474                0.09738524
               8.85603477                2.95429262               87.10806255                0.99999999               -0.24559161               -0.03679898                0.13078479                0.11090829                0.01953658                0.04303830
               9.85567077                2.95490867               87.10981769                0.99999999               -0.03640041               -0.03586108                0.11111589               -0.00440019               -0.00466466               -0.03026385
              -0.11400909                3.95472950               87.08003323                0.25361513                0.00976203               -0.04860290                0.07983331                0.21026398                0.00842439                0.10311171
               0.88608853                3.94540598               87.08195660                0.01000000                0.00988193               -0.27932616                0.14346919                0.53313135                0.15797017                0.13637905
               1.88618855                3.94204836               87.08649207                0.01000003               -0.06332023               -0.17250920                0.13359273                0.82738333                0.18935748                0.14127775
               2.88482213                3.94140250               87.09089826                0.01000001               -0.16072472               -0.15720753                0.13162050                0.99817599                0.15214015                0.13348643
               3.88297405                3.94243340               87.09531073                0.01001095               -0.20983070               -0.15310125                0.13424343                1.16926270                0.13859454                0.11772531
               4.88062551                3.94492987               87.09962896                0.01000001               -0.26920236               -0.13661893                0.13726312                1.29633215                0.12602509                0.07940415
               5.87759001                3.94799864               87.10373809                0.01000003               -0.36642028               -0.09987604                0.13880234                1.33042816                0.11118988                0.04388279
               6.87329711                3.95066326               87.10755696                0.01003242               -0.55034006               -0.02687155                0.14098346                1.25037732                0.09666911                0.03193532
               7.86658321                3.95242676               87.11094278                0.01000000               -0.89324296                0.08859477                0.15070951                1.19066637                0.05226170                0.04639555
               8.85543225                3.95387881               87.11300646                0.01000000               -0.57857494               -0.10405895                0.15220054                1.22350100                0.04103995                0.09537329
               9.85501171                3.95454094               87.11456647                0.20207641               -0.04205399               -0.68659571                0.12727781                1.20714662                0.01462177                0.13396534
              -0.09976723                4.95294123               87.08314612                0.41506790                0.01935992               -0.18323464                0.07842206                0.18067942                0.07512472               -0.10051569
               0.90042637                4.94219249               87.08717279                0.01000000               -0.14183506               -0.14684294                0.12435927                0.61289020                0.01264177                0.15282717
               1.89739607                4.94046789               87.09020105                0.01000001               -0.25584767               -0.18024542                0.13714650                0.93904657                0.04303685                0.12021395
               2.89530942                4.93953499               87.09463042                0.01000000               -0.18834591               -0.22511395                0.13640791                1.08322967                0.11152012                0.11994589
               3.89362915                4.94061844               87.09916026                0.01000001               -0.18246351               -0.22014618                0.13714734                1.28631046                0.10592911                0.08884911
               4.89166015                4.94338719               87.10356675                0.01000000               -0.22783425               -0.19026374                0.13870126                1.47229043                0.08892783                0.05472530
               5.88907247                4.94706452               87.10784861                0.01000000               -0.30759912               -0.11741567                0.13892479                1.58621656                0.07599841                0.02036777
               6.88550817                4.95068054               87.11194172                0.01000000               -0.39460449               -0.03001904                0.13813736                1.64029307                0.06090655                0.00529647
               7.88118038                4.95326908               87.11572779                0.01000007               -0.35587726               -0.00951832                0.13904271                1.64072945                0.04985889                0.01985654
               8.87839062                4.95221144               87.11921386                0.01000100               -0.13454661               -0.23024678                0.15478067                1.45892716                0.04343273                0.12429525
               9.87848945                4.94117676               87.12249835                0.01000000                0.00988256               -0.81978804                0.21317543                0.95524635                0.02518630                0.32017524
              -0.08889801                5.95106481               87.08419175                1.00000000               -0.02823172               -0.11066180                0.08778776                0.11183899                0.00075861               -0.06098674
               0.91081967                5.94246913               87.08879999                0.01000000               -0.17375081                0.00313473                0.10238790                0.31772102                0.00112820               -0.03684232
               1.90762698                5.93844345               87.09342579                0.01000000               -0.22417500               -0.32545059                0.13446630                0.83749716                0.06402256                0.13417489
               2.90633617                5.93690022               87.09826755                0.01000000               -0.13894526               -0.27232589                0.13950263                1.04195179                0.09958408                0.05556426
               3.90484807                5.93803048               87.10273548                0.01000003               -0.13554687               -0.32621294                0.14112957                1.31523014                0.06447317                0.06769481
               4.90362524                5.94112459               87.10731157                0.01000000               -0.14135421               -0.27876469                0.13976181                1.57525763                0.05347974                0.02790825
               5.90202099                5.94565032               87.11181228                0.01000000               -0.18634128               -0.17229158                0.13803321                1.73707414                0.04296163               -0.00278341
               6.89989841                5.95006288               87.11624985                0.01002610               -0.20770471               -0.08690440                0.13607440                1.74548216                0.03509932               -0.00540017
               7.89786689                5.95223640               87.12060066                0.01000104               -0.15976496               -0.08662654                0.13634387                1.54227671                0.02570318                0.03023871
               8.89670311                5.94927387               87.12488787                0.01000001               -0.08404444               -0.16566960                0.14915303                0.96243268                0.01212693                0.11361819
               9.89618600                5.93814518               87.12906595                0.01000000               -0.05171092               -0.10277700                0.19303213                0.47583376                0.00287510                0.23449409
              -0.08033908                6.95072800               87.08620801                1.00000000               -0.02587697               -0.03418017                0.07677908                0.00003310                0.00306387               -0.02540433
               0.91940215                6.94225518               87.09083167                0.11374895                0.00270026               -0.01863179                0.09379526                0.01173711                0.13636592               -0.01011040
               1.91971492                6.93395888               87.09811869                0.01000001               -0.14203592               -0.22282238                0.16029925                0.58679585                0.20984347               -0.15661267
               2.91656143                6.93408847               87.10099860                0.01000000               -0.20027711               -0.34853280                0.14661969                0.93800237                0.00604323                0.05726184
               3.91570938                6.93409418               87.10605711                0.01004694               -0.05079891               -0.50919409                0.14359026                1.22593504                0.05517709                0.04914359
               4.91554545                6.93781189               87.11079598                0.01000000               -0.04168594               -0.36884202                0.13942532                1.61319180                0.02855325               -0.00296958
               5.91487566                6.94361869               87.11562804                0.01002423               -0.08568589               -0.20416208                0.13661854                1.73073639                0.03564501               -0.02665522
               6.91383174                6.94894245               87.12057793                0.01000000               -0.10303727               -0.11537250                0.13801625                1.65398283                0.03798387               -0.01313033
               7.91281492                6.95153655               87.12557983                0.01000003               -0.10506191               -0.03312992                0.13950380                1.37457235                0.02924015                0.04474040
               8.91173050                6.94889805               87.13056002                0.01000001               -0.12757002                0.09352638                0.14735397                0.79161224                0.01581293                0.13123167
               9.91026352                6.93912122               87.13538502                0.01000003               -0.14669794                0.23735442                0.16806721                0.34445852                0.01283732                0.24197414
              -0.07195171                7.95038121               87.08812688                1.00000000               -0.02247530               -0.03151517                0.07129215                0.00148423                0.00720014               -0.03749474
               0.92782353                7.94209649               87.09291377                1.00000000               -0.02593429               -0.01986039                0.09195604                0.01174192                0.01347897               -0.00560938
               1.92752960                7.93398700               87.09779473                0.01000002               -0.14313043               -0.01585829                0.11464436                0.19264577                0.07108184               -0.09949468
               2.92496092                7.92992956               87.10374337                0.01000001               -0.09431230               -0.42931606                0.14179572                0.63489005                0.09914264                0.01518134
               3.92564335                7.92784659               87.10893958                0.01000000                0.07018191               -0.83657921                0.15665049                1.15345058                0.03939287               -0.00287662
               4.92636456                7.93374775               87.11397107                0.01000007               -0.00690990               -0.33598096                0.13066392                1.58307594                0.03544360               -0.02541655
               5.92550516                7.94156708               87.11933149                0.01000001               -0.06521757               -0.16718114                0.13830015                1.50886193                0.06837641               -0.04683738
               6.92506021                7.94775543               87.12491770                0.01000003               -0.00512082               -0.12520497                0.14124867                1.36321952                0.08462045               -0.02116981
               7.92540274                7.95157380               87.13083852                0.01001768               -0.00547613               -0.03975269                0.14344141                1.21667145                0.07429710                0.04502052
               8.92495069                7.95114440               87.13673998                0.01000001               -0.13869507                0.26833637                0.14953017                0.86367429                0.04667415                0.21393578
               9.92262884                7.94289226               87.14236302                0.01000001               -0.23218502                0.58087773                0.16385183                0.52176719                0.04063187                0.31149588
              -0.06373997                8.95009769               87.09001501                0.99999999               -0.02288462               -0.02462676                0.06612398               -0.00220491                0.00261146               -0.03278706
               0.93603119                8.94185797               87.09495411                0.99999999               -0.02626327               -0.02447191                0.08803669               -0.00116229                0.00705614               -0.00589761
               1.93573477                8.93364172               87.09994513                0.99999996               -0.03157730               -0.03277634                0.11063588                0.00281372                0.02539431                0.01520092
               2.93539964                8.92550215               87.10522016                0.99999998               -0.03872829               -0.24085992                0.13845514                0.11608586                0.03430382               -0.00888864
               3.93496020                8.91736260               87.11033353                0.01000000               -0.09565798               -0.54692722                0.16274592                1.15537283                0.10674989                0.00879619
               4.93348648                8.93109227               87.11708060                0.01000001               -0.19574899               -0.14033941                0.14944685                1.38350244                0.15270119               -0.01023088
               5.93104522                8.94027507               87.12310588                0.01000001               -0.11985376               -0.10088979                0.14762294                0.92119598                0.14146827               -0.05087173
               6.93108941                8.94643835               87.12927596                0.01000001                0.13570752               -0.14982817                0.15009257                0.77538054                0.15068268               -0.01696482
               7.93375937                8.95074149               87.13603773                0.01009998                0.32980551               -0.17113270                0.15304699                0.82877072                0.21663652                0.03878224
               8.93768552                8.95426478               87.14459750                0.99999999                0.17218805                0.13142796                0.15344976                0.81625052                0.11664012                0.14103730
               9.93720314                8.95073877               87.15067738                0.99999999               -0.04823831                0.36486136                0.17068341                0.55194295               -0.00744182                0.14907778
              -0.05551637                9.94988867               87.09206177                0.99946133               -0.02273632               -0.02090227                0.06231019               -0.00580256               -0.01706015               -0.02356823
               0.94425626                9.94160705               87.09700790                0.99999999               -0.02709666               -0.02509210                0.08373430               -0.00535203               -0.01788039               -0.00397980
               1.94394169                9.93333148               87.10190759                1.00000000               -0.03472519               -0.03102372                0.10333223               -0.00404200               -0.02067224                0.00687131
               2.94356176                9.92511236               87.10681544                0.99999997               -0.03905020               -0.03897905                0.12050226               -0.00495961               -0.01951313               -0.00389367
               3.94316069                9.91690805               87.11178436                0.43249711               -0.62198112               -0.04545455                0.13920821                1.11147870                0.16933247                0.01020293
               4.93112214                9.93094096               87.12047797                0.01000000               -0.72888466               -0.01513099                0.27060987                0.89562737                0.34081252               -0.02010895
               5.92858300                9.93954929               87.12720870                0.01000000               -0.05103718               -0.07257808                0.18656849                0.44467250                0.21954112               -0.03282317
               6.93010139                9.94475887               87.13364265                0.01000000                0.27843650               -0.16794847                0.17333945                0.33129163                0.20457972               -0.00129230
               7.93415173                9.94815115               87.14105817                0.01000002                0.55885129               -0.25903481                0.16892208                0.48994007                0.26861580                0.05385045
               8.94127842                9.95377296               87.14978143                0.99999999                0.32839896               -0.04918160                0.17634941                0.46120752                0.13923456                0.00706328
               9.94071971                9.95018949               87.15586130                1.00000000               -0.05587141               -0.05492801                0.19358339               -0.00668975                0.00715193               -0.00714889
              -0.14111993               -0.04852408               88.06885926                0.90645612               -0.00804045               -0.00739513                0.06426538                0.00391287                0.00614160               -0.00099552
               0.85879967               -0.05303946               88.07196834                0.82146969                0.00372239               -0.03614833                0.07611395                0.01384863                0.02281602               -0.00565110
               1.85895452               -0.05681511               88.07535639                0.66587869                0.01991684               -0.02297756                0.08953693                0.02622241                0.06570051               -0.00244838
               2.85919801               -0.05924207               88.07907389                0.39048699                0.04194839               -0.01860864                0.08365704                0.12981387                0.08999699                0.00779444
               3.85979349               -0.05811842               88.08295323                0.32155412               -0.09127246                0.05143649                0.05953082                0.11132185                0.02313140                0.01094759
               4.85737256               -0.05310857               88.08601729                0.64053155               -0.17291909                0.00495848                0.06841380                0.16317275               -0.06781685                0.03195799
               5.85633511               -0.05119582               88.08755679                1.00000000               -0.07454590               -0.03062311                0.10018037                0.04827163               -0.06679836               -0.00089010
               6.85588164               -0.05044551               88.08974717                1.00000000               -0.04181622               -0.02513286                0.08194827                0.00183016               -0.04140991                0.00982450
               7.85549878               -0.04998979               88.09193491                1.00000000               -0.03281300               -0.02282722                0.07119881               -0.00041890               -0.04842951                0.01297223
               8.85522538               -0.04966658               88.09408380                0.99752748               -0.02331166               -0.02039044                0.06199436               -0.00292015               -0.04293191                0.00049317
               9.85503255               -0.04931604               88.09642334                0.99576103               -0.01928289               -0.02041187                0.05520727               -0.00601873               -0.03349689               -0.02871455
              -0.13656542                0.95140196               88.07137414                0.86310471               -0.03509166                0.00180221                0.07541234                0.00953147               -0.00367237                0.01317838
               0.86308367                0.94659905               88.07441478                0.01793603               -0.05582681               -0.05257824                0.08856396                0.05943615                0.00094212               -0.00113354
               1.86231805                0.94295512               88.07761094                0.01000000               -0.09679316               -0.03785236                0.10483587                0.13167867                0.00610599                0.03699599
               2.86114780                0.94057185               88.08106028                0.01000000               -0.22390434                0.01393182                0.11555958                0.30442905                0.04649855                0.09545752
               3.85783996                0.94239594               88.08515724                0.01000000               -0.28024108                0.01398116                0.12830003                0.51126816                0.14875243                0.08707574
               4.85554298                0.94694101               88.08986034                0.01000000               -0.11768343               -0.11914720                0.08296302                0.51775849                0.10582381               -0.01284212
               5.85548629                0.94849795               88.09180623                0.01000000               -0.01230284               -0.13101946                0.10985919                0.26225359               -0.02620020                0.02588130
               6.85529692                0.94930316               88.09422997                0.68614554               -0.01905813               -0.02246357                0.10163463                0.02576651                0.00434239                0.05150056
               7.85510513                0.94978194               88.09668660                1.00000000               -0.02188100               -0.02755563                0.09102878                0.00620319               -0.00026099                0.01993909
               8.85485930                0.95012952               88.09898874                0.99999996               -0.02416497               -0.02277686                0.08219601               -0.00089468               -0.00608689                0.00719359
               9.85462183                0.95047984               88.10133198                1.00000000               -0.02374754               -0.02544515                0.07551192               -0.00527592               -0.00392874               -0.03355851
              -0.13132347                1.95151196               88.07412723                0.74966821               -0.02412898                0.01116044                0.08700103                0.01606663               -0.00427891                0.05132415
               0.86843524                1.94590897               88.07700578                0.01000000               -0.05306139               -0.07978719                0.10491842                0.12707733                0.03341961                0.00421324
               1.86761530                1.94242785               88.08059295                0.01000000               -0.12947375               -0.07524760                0.11326606                0.35499792                0.10311105                0.09161699
               2.86584576                1.94103657               88.08471747                0.01000001               -0.19828074               -0.01129789                0.13072288                0.57830253                0.13089083                0.14916439
               3.86364969                1.94216120               88.08890054                0.01000001               -0.21100230               -0.06585853                0.14089811                0.83285925                0.15111013                0.12528025
               4.86162572                1.94450848               88.09297734                0.01000000               -0.22158290               -0.19964179                0.13475888                0.85796195                0.13283869                0.02462601
               5.85921803                1.94618379               88.09650237                0.01000279               -0.32563691               -0.15982607                0.12096374                0.74131318                0.09153081                0.06406290
               6.85511298                1.94910522               88.09948438                0.01000000               -0.22107679               -0.11319092                0.09749065                0.53098453                0.03725836                0.06841792
               7.85479649                1.94945910               88.10153340                0.01000000               -0.03016963               -0.13161133                0.10675165                0.21325586                0.01324021                0.06687929
               8.85450959                1.94987789               88.10397423                0.99999996               -0.02850490               -0.02613076                0.10416013                0.00951100                0.02301550                0.03763773
               9.85422639                1.95017505               88.10613243                1.00000000               -0.02831928               -0.03427688                0.09430994               -0.00342165                0.01045893               -0.04113655
              -0.12503810                2.95162517               88.07718040                0.44490701               -0.02525686                0.03106400                0.08822778                0.09411482                0.00727137                0.09209011
               0.87470933                2.94500331               88.07984430                0.01000000               -0.03357443               -0.16470590                0.11857955                0.27144032                0.09531823                0.04399314
               1.87429041                2.94145017               88.08419807                0.01000001               -0.08644128               -0.13225823                0.13024114                0.55690943                0.15650954                0.12052991
               2.87298050                2.94034589               88.08846499                0.01000001               -0.16325884               -0.10479179                0.13962399                0.78128692                0.14617734                0.13868472
               3.87102523                2.94107877               88.09279172                0.01000000               -0.21504363               -0.12485320                0.14477469                0.94468284                0.14708521                0.11829315
               4.86867963                2.94294818               88.09699418                0.01000002               -0.26547061               -0.14316774                0.14426198                1.01082534                0.13767728                0.07497837
               5.86571582                2.94530143               88.10087776                0.01000059               -0.30191600               -0.10060810                0.13827980                0.97814370                0.11435903                0.04715103
               6.86264131                2.94703935               88.10430560                0.01000000               -0.35591182               -0.13572989                0.13582371                0.86806304                0.08870702                0.04813390
               7.85859758                2.94714971               88.10721818                0.01000000               -0.41538689               -0.07982325                0.13725550                0.60782596                0.06368917                0.10677264
               8.85433357                2.94960690               88.10939448                1.00000000               -0.23192596               -0.03448494                0.13515756                0.11545299                0.02715986                0.05520701
               9.85395906                2.94979430               88.11092363                0.99999998               -0.03745085               -0.03766517                0.11039960               -0.00558326               -0.00686063               -0.03941443
              -0.11619744                3.95213324               88.08071265                0.32641790                0.02364967               -0.07548512                0.06720747                0.12602185                0.01083120                0.06875675
               0.88403905                3.94261485               88.08338971                0.01000001               -0.01958234               -0.23520362                0.13303719                0.47678294                0.10876219                0.15563954
               1.88341091                3.93978268               88.08789699                0.01000001               -0.10980776               -0.16265412                0.14036054                0.79419325                0.14562626                0.14239280
               2.88184290                3.93894073               88.09231322                0.01000000               -0.17349276               -0.16525091                0.14505497                0.93706255                0.12965121                0.13277548
               3.87994105                3.93966414               88.09674738                0.01000003               -0.21116654               -0.16541441                0.14817505                1.08975491                0.12438225                0.10695497
               4.87761957                3.94164513               88.10107079                0.01000006               -0.26256603               -0.14622483                0.14855396                1.19785199                0.11336202                0.06536999
               5.87468973                3.94417163               88.10517572                0.01000000               -0.34968052               -0.10800647                0.14818993                1.22944491                0.10044641                0.02900907
               6.87062596                3.94639062               88.10900034                0.01000000               -0.51521401               -0.03765045                0.14790073                1.15581594                0.09304199                0.01247758
               7.86438545                3.94786263               88.11250484                0.01000001               -0.82259484                0.07105691                0.16357296                1.10426374                0.05427027                0.03061157
               8.85417406                3.94918819               88.11456843                0.01000002               -0.53227584               -0.10883056                0.16066126                1.12485342                0.06125403                0.09485051
               9.85373994                3.94942175               88.11583628                0.55345957               -0.04341231               -0.63226748                0.12707328                1.09027834                0.02002259                0.17659571
              -0.10348089                4.95011547               88.08387053                0.61346936                0.00764355               -0.15851519                0.06722735                0.14895103                0.03683713               -0.04694895
               0.89659554                4.94029924               88.08815651                0.01000000               -0.13353585               -0.11574475                0.08758931                0.50927717               -0.01572752                0.13258952
               1.89384839                4.93819708               88.09159856                0.01000000               -0.23776225               -0.18893474                0.13754634                0.84557503                0.02394392                0.13065848
               2.89184030                4.93704087               88.09609485                0.01000002               -0.18662296               -0.22517655                0.14772306                1.00537531                0.08805441                0.12086468
               3.89011593                4.93777048               88.10061302                0.01000006               -0.18555624               -0.22329866                0.15044450                1.19476044                0.08351647                0.08714363
               4.88812917                4.94002368               88.10502881                0.01000000               -0.22783551               -0.19642809                0.15238378                1.36369597                0.07113649                0.04377883
               5.88555922                4.94314130               88.10929577                0.01000000               -0.30312754               -0.12692068                0.15211834                1.47248693                0.05461292                0.00512896
               6.88206662                4.94628634               88.11335295                0.01000001               -0.38369646               -0.03931978                0.14763019                1.52558327                0.02752933               -0.01596207
               7.87788529                4.94857085               88.11710028                0.01000001               -0.33975500               -0.01402864                0.13482418                1.51702354               -0.00163760               -0.00012533
               8.87527152                4.94743029               88.12075530                0.01000001               -0.12938943               -0.22144720                0.15491675                1.33454426               -0.01807561                0.14468239
               9.87529750                4.93714895               88.12496937                0.01000000                0.00259806               -0.77158901                0.29663689                0.87073086               -0.05951508                0.40407252
              -0.09358595                5.94896294               88.08511357                0.99999999               -0.02710641               -0.07923512                0.09136005                0.05717784               -0.00057219               -0.05509617
               0.90614298                5.94029996               88.08983485                0.01000000               -0.14166361               -0.00843758                0.10014861                0.25908410                0.02367007               -0.02985181
               1.90358078                5.93600399               88.09499315                0.01000000               -0.18829893               -0.30076637                0.13723131                0.76312187                0.06891757                0.13706276
               2.90237701                5.93443720               88.09968032                0.01000000               -0.13636614               -0.26548711                0.14276216                0.98724075                0.04798936                0.09106592
               3.90085345                5.93519816               88.10424228                0.01000000               -0.14271678               -0.31549048                0.15493074                1.21973695                0.04017764                0.06324065
               4.89952267                5.93771657               88.10878434                0.01000000               -0.14883183               -0.28546004                0.15596859                1.46182195                0.02957631                0.01583790
               5.89787682                5.94163322               88.11325837                0.01000001               -0.19072996               -0.18584948                0.15427933                1.62961880                0.01757597               -0.01981811
               6.89570807                5.94560423               88.11765111                0.01000000               -0.21474238               -0.09589299                0.14979803                1.65121281               -0.00259401               -0.01677131
               7.89358197                5.94758206               88.12197134                0.01000001               -0.17106124               -0.08710284                0.14913582                1.46212456               -0.03545183                0.04149568
               8.89228685                5.94475924               88.12636127                0.01000001               -0.09323649               -0.15753032                0.15636492                0.89695875               -0.05889274                0.14139199
               9.89171724                5.93398997               88.13110571                0.01000001               -0.05696071               -0.11348205                0.17837244                0.42744484               -0.04138179                0.23694073
              -0.08501138                6.94853077               88.08697995                1.00000000               -0.02524483               -0.04233436                0.07644876                0.00119937                0.00330944               -0.03341443
               0.91473618                6.94013048               88.09177309                0.28367339               -0.00075197               -0.01482016                0.09551218                0.02699284                0.11649892               -0.00767335
               1.91497358                6.93218176               88.09879454                0.01000000               -0.11726181               -0.19489290                0.06202186                0.53737556                0.06165055                0.02276317
               2.91239094                6.93173113               88.10271275                0.01000000               -0.18711391               -0.31957003                0.15705820                0.86310324               -0.01196141                0.05085404
               3.91123131                6.93146067               88.10754096                0.01000000               -0.07301898               -0.47880162                0.15700698                1.12841791                0.01253878                0.04995216
               4.91093056                6.93431448               88.11227072                0.01000001               -0.04836841               -0.38553597                0.15891116                1.49693576                0.00284957               -0.03588992
               5.91026394                6.93942431               88.11705510                0.01000000               -0.08942622               -0.22988802                0.15686610                1.64608255                0.01517193               -0.05425452
               6.90914203                6.94436848               88.12201875                0.01000001               -0.11455846               -0.12846423                0.15649264                1.59263777                0.01800717               -0.02558916
               7.90797277                6.94682879               88.12700875                0.01000001               -0.11696223               -0.04319722                0.15291306                1.32482184                0.00139863                0.05311360
               8.90680279                6.94427969               88.13205115                0.01000000               -0.12939102                0.07265907                0.15411713                0.76647289               -0.00385652                0.14940274
               9.90538495                6.93487931               88.13707139                0.01000000               -0.14178421                0.21528421                0.17704077                0.34094060                0.00368667                0.22256139
              -0.07676140                7.94811625               88.08882174                1.00000000               -0.02067516               -0.03598965                0.06760747                0.00118739                0.00826329               -0.04197623
               0.92303185                7.94000355               88.09383092                1.00000000               -0.02554807               -0.01791673                0.09153352                0.01420241                0.01608382               -0.00381430
               1.92272764                7.93210613               88.09895638                0.01000002               -0.13358497               -0.02043173                0.11687214                0.19128463                0.07352190               -0.07275561
               2.92036015                7.92804580               88.10514572                0.01000000               -0.09445920               -0.38854257                0.13939713                0.57951668                0.10879109                0.02031364
               3.92083846                7.92562213               88.11058417                0.01000001                0.05687972               -0.76473868                0.17344736                1.03729268                0.00227674               -0.00426900
               4.92149775                7.93000585               88.11522899                0.01000001               -0.00469947               -0.35392123                0.15013048                1.45775775                0.00350601               -0.10982844
               5.92074447                7.93703546               88.12077894                0.01000001               -0.06707034               -0.20793944                0.16752525                1.46652682                0.09833742               -0.11508812
               6.92015634                7.94303494               88.12638256                0.01000001               -0.02886368               -0.13173807                0.16080047                1.33709109                0.08676072               -0.03805913
               7.92016720                7.94671812               88.13230946                0.01000001               -0.02952765               -0.04539152                0.15674869                1.17043459                0.06231164                0.04139945
               8.91956579                7.94621242               88.13825167                0.01000000               -0.14151960                0.23801344                0.15811095                0.81103439                0.03922743                0.20721733
               9.91733680                7.93829565               88.14403116                0.01000001               -0.22289841                0.52433042                0.16763238                0.48721019                0.04272622                0.29929486
              -0.06876224                8.94781098               88.09064552                0.99752154               -0.02074176               -0.02520124                0.06048097               -0.00359139                0.00221100               -0.03632686
               0.93103034                8.93977215               88.09581923                1.00000000               -0.02403658               -0.02354785                0.08453767               -0.00192347                0.00767837               -0.00648124
               1.93075703                8.93177312               88.10105284                0.99999996               -0.02825358               -0.03149279                0.10963222                0.00824507                0.03206309                0.01622557
               2.93046527                8.92396028               88.10663269                1.00000000               -0.03699583               -0.22431092                0.14354310                0.11638235                0.04662700                0.00099850
               3.93001711                8.91616590               88.11200673                0.01057085               -0.08964418               -0.49631848                0.17231046                1.01633599                0.09202569                0.03012727
               4.92867239                8.92723605               88.11847779                0.01000001               -0.17258671               -0.16876840                0.21654253                1.22193960                0.26438640               -0.28821843
               5.92656538                8.93526552               88.12457838                0.01000000               -0.12355962               -0.12579580                0.17089472                0.90879426                0.21956786               -0.12325443
               6.92620120                8.94173372               88.13081366                0.01000001                0.08193001               -0.13963124                0.16780324                0.78600381                0.16780212               -0.02432713
               7.92820398                8.94592096               88.13758437                0.01002582                0.26223725               -0.15723735                0.16357545                0.79154620                0.20379965                0.03298447
               8.93144594                8.94903995               88.14613768                0.99999999                0.13793572                0.11663654                0.15458158                0.75311075                0.10813541                0.13113236
               9.93096269                8.94536592               88.15238112                1.00000000               -0.04832474                0.32619875                0.17006637                0.49701695               -0.00744189                0.13954978
              -0.06075557                9.94761222               88.09264598                0.99637916               -0.02131916               -0.01987512                0.05543506               -0.00729590               -0.02067070               -0.02681703
               0.93903124                9.93953260               88.09782089                1.00000000               -0.02700059               -0.02395520                0.07901003               -0.00670815               -0.02284746               -0.00499784
               1.93870442                9.93147627               88.10292830                1.00000000               -0.03681073               -0.02968483                0.10035105               -0.00391194               -0.02858795                0.00699946
               2.93829502                9.92355958               88.10801381                0.99999998               -0.04075085               -0.04006933                0.11940946               -0.00605056               -0.02926302               -0.00594681
               3.93788940                9.91569576               88.11317502                0.66890559               -0.57290523               -0.04701389                0.13938190                0.94077358                0.24232278                0.01570573
               4.92683692                9.92663048               88.12371040                0.01000000               -0.67333529               -0.06055751                0.24585706                0.75764198                0.65426667               -0.28281845
               5.92442269                9.93451954               88.12894788                0.01000001               -0.08079718               -0.07459810                0.18506387                0.46632350                0.19554518               -0.07035364
               6.92522097                9.94024232               88.13540831                0.01000001                0.21345930               -0.14913970                0.18240457                0.35466937                0.20372791                0.00322231
               7.92869188                9.94357337               88.14272079                0.01000000                0.49810372               -0.23475940                0.17191912                0.46393201                0.25746735                0.04971790
               8.93518305                9.94854515               88.15154801                1.00000000                0.29666683               -0.04947996                0.17696028                0.43602380                0.13625431                0.00707331
               9.93462522                9.94481963               88.15779146                1.00000000               -0.05578317               -0.05462889                0.19246232               -0.00630025                0.00714405               -0.00716029
              -0.14421580               -0.05110678               89.06951952                0.87616015               -0.00591699               -0.00577867                0.07041510                0.00258976                0.00920086               -0.00031909
               0.85572503               -0.05559499               89.07272828                0.79258337                0.01065264               -0.03829484                0.07648394                0.01626151                0.02441387               -0.00230254
               1.85599726               -0.05917194               89.07622163                0.72400752                0.02462029               -0.02056535                0.08453819                0.01635223                0.05813644               -0.00102817
               2.85621744               -0.06132850               89.07987246                0.45012799                0.02819026               -0.01653090                0.07934049                0.09651801                0.06675270                0.00705997
               3.85656106               -0.06060438               89.08355638                0.35733525               -0.08547662                0.04291894                0.06519844                0.08651324                0.02118475                0.00377551
               4.85450791               -0.05678555               89.08666015                0.80232660               -0.13758045               -0.00305821                0.06296529                0.13167416               -0.03504284                0.02001050
               5.85380945               -0.05550734               89.08852734                1.00000000               -0.06023899               -0.02498659                0.09056677                0.02253082               -0.06187574               -0.00242401
               6.85330313               -0.05492288               89.09055718                0.99999972               -0.04685379               -0.02161609                0.07932407                0.00395778               -0.05394248                0.01065171
               7.85287238               -0.05471523               89.09263185                1.00000000               -0.03645555               -0.02036807                0.06855581                0.00111872               -0.05648208                0.01211884
               8.85257402               -0.05467551               89.09468394                0.99465088               -0.02479764               -0.01736652                0.05853472               -0.00247018               -0.04869546               -0.00123040
               9.85237643               -0.05463086               89.09696119                0.98650022               -0.01975921               -0.02008564                0.05277463               -0.00639647               -0.03803356               -0.03299373
              -0.13970169                0.94883543               89.07213579                0.81851626               -0.03780838                0.00814342                0.07742000                0.01261220               -0.00081630                0.01179446
               0.85992023                0.94402206               89.07529414                0.19469771               -0.06353901               -0.06000750                0.08684313                0.07514802                0.00770577                0.00637605
               1.85902753                0.94062241               89.07865478                0.01000000               -0.10106944               -0.03700660                0.10140905                0.16916380                0.01990038                0.04058617
               2.85789884                0.93850619               89.08219310                0.01000000               -0.19364062               -0.00162053                0.10693337                0.30084414                0.06501584                0.08198658
               3.85515472                0.93982481               89.08629303                0.01000000               -0.23113549               -0.00174450                0.10395681                0.45648194                0.16401893                0.05415042
               4.85327613                0.94318387               89.09060575                0.01000000               -0.10256468               -0.10974791                0.07360762                0.45253004                0.09832377               -0.00118617
               5.85310343                0.94424280               89.09282728                0.01000000               -0.01647386               -0.11491322                0.09524437                0.23700949               -0.00536609                0.03052599
               6.85294665                0.94486096               89.09521146                0.79713502               -0.01717712               -0.02067893                0.09406099                0.02682149                0.00389214                0.04164753
               7.85275988                0.94508109               89.09757157                1.00000000               -0.02197608               -0.02609823                0.08554768                0.00689996               -0.00396521                0.01704438
               8.85250713                0.94515082               89.09979115                1.00000000               -0.02460367               -0.01813377                0.07817766                0.00000128               -0.00877142                0.00687904
               9.85226781                0.94516828               89.10207487                1.00000000               -0.02393206               -0.02626825                0.07288056               -0.00584519               -0.00547068               -0.03910837
              -0.13433681                1.94905609               89.07498458                0.78668883               -0.02221727                0.01671235                0.08480483                0.00986581               -0.00318810                0.04484419
               0.86544102                1.94320486               89.07805432                0.01000000               -0.03833967               -0.08735577                0.10245860                0.15414565                0.03677745                0.01832567
               1.86489640                1.94008793               89.08193276                0.01000001               -0.12045505               -0.07988832                0.09789137                0.38805577                0.09645188                0.09195583
               2.86303192                1.93863909               89.08598735                0.01000001               -0.19416874               -0.03245559                0.12845203                0.57174014                0.13180301                0.13342127
               3.86101302                1.93936073               89.09028890                0.01000001               -0.19456970               -0.08126630                0.13211341                0.77047334                0.14542283                0.10313277
               4.85914052                1.94101950               89.09426757                0.01000000               -0.20702366               -0.18290935                0.12676741                0.77618916                0.12144561                0.03334822
               5.85687255                1.94219440               89.09769431                0.01000001               -0.30696293               -0.14555422                0.12093239                0.68568448                0.07117552                0.06771415
               6.85300127                1.94466355               89.10042323                0.01000270               -0.20760160               -0.10981366                0.09054984                0.49921086                0.03505977                0.07174041
               7.85272052                1.94476280               89.10256256                0.01000001               -0.02572080               -0.12099458                0.09893206                0.21529451                0.02398817                0.07171233
               8.85248685                1.94496181               89.10500090                1.00000000               -0.02479576               -0.01741293                0.09902634                0.02231764                0.02611823                0.04678564
               9.85222460                1.94484377               89.10706528                1.00000000               -0.02622461               -0.03758742                0.09083706               -0.00143260                0.00955873               -0.05016171
              -0.12780191                2.94916968               89.07803614                0.50508693               -0.02267857                0.01792089                0.08541350                0.07003745                0.00561957                0.07047215
               0.87197130                2.94227494               89.08101999                0.01000000               -0.04218361               -0.14991443                0.11271870                0.27466885                0.08083770                0.06120351
               1.87135441                2.93902464               89.08546410                0.01000001               -0.09552304               -0.12961004                0.12817799                0.54316515                0.13924393                0.12523082
               2.87006084                2.93785708               89.08990083                0.01000001               -0.15853148               -0.11054719                0.13980466                0.73538410                0.13639072                0.13184507
               3.86818378                2.93819949               89.09426292                0.01000000               -0.20472955               -0.13047691                0.14561291                0.86798557                0.13529540                0.10148093
               4.86596625                2.93952568               89.09845223                0.01000001               -0.25053594               -0.14084283                0.14373042                0.92280573                0.12335036                0.06540793
               5.86317307                2.94133171               89.10227579                0.01000000               -0.28018923               -0.10167973                0.14077054                0.89679193                0.10615981                0.04420977
               6.86036246                2.94266469               89.10568116                0.01000000               -0.32027782               -0.13990445                0.13828432                0.80785248                0.08984754                0.05637615
               7.85676751                2.94266120               89.10858661                0.01001255               -0.37449739               -0.08029558                0.13508032                0.57589371                0.07976491                0.12502220
               8.85287252                2.94480256               89.11076571                1.00000000               -0.21461354               -0.02734097                0.13560361                0.12971868                0.03752335                0.07780201
               9.85247524                2.94441653               89.11202568                1.00000000               -0.03972778               -0.04083289                0.11006129               -0.00601007               -0.00895204               -0.05085854
              -0.11914659                3.94941451               89.08137738                0.36772674                0.02260246               -0.07841758                0.07053384                0.08918060                0.00535490                0.05296477
               0.88107944                3.94020657               89.08461734                0.01000000               -0.03379230               -0.19379052                0.11367493                0.42468595                0.07134145                0.16642025
               1.88017756                3.93749573               89.08929928                0.01000001               -0.12573395               -0.15198717                0.13584923                0.74018853                0.11759017                0.14402888
               2.87856476                3.93642815               89.09379936                0.01000000               -0.17367153               -0.16359484                0.14737140                0.86253361                0.10849397                0.12878918
               3.87670413                3.93675119               89.09827423                0.01000000               -0.20501711               -0.16665344                0.15242168                0.99781145                0.10650273                0.09823092
               4.87446441                3.93820264               89.10260004                0.01000000               -0.25173752               -0.14882405                0.15392671                1.09217430                0.09859632                0.05742248
               5.87166938                3.94016080               89.10670189                0.01003837               -0.33177914               -0.11236305                0.15469770                1.11651688                0.08735949                0.02431100
               6.86782883                3.94186546               89.11051497                0.01000000               -0.47844312               -0.04770824                0.15655243                1.04439333                0.09000075                0.00095893
               7.86210052                3.94315689               89.11421424                0.01000001               -0.72514717                0.05694369                0.17616178                0.97636515                0.05248501               -0.00732105
               8.85332589                3.94441499               89.11621968                0.01196456               -0.46120281               -0.07451570                0.17308682                0.90788636                0.09047706                0.09660149
               9.85287647                3.94402711               89.11710793                1.00000000               -0.04494228               -0.52138778                0.13308184                0.78100066                0.02695353                0.26548139
              -0.10760243                4.94760133               89.08449067                0.77816384               -0.00137714               -0.12805178                0.06026680                0.11950971                0.02101641               -0.01489996
               0.89238380                4.93839913               89.08892457                0.01000000               -0.12304810               -0.09755342                0.07531566                0.43588160               -0.00710730                0.11730221
               1.88993661                4.93598490               89.09295198                0.01000000               -0.21638753               -0.17535011                0.12972202                0.75841735                0.02928560                0.12425816
               2.88805605                4.93458519               89.09758488                0.01000001               -0.17855413               -0.21622580                0.14730870                0.91818008                0.06944284                0.11986229
               3.88636552                4.93486642               89.10216915                0.01000000               -0.18279599               -0.21919235                0.15637562                1.09037408                0.06565873                0.08572012
               4.88440013                4.93654920               89.10661442                0.01000001               -0.22624693               -0.20015999                0.16230496                1.24771432                0.05527362                0.04130758
               5.88184058                4.93908445               89.11089097                0.01000001               -0.30729422               -0.13330840                0.16501604                1.34988399                0.03684320               -0.00058141
               6.87825424                4.94171053               89.11489433                0.01000001               -0.40476537               -0.04019000                0.17079514                1.40101765               -0.00854951               -0.02436294
               7.87374528                4.94380007               89.11842428                0.01000007               -0.40471100                0.00004773                0.15313851                1.39744486               -0.10525761               -0.02187175
               8.87016002                4.94331225               89.12231219                0.01009079               -0.24371348               -0.18045642                0.37193116                1.16268536               -0.45277357                0.28076972
               9.86887101                4.93398878               89.12843109                0.01000000               -0.12890136               -0.66225702                0.09378396                0.71730400               -0.38700751                0.82405394
              -0.09835201                5.94685347               89.08601895                0.99999999               -0.02344939               -0.06248907                0.08523159                0.02736564               -0.00110999               -0.05333304
               0.90141350                5.93825550               89.09080296                0.01000000               -0.12440655               -0.01467444                0.09227846                0.23344983                0.03116826               -0.01045230
               1.89915986                5.93398873               89.09617041                0.01000001               -0.16833295               -0.27669909                0.11473676                0.69599011                0.06527963                0.11851599
               2.89804684                5.93210363               89.10112279                0.01000000               -0.13061310               -0.24725180                0.14088845                0.89491785                0.03857484                0.09820134
               3.89654760                5.93236735               89.10583409                0.01003715               -0.14230855               -0.30575456                0.16101637                1.10662366                0.02449627                0.06906825
               4.89520067                5.93419944               89.11043094                0.01000001               -0.15209286               -0.29498785                0.17016054                1.34077341                0.01153444                0.01806094
               5.89350574                5.93749463               89.11489787                0.01000001               -0.20335512               -0.20357070                0.17381748                1.52263538               -0.00496741               -0.02113780
               6.89113356                5.94106166               89.11924581                0.01000000               -0.25290229               -0.10056570                0.17282389                1.58235996               -0.03433886               -0.01519931
               7.88844770                5.94315785               89.12358337                0.01000000               -0.23713383               -0.07696858                0.19106978                1.44047076               -0.10058372                0.09049522
               8.88639089                5.94080586               89.12801516                0.01000000               -0.12891024               -0.16582728                0.16506747                0.95274164               -0.11697743                0.24720528
               9.88586949                5.93078197               89.13263340                0.01000000               -0.05213979               -0.16708921                0.20362044                0.56889954               -0.08703682                0.20180721
              -0.08985918                6.94635155               89.08773698                0.99999999               -0.02232796               -0.04886774                0.07406235                0.00276944                0.00546638               -0.04671584
               0.90991754                6.93810565               89.09274191                0.51194328               -0.00662696               -0.01407158                0.09619841                0.03482177                0.08916172               -0.00223440
               1.91000828                6.93045092               89.09935913                0.01000001               -0.11708775               -0.18575685                0.05366739                0.50299391                0.06206913                0.02558902
               2.90757578                6.92964015               89.10413976                0.01000000               -0.18030433               -0.28438695                0.13964131                0.78812629               -0.00005416                0.06757890
               3.90640219                6.92875133               89.10919725                0.01000000               -0.07437376               -0.45359522                0.16812043                1.00336599               -0.00169268                0.06498330
               4.90608831                6.93064945               89.11397420                0.01000001               -0.04855580               -0.44276616                0.18353868                1.36504811               -0.01551564               -0.03098804
               5.90543107                6.93501304               89.11876537                0.01000000               -0.09250387               -0.28762955                0.18424864                1.59311778               -0.00430246               -0.04603678
               6.90423823                6.93969921               89.12370779                0.01000000               -0.13102940               -0.14311589                0.18093341                1.56894985               -0.00812415               -0.01611833
               7.90281049                6.94226070               89.12863809                0.01000000               -0.13237507               -0.06658403                0.17714019                1.33143312               -0.02471376                0.06851863
               8.90159073                6.93999570               89.13364236                0.01000001               -0.12568536                0.01981778                0.18546091                0.80044710               -0.01138729                0.16774579
               9.90029678                6.93064699               89.13892584                0.01000000               -0.12939483                0.13932270                0.19123106                0.36787340                0.01933525                0.24008934
              -0.08180482                7.94587611               89.08947903                1.00000000               -0.01846182               -0.04023184                0.06458869                0.00059611                0.00890875               -0.04947019
               0.91801056                7.93797407               89.09474444                1.00000000               -0.02549737               -0.01836331                0.08960067                0.01286826                0.01690199               -0.00509644
               1.91768523                7.93027359               89.10013217                0.01000001               -0.12508045               -0.02283024                0.11371333                0.19980571                0.07228707               -0.04096123
               2.91550895                7.92641589               89.10653131                0.01002750               -0.10398063               -0.34930559                0.13649470                0.54121830                0.11843618                0.04250753
               3.91560562                7.92329544               89.11240852                0.01000001                0.03654825               -0.66885140                0.18449828                0.87408275               -0.01002815                0.01392675
               4.91623992                7.92534412               89.11697368                0.01000007                0.03563549               -0.69014751                0.20527307                1.42804314               -0.01022048               -0.07245329
               5.91631833                7.93174204               89.12268199                0.01000000               -0.04875096               -0.26859983                0.21270602                1.52624309                0.09257964               -0.10705211
               6.91526490                7.93819934               89.12813371                0.01000000               -0.07692327               -0.13865735                0.18985143                1.36426735                0.06376463               -0.02803587
               7.91477987                7.94182617               89.13397349                0.01000000               -0.06256819               -0.06354244                0.17955426                1.13518671                0.04266097                0.04570323
               8.91401354                7.94120222               89.13990220                0.01000003               -0.14277424                0.17976912                0.17305680                0.76015050                0.02706781                0.20108086
               9.91192438                7.93356843               89.14571567                0.01000001               -0.20891552                0.45612404                0.17409058                0.45015259                0.03902342                0.28211851
              -0.07404317                8.94554691               89.09122463                0.99385092               -0.01794000               -0.02623599                0.05629960               -0.00459209               -0.00007916               -0.04112385
               0.92577743                8.93773838               89.09664487                0.99999998               -0.01971300               -0.02351481                0.08033128               -0.00230803                0.00634355               -0.00900061
               1.92556257                8.92999431               89.10213778                1.00000000               -0.01995668               -0.02765140                0.10483749                0.02037203                0.03991795                0.01555043
               2.92537829                8.92265404               89.10809103                1.00000000               -0.03034720               -0.20923501                0.14397036                0.13004073                0.06805052                0.01482253
               3.92495562                8.91537430               89.11377974                0.02204778                0.04121371               -0.42049216                0.18584653                0.54486965                0.15511551                0.05941736
               4.92620257                8.91684650               89.12141145                0.01000001               -0.09274555               -0.52623729                0.39073688                1.32307174                0.27202514               -0.42988332
               5.92310071                8.92964104               89.12652378                0.01000001               -0.23815570               -0.11694136                0.20954621                1.22786150                0.18531022               -0.10675071
               6.92143945                8.93692606               89.13263202                0.01000001               -0.02946858               -0.12826650                0.20477123                0.82434714                0.15252620               -0.01481698
               7.92251134                8.94098985               89.13930923                0.01000000                0.18060110               -0.14767525                0.18214749                0.75232640                0.18175892                0.03350065
               8.92505148                8.94359109               89.14768913                0.99999999                0.10280368                0.09457778                0.15565744                0.68494666                0.09217212                0.11516352
               9.92456741                8.93976947               89.15407870                0.99994153               -0.04840614                0.28285977                0.16948928                0.44040431               -0.00742890                0.12908114
              -0.06627960                9.94535139               89.09317047                0.98527816               -0.02033987               -0.01955146                0.05073525               -0.00840486               -0.02593256               -0.03122227
               0.93351700                9.93750377               89.09858810                1.00000000               -0.02716917               -0.02346056                0.07475083               -0.00758433               -0.03004665               -0.00653098
               1.93317702                9.92972056               89.10391461                1.00000000               -0.03936096               -0.02737501                0.09568668               -0.00218413               -0.03903938                0.00617518
               2.93272978                9.92223119               89.10920363                1.00000000               -0.04332300               -0.04228443                0.11823060               -0.00659926               -0.04087338               -0.00790643
               3.93231056                9.91488560               89.11457200                0.99220214               -0.21475848               -0.04886985                0.14601470                0.36490210                0.23458597                0.02228597
               4.92843461                9.91481937               89.12539511                0.01000001               -0.57572817               -0.20271263                0.06477048                0.94908530                0.79091603               -0.46731212
               5.92079599                9.92940322               89.13090998                0.01000003               -0.40157895               -0.02378230                0.22040076                0.81026002                0.20915794               -0.05750866
               6.92040303                9.93563401               89.13729074                0.01000000                0.11826901               -0.12920553                0.20015260                0.36983016                0.19778153                0.01389322
               7.92316137                9.93887266               89.14449655                0.01000000                0.42649065               -0.21171885                0.18363806                0.43799149                0.24864360                0.04982521
               8.92893285                9.94309377               89.15332064                0.99999999                0.26071603               -0.04973111                0.17763248                0.40578515                0.12877724                0.00702751
               9.92837569                9.93922562               89.15971054                1.00000000               -0.05571527               -0.05438499                0.19127257               -0.00598727                0.00718769               -0.00709358
              -0.14735342               -0.05376300               90.07026756                0.84999579               -0.00607406               -0.00642058                0.07932553                0.00007380                0.00939451               -0.00168186
               0.85258584               -0.05821724               90.07349802                0.73773986                0.01632431               -0.03822337                0.07789835                0.01634658                0.02383537                0.00202268
               1.85297306               -0.06170197               90.07704716                0.77933325                0.03062367               -0.02423173                0.08186617                0.00815790                0.05548481                0.00134952
               2.85319831               -0.06374214               90.08066070                0.50780252                0.02282177               -0.01611646                0.07867252                0.07044381                0.05886397                0.00506759
               3.85342950               -0.06351622               90.08425720                0.36680306               -0.07487857                0.02626473                0.07771936                0.08494815                0.01853424                0.00228993
               4.85170074               -0.06059956               90.08727660                0.91504692               -0.11144693               -0.00905700                0.06170312                0.11104914               -0.02323262                0.01823495
               5.85120056               -0.05984418               90.08936812                0.99999999               -0.05012264               -0.02143218                0.07853074                0.01019790               -0.06133401               -0.00205245
               6.85069828               -0.05954102               90.09133365                1.00000000               -0.04790848               -0.01889118                0.07560210                0.00408487               -0.06622975                0.01050552
               7.85024239               -0.05962686               90.09330602                0.99999988               -0.03880793               -0.01810245                0.06625767                0.00214348               -0.06846546                0.01003140
               8.84992213               -0.05990562               90.09525450                0.99086384               -0.02625107               -0.01442483                0.05632725               -0.00297437               -0.05747810               -0.00343692
               9.84971737               -0.06020327               90.09747884                0.97027864               -0.02047579               -0.02031534                0.05092619               -0.00700222               -0.04414835               -0.03795797
              -0.14289845                0.94617279               90.07292254                0.75201323               -0.03827662                0.01357455                0.08030105                0.01410848                0.00316084                0.00854737
               0.85671879                0.94140053               90.07615164                0.38226410               -0.06422306               -0.06165616                0.08368926                0.07598438                0.01628132                0.01510493
               1.85581709                0.93805571               90.07963912                0.01000000               -0.09544591               -0.04201925                0.09276885                0.16672093                0.03587389                0.01146244
               2.85480987                0.93609669               90.08319895                0.01000000               -0.15547014               -0.01302973                0.09606087                0.28090485                0.07455974                0.08247324
               3.85270769                0.93674643               90.08723638                0.01002497               -0.19173304               -0.01149099                0.09484840                0.40307981                0.16044020                0.04913305
               4.85097521                0.93930987               90.09133250                0.01000001               -0.09672122               -0.10357338                0.07427672                0.40717772                0.09263957                0.01878036
               5.85077326                0.93994150               90.09371112                0.01000001               -0.01723658               -0.10331272                0.08535489                0.21227650                0.00571607                0.04369147
               6.85063048                0.94027007               90.09611119                0.87451934               -0.01635692               -0.01943318                0.08716189                0.02491251                0.00238403                0.03272540
               7.85044613                0.94019211               90.09839755                0.99999999               -0.02249461               -0.02474134                0.08049822                0.00681236               -0.00962182                0.01306384
               8.85018058                0.93995013               90.10055230                0.99999999               -0.02505670               -0.01276666                0.07390337                0.00042866               -0.01303765                0.00408458
               9.84994499                0.93959358               90.10278959                1.00000000               -0.02355919               -0.02878639                0.06908444               -0.00708285               -0.00781293               -0.04640984
              -0.13752672                1.94650849               90.07582333                0.82099502               -0.02506736                0.02345133                0.08357884                0.00436684               -0.00038586                0.04129248
               0.86222261                1.94054964               90.07905496                0.01000000               -0.04309832               -0.08680842                0.09473670                0.15642423                0.00792694                0.03508054
               1.86161131                1.93745764               90.08255078                0.01000001               -0.10484604               -0.07337211                0.05888292                0.39124875                0.08133261                0.09048005
               2.86012569                1.93599726               90.08728651                0.01000001               -0.16666970               -0.04629584                0.12507801                0.54479730                0.15090299                0.13075150
               3.85827792                1.93625396               90.09154281                0.01000001               -0.17382328               -0.08116865                0.12282528                0.69018796                0.12922622                0.10250439
               4.85664922                1.93732897               90.09551269                0.01000000               -0.18960174               -0.16930006                0.11391243                0.69970860                0.10945289                0.05703847
               5.85448588                1.93808957               90.09892102                0.01000432               -0.28516478               -0.13817307                0.13760224                0.62890821                0.06480551                0.07151429
               6.85094592                1.94007032               90.10129538                0.01000002               -0.18936534               -0.10974764                0.08678785                0.46428514                0.02630861                0.08141150
               7.85069858                1.93987831               90.10351204                0.01000000               -0.02083459               -0.10968193                0.09253377                0.22154689                0.03196959                0.07888619
               8.85052923                1.93983905               90.10595476                1.00000000               -0.02048817               -0.00029835                0.09191710                0.04035387                0.02708802                0.05263906
               9.85028881                1.93922101               90.10794917                0.99999999               -0.02404179               -0.04295504                0.08683873                0.00395005                0.00877539               -0.06016136
              -0.13089340                2.94664182               90.07888867                0.56354576               -0.02084775                0.01147599                0.08531454                0.05007581                0.00333871                0.06042020
               0.86889812                2.93966436               90.08209868                0.01000000               -0.04560785               -0.12554834                0.10372440                0.26339120                0.07725124                0.07260014
               1.86819444                2.93658827               90.08676163                0.01000001               -0.09943126               -0.11411281                0.12513629                0.52379005                0.13213180                0.15296034
               2.86690949                2.93517078               90.09126109                0.01000000               -0.15073492               -0.10823986                0.13450894                0.67234628                0.12179218                0.12313058
               3.86517974                2.93512306               90.09570397                0.01000001               -0.18878602               -0.12657190                0.13967551                0.78728003                0.11947607                0.09821055
               4.86313377                2.93592387               90.09986879                0.01001073               -0.22848313               -0.13487933                0.13944309                0.82847981                0.10744899                0.06833403
               5.86061008                2.93717804               90.10369317                0.01010685               -0.25031676               -0.10234539                0.13348132                0.80936791                0.09289437                0.04944443
               6.85812744                2.93807512               90.10707129                0.01000003               -0.27508703               -0.14368411                0.13736428                0.73940652                0.08498530                0.08038377
               7.85510834                2.93799847               90.10991979                0.01000001               -0.32412357               -0.09998829                0.12871199                0.54504563                0.08665886                0.15418517
               8.85164497                2.93994416               90.11210655                1.00000000               -0.19241313               -0.01326582                0.11757625                0.16483434                0.03995638                0.10374078
               9.85126008                2.93873448               90.11312486                1.00000000               -0.03848913               -0.04475211                0.10834679               -0.01028370               -0.01861258               -0.06492948
              -0.12257028                3.94673801               90.08212333                0.38346099                0.01142623               -0.07329622                0.08165532                0.07831731                0.00334517                0.04204860
               0.87754398                3.93803867               90.08566321                0.01000206               -0.04245124               -0.16023480                0.10481511                0.37656730                0.05986000                0.16095311
               1.87658070                3.93517539               90.09061397                0.01000001               -0.12530804               -0.13885790                0.12755529                0.66865762                0.10853246                0.13670895
               2.87503782                3.93383247               90.09526065                0.01000001               -0.16551328               -0.15280441                0.14226453                0.78248122                0.09625972                0.12390889
               3.87327043                3.93372253               90.09979582                0.01000001               -0.19369946               -0.15990173                0.14911741                0.90093711                0.09304104                0.09442696
               4.87116383                3.93463138               90.10414932                0.01000002               -0.23742201               -0.14524677                0.15227350                0.98495943                0.08853652                0.06113408
               5.86852199                3.93604266               90.10826967                0.01000000               -0.31251055               -0.11221719                0.15538164                0.99856789                0.08657306                0.03054598
               6.86491362                3.93719664               90.11213139                0.01000000               -0.43957721               -0.05034373                0.16278378                0.90353885                0.10813028                0.01652213
               7.85973045                3.93787854               90.11602807                0.01000000               -0.59118536                0.03829064                0.16206659                0.78155149                0.08995571                0.00281795
               8.85308991                3.93957373               90.11803017                0.21902191               -0.36139671                0.06530202                0.18872478                0.25058435                0.12516924                0.34225872
               9.85250251                3.93832596               90.11849791                1.00000000               -0.05874027               -0.03149589                0.15791751                0.07819718                0.04529509                0.08040297
              -0.11192838                4.94517590               90.08507587                0.89158500               -0.00795340               -0.10440236                0.05917696                0.09808219                0.01751491               -0.00563678
               0.88799209                4.93645966               90.08966282                0.01000001               -0.11489137               -0.08825469                0.07530293                0.38530604                0.00855000                0.10560750
               1.88577380                4.93381111               90.09419300                0.01000000               -0.19900549               -0.16041160                0.12287026                0.68204366                0.04251622                0.11577060
               2.88401198                4.93211469               90.09904103                0.01000001               -0.16871147               -0.19930598                0.14083892                0.82804566                0.06458391                0.11216302
               3.88239957                4.93192502               90.10374053                0.01000002               -0.17495768               -0.20855493                0.15454491                0.98345197                0.05834850                0.08772140
               4.88051283                4.93301893               90.10827491                0.01000000               -0.21916920               -0.19566883                0.16505572                1.12672141                0.04999227                0.04797484
               5.87801618                4.93493370               90.11259609                0.01000007               -0.30752466               -0.13532967                0.17368945                1.22449631                0.04368180                0.00574127
               6.87436233                4.93706825               90.11676886                0.01000000               -0.48269528               -0.03549285                0.18553264                1.26263785                0.00442549               -0.02040318
               7.86836228                4.93876429               90.12016305                0.01000001               -0.90765485                0.06498021                0.24179491                1.36262255                0.13367099               -0.00713274
               8.85620924                4.94125021               90.12819393                0.01000001               -0.65213616               -0.06002751                0.28811784                1.35738158               -0.31362450                0.20682859
               9.85531955                4.93810456               90.12684505                0.01000247               -0.08896824               -0.53972989               -0.03140351                1.09731182               -0.72072487                0.71829817
              -0.10317617                5.94464996               90.08681821                1.00000000               -0.02089422               -0.05197584                0.07523530                0.01318485               -0.00127621               -0.05516784
               0.89661489                5.93627358               90.09168042                0.01000001               -0.11286446               -0.01576702                0.08530875                0.21111818                0.03762522                0.00333060
               1.89456654                5.93196715               90.09728789                0.01001204               -0.15650337               -0.25396652                0.11272607                0.63080439                0.07446587                0.08042751
               2.89348482                5.92984635               90.10249809                0.01008698               -0.12656578               -0.22202544                0.13536929                0.80620128                0.04332033                0.09852329
               3.89203523                5.92955143               90.10746260                0.01000000               -0.13976179               -0.28695571                0.15957450                0.99175547                0.02584384                0.08037511
               4.89068959                5.93071801               90.11218756                0.01000007               -0.15363121               -0.29334759                0.17668427                1.21619755                0.00664758                0.04021667
               5.88896260                5.93333607               90.11673472                0.01000000               -0.21768988               -0.21071254                0.18672536                1.40984480               -0.01070783               -0.00738600
               6.88633579                5.93648678               90.12110759                0.01000000               -0.30808327               -0.09550192                0.19576833                1.52932874               -0.01707691               -0.01899624
               7.88280094                5.93917815               90.12579273                0.01000000               -0.27192584               -0.04776196                0.20639099                1.55340216               -0.07801519                0.08562589
               8.88089727                5.93837318               90.12966262                0.01000001               -0.10304508               -0.27513216                0.23099548                1.42156386               -0.04375730                0.02343132
               9.88074003                5.92753137               90.13517812                0.01000000               -0.01572363               -0.57528669                0.23313963                0.91007559                0.02574124                0.38432645
              -0.09491191                6.94413638               90.08846120                1.00000000               -0.01908320               -0.05053813                0.07144475                0.00390075                0.00884402               -0.05953557
               0.90489726                6.93614432               90.09369706                0.71051196               -0.01354903               -0.01374529                0.09147724                0.03486303                0.05800434                0.00093374
               1.90481711                6.92873178               90.09986789                0.01000000               -0.11727645               -0.17294490                0.05628504                0.46749116                0.06575697                0.02395825
               2.90255173                6.92767418               90.10550558                0.01000003               -0.17270488               -0.24508282                0.13234216                0.72109157                0.04400989                0.07431139
               3.90136301                6.92618591               90.11090337                0.01000000               -0.07497986               -0.41166249                0.16780194                0.88190528                0.01480776                0.09673604
               4.90105213                6.92715198               90.11594149                0.01000000               -0.04593555               -0.47992385                0.19319323                1.24319107               -0.01820119                0.02878692
               5.90044430                6.93071945               90.12074007                0.01000000               -0.09726542               -0.31000329                0.20068820                1.52398288               -0.02465209                0.00038616
               6.89910683                6.93515821               90.12563742                0.01000001               -0.14501915               -0.14683964                0.19244604                1.54469755               -0.02888499               -0.00525030
               7.89754392                6.93780905               90.13055155                0.01000001               -0.14097651               -0.11085559                0.19790128                1.35201701               -0.02250477                0.05637020
               8.89628730                6.93574756               90.13576037                0.01000001               -0.11696135               -0.10929556                0.22795610                0.81287388               -0.01164830                0.18060563
               9.89520469                6.92659883               90.14089601                0.01000000               -0.10826024                0.06268970                0.21704443                0.37264225               -0.00808221                0.25278551
              -0.08711404                7.94363920               90.09011351                1.00000000               -0.01692115               -0.04196614                0.06330318                0.00132737                0.00846206               -0.05921925
               0.91271675                7.93599867               90.09562293                0.99999999               -0.02497268               -0.01979242                0.08445178                0.01079290                0.01441590               -0.01063732
               1.91238651                7.92850826               90.10123065                0.01000000               -0.11321125               -0.02150433                0.10228486                0.21190682                0.07163684               -0.01053709
               2.91045252                7.92494469               90.10787562                0.01000001               -0.10954876               -0.30448827                0.12970547                0.52212544                0.13828815                0.05549861
               3.91019553                7.92131818               90.11427414                0.01000000                0.02836727               -0.54975685                0.16558560                0.73054104                0.03348279                0.07187668
               4.91101987                7.92111953               90.11933445                0.01000001                0.06202505               -0.84675116                0.25037908                1.30672739                0.00581556                0.18382020
               5.91143603                7.92713600               90.12503306                0.01000000               -0.04398657               -0.29084616                0.21453753                1.55185841                0.03336680               -0.01150734
               6.91014014                7.93354999               90.13017959                0.01000001               -0.10920554               -0.14389294                0.20542359                1.35922352                0.02469675                0.00491631
               7.90925192                7.93696104               90.13590055                0.01000001               -0.08875842               -0.08705646                0.19156287                1.09377043                0.03365529                0.06090232
               8.90836497                7.93618727               90.14171281                0.01000001               -0.13807865                0.10886138                0.19743409                0.70283703                0.03284655                0.16123681
               9.90649035                7.92878516               90.14751297                0.01000003               -0.18746206                0.36769168                0.21092612                0.40130308                0.03615391                0.28143674
              -0.07960430                8.94329706               90.09177151                0.98301279               -0.01516372               -0.02715544                0.05456964               -0.00463048               -0.00343100               -0.04811762
               0.92024406                8.93574847               90.09742585                1.00000000               -0.01432359               -0.02415821                0.07587050               -0.00129727                0.00231716               -0.01372369
               1.92010923                8.92830169               90.10314959                1.00000000               -0.00298716               -0.02310701                0.09733683                0.03787693                0.04399213                0.01303928
               2.92018432                8.92158441               90.10951210                1.00000000               -0.01551163               -0.18842197                0.12552545                0.16283599                0.09235633                0.02196792
               3.91979900                8.91519077               90.11572366                0.27034865                0.05922685               -0.33806073                0.20115778                0.24133235                0.33880725                0.09581732
               4.92136886                8.91021696               90.12629252                0.01000001               -0.03739911               -0.59013044                0.24217421                1.25045721                0.11875369               -0.00168251
               5.91905101                8.92490252               90.12876930                0.01000003               -0.24512974               -0.12695200                0.24691032                1.36687934               -0.04917159                0.00521970
               6.91646626                8.93228035               90.13490908                0.01000000               -0.11344822               -0.11736170                0.24222547                0.83076465                0.12714359                0.00756525
               7.91678205                8.93606792               90.14122732                0.01000001                0.10268264               -0.13828959                0.20737837                0.70136855                0.13193675                0.05448857
               8.91851991                8.93792479               90.14925083                0.99999999                0.06264623                0.06177109                0.15703926                0.60321853                0.06777892                0.09158846
               9.91803497                8.93395266               90.15577091                0.99998795               -0.04849409                0.23144568                0.16864079                0.37772776               -0.00748719                0.11337306
              -0.07210948                9.94309609               90.09366069                0.97043545               -0.02043500               -0.02009646                0.04907108               -0.00857692               -0.03171374               -0.03720677
               0.92768617                9.93551551               90.09931591                1.00000000               -0.02912062               -0.02329671                0.07083420               -0.00828843               -0.03898522               -0.00882224
               1.92730810                9.92804612               90.10484203                0.99999999               -0.04330007               -0.02555770                0.09110135                0.00292483               -0.05088380                0.00536314
               2.92682016                9.92117625               90.11037842                1.00000000               -0.04592338               -0.04081632                0.11476365               -0.01087314               -0.05469653               -0.01628355
               3.92638964                9.91455696               90.11609531                1.00000000               -0.02514517               -0.06338089                0.16941992                0.06609759                0.10365624                0.03960406
               4.92631726                9.90931692               90.12500581                0.01000000               -0.48397042               -0.09000349                0.02415077                0.99684052                0.41802409               -0.31517303
               5.91671023                9.92459696               90.13335589                0.01000002               -0.53636132               -0.03055602                0.22843012                0.86021308                0.31298390                0.01968780
               6.91559004                9.93120275               90.13941136                0.01000000                0.04623117               -0.10775934                0.23086730                0.39229147                0.21281604                0.00237710
               7.91763485                9.93419525               90.14639356                0.01000002                0.34772811               -0.18726729                0.22323046                0.39627701                0.25237934                0.05217851
               8.92254460                9.93742269               90.15510066                0.99998462                0.21771546               -0.05020988                0.17792039                0.36340965                0.11661126                0.00727377
               9.92198916                9.93341407               90.16161691                1.00000000               -0.05554371               -0.05385878                0.19058423               -0.00544307                0.00693795               -0.00745706
              -0.15048881               -0.05645037               91.07110603                0.82525183               -0.00890420               -0.00990152                0.09035936               -0.00192876                0.00727708               -0.00404039
               0.84942215               -0.06086179               91.07428624                0.65726084                0.02165380               -0.03709865                0.08183256                0.01678863                0.02222534                0.00525233
               1.84994427               -0.06432886               91.07785895                0.79385866                0.03812636               -0.03231026                0.07768369                0.00325248                0.05465413                0.00218023
               2.85018468               -0.06630363               91.08144591                0.55345311                0.01857939               -0.01665153                0.08107894                0.05140673                0.05858458                0.00955377
               3.85031585               -0.06651693               91.08511077                0.36971487               -0.06261699                0.00387921                0.09234643                0.07996113                0.00754945                0.00783839
               4.84893234               -0.06453264               91.08789421                0.95630211               -0.08950678               -0.01439664                0.06461492                0.08631196               -0.02368060                0.01699286
               5.84852572               -0.06423438               91.09009796                1.00000000               -0.04458511               -0.02018914                0.07156040                0.00457413               -0.05934193                0.00011902
               6.84804063               -0.06426784               91.09206923                1.00000000               -0.04717463               -0.01784180                0.07091685                0.00356241               -0.07363145                0.00955388
               7.84758223               -0.06469766               91.09395700                1.00000000               -0.03944958               -0.01659887                0.06374904                0.00081068               -0.07892074                0.00747824
               8.84725164               -0.06533985               91.09581048                0.97969535               -0.02687243               -0.01278976                0.05583954               -0.00542353               -0.06521793               -0.00550599
               9.84704478               -0.06601153               91.09797972                0.95445977               -0.02068646               -0.02187178                0.04862505               -0.00794897               -0.04916029               -0.04092541
              -0.14609668                0.94345061               91.07374181                0.66314710               -0.03740430                0.01830896                0.08569687                0.01571268                0.00584880                0.00466311
               0.85352928                0.93876722               91.07696792                0.45555755               -0.06028075               -0.05893843                0.08058884                0.06736906                0.02224140                0.02094001
               1.85269771                0.93534803               91.08051016                0.01000001               -0.08682532               -0.04480597                0.08280062                0.15549346                0.04467520               -0.00388520
               2.85179277                0.93352986               91.08411432                0.01000001               -0.12338675               -0.02521956                0.09676291                0.25235532                0.08044358                0.09033342
               3.85022997                0.93352187               91.08819000                0.01000000               -0.15692968               -0.02699248                0.10954998                0.34245234                0.14440390                0.05844797
               4.84865418                0.93532339               91.09209129                0.01000000               -0.08954590               -0.09216934                0.08286233                0.35304534                0.08571475                0.02432859
               5.84843906                0.93556373               91.09453438                0.01000001               -0.01731405               -0.10614945                0.08428890                0.20453039                0.00936490                0.07229837
               6.84830790                0.93555375               91.09695469                0.89794362               -0.01563576               -0.02002422                0.08478730                0.02342015               -0.00043444                0.02624949
               7.84812634                0.93513635               91.09918154                1.00000000               -0.02267795               -0.02420230                0.07786586                0.00484055               -0.01649497                0.00883602
               8.84785434                0.93453225               91.10126922                0.99677261               -0.02446878               -0.00999035                0.06955014               -0.00133789               -0.01834314                0.00068573
               9.84763696                0.93376975               91.10345655                0.99716169               -0.02173756               -0.03415984                0.06385212               -0.00792386               -0.01108818               -0.04899309
              -0.14080777                1.94391581               91.07665616                0.81762737               -0.03201193                0.03137383                0.08042738                0.00143954                0.00193001                0.03816257
               0.85887211                1.93795944               91.07994906                0.01046527               -0.04503644               -0.08242634                0.08485740                0.14866477               -0.00753026                0.04557440
               1.85829150                1.93477502               91.08311042                0.01000001               -0.09070796               -0.06636883                0.05892290                0.36847353                0.09969244                0.10794332
               2.85705795                1.93319198               91.08848891                0.01000001               -0.14600656               -0.05921518                0.13110841                0.49648861                0.16416797                0.13706045
               3.85537137                1.93294322               91.09274541                0.01000000               -0.15532867               -0.08055871                0.11909478                0.60838074                0.10677971                0.10620655
               4.85395138                1.93362397               91.09654582                0.01000000               -0.14926993               -0.15338284                0.10285724                0.60856320                0.08659412                0.06733921
               5.85238597                1.93364263               91.10044636                0.01000000               -0.25074793               -0.12958949                0.18585714                0.55485576               -0.09313261                0.18897045
               6.84893642                1.93533168               91.10215898                0.01000000               -0.18427189               -0.10586937                0.09283520                0.43516550               -0.00137976                0.09333317
               7.84870053                1.93481829               91.10441324                0.01000000               -0.01724684               -0.09537426                0.09060930                0.22338730                0.03452472                0.08519470
               8.84859148                1.93446034               91.10683925                0.99999999               -0.01446184                0.01348604                0.08462208                0.05496052                0.02551930                0.04332705
               9.84841130                1.93330527               91.10880206                1.00000000               -0.01801859               -0.06002786                0.08501783                0.00596311                0.00848347               -0.06571303
              -0.13415515                2.94407809               91.07974243                0.61011057               -0.02014850                0.00762362                0.08758079                0.03647635                0.00645283                0.05636600
               0.86564337                2.93711869               91.08309447                0.01000000               -0.05051072               -0.10489753                0.10380670                0.24282232                0.07952501                0.08225408
               1.86483464                2.93402066               91.08796683                0.01000001               -0.10445137               -0.09882394                0.12855974                0.48430671                0.12579017                0.18422811
               2.86355434                2.93234555               91.09259101                0.01000000               -0.14345182               -0.10327955                0.13281830                0.60700960                0.11237175                0.11637914
               3.86196560                2.93191069               91.09705643                0.01000000               -0.17141524               -0.11700247                0.13196486                0.71075468                0.10489795                0.09604287
               4.86012603                2.93225573               91.10124109                0.01000000               -0.20685703               -0.13023827                0.13527172                0.74355798                0.07620903                0.09830207
               5.85782846                2.93297194               91.10494541                0.01000001               -0.21452419               -0.08869189                0.11898243                0.71067172                0.09628841                0.06472662
               6.85583555                2.93343636               91.10842845                0.01000000               -0.21815178               -0.14166750                0.12905859                0.67767727                0.07877373                0.10992664
               7.85346542                2.93322886               91.11116085                0.01000000               -0.26844904               -0.09241550                0.11537158                0.53329690                0.05851015                0.16499474
               8.85046657                2.93480197               91.11311723                0.99999294               -0.16995315                0.03562232                0.09641933                0.20541404                0.02681426                0.11488344
               9.85006636                2.93256920               91.11419261                0.99995852               -0.04002084               -0.06951457                0.11743862               -0.00149874               -0.01277374               -0.05751199
              -0.12615945                3.94406828               91.08301048                0.39987877               -0.00545585               -0.06421889                0.09481036                0.06577641                0.00634227                0.02539186
               0.87378599                3.93586149               91.08671365                0.01000000               -0.05448859               -0.13123110                0.11725428                0.32622788                0.06057346                0.14464480
               1.87275077                3.93279854               91.09185038                0.01000000               -0.12389403               -0.11971313                0.12258508                0.59194949                0.10557882                0.12709392
               2.87130811                3.93112639               91.09664465                0.01000000               -0.15372460               -0.13772734                0.13316909                0.70252439                0.09123658                0.11299716
               3.86967628                3.93060317               91.10125658                0.01000000               -0.17734110               -0.14783168                0.14101366                0.81129103                0.08503201                0.09453732
               4.86776129                3.93101920               91.10564551                0.01000001               -0.21287523               -0.13926334                0.14607734                0.88419987                0.08663662                0.07084427
               5.86541878                3.93186880               91.10980953                0.01000000               -0.27641227               -0.11188563                0.15147781                0.89354705                0.09611767                0.05168042
               6.86223304                3.93249833               91.11377065                0.01000003               -0.37089606               -0.05550478                0.15331236                0.80207131                0.12535598                0.04187876
               7.85800086                3.93296998               91.11745558                0.01000000               -0.44368045                0.03319438                0.12944445                0.71013305                0.14396387                0.10800201
               8.85335943                3.93517279               91.11999418                1.00000000               -0.25769928                0.05071983                0.13711697                0.28419824                0.12630936                0.23294531
               9.85284687                3.93191498               91.12026628                1.00000000               -0.05125598               -0.04473296                0.14908764                0.02861449                0.03189921                0.01424797
              -0.11642604                4.94279371               91.08567421                0.93338012               -0.01362974               -0.08517469                0.06379903                0.07291047                0.01520614               -0.00904664
               0.88343767                4.93449407               91.09043063                0.01000000               -0.10826192               -0.07868086                0.08325240                0.33715072                0.02063015                0.09305756
               1.88140873                4.93162639               91.09540938                0.01000000               -0.18187378               -0.14380753                0.11076195                0.60888354                0.05922579                0.10091507
               2.87980019                4.92959101               91.10040166                0.01000000               -0.15550586               -0.17584227                0.13194166                0.73790427                0.06845854                0.10002779
               3.87829861                4.92895406               91.10526005                0.01000001               -0.16278901               -0.18955814                0.14657140                0.87890924                0.06392159                0.08799375
               4.87654441                4.92947047               91.10991554                0.01000000               -0.20391665               -0.18410073                0.16116736                1.00401934                0.05601174                0.05918687
               5.87422027                4.93073423               91.11436476                0.01000000               -0.28843100               -0.13329303                0.17240519                1.09042859                0.05680513                0.02016483
               6.87077579                4.93232626               91.11860498                0.01000000               -0.46133239               -0.03425788                0.18126266                1.13297488                0.10061004               -0.01045851
               7.86499363                4.93389275               91.12326017                0.01000001               -0.67851276                0.07559413                0.22692603                1.19108040                0.22402682                0.00758337
               8.85720554                4.93581637               91.12807455                0.01000001               -0.39196829               -0.07323713               -0.01493601                1.02763564                0.30423892                0.04389344
               9.85715426                4.93167454               91.12780302                0.24323078               -0.00512736               -0.37487198                0.05861928                0.71113929                0.09092109                0.15493388
              -0.10810196                5.94236479               91.08752366                1.00000000               -0.02017157               -0.04640901                0.06994488                0.00590841               -0.00005832               -0.05499768
               0.89169632                5.93428787               91.09250914                0.01000001               -0.10332622               -0.01561319                0.08431921                0.18954332                0.04501512                0.00797490
               1.88983151                5.92992239               91.09842494                0.01000000               -0.14788951               -0.23195366                0.12378221                0.57139241                0.07530626                0.05994864
               2.88873853                5.92760954               91.10383017                0.01000000               -0.12282515               -0.19210790                0.12236029                0.72549655                0.05482068                0.08469763
               3.88737501                5.92681201               91.10902558                0.01000000               -0.13385144               -0.25397728                0.15088668                0.88457333                0.03898458                0.09259677
               4.88606150                5.92733719               91.11396463                0.01000000               -0.15017278               -0.26960889                0.17284598                1.08670470                0.01591957                0.05899262
               5.88437155                5.92920294               91.11863237                0.01000002               -0.21637433               -0.20059020                0.18658332                1.27489091                0.00021333                0.00634024
               6.88173401                5.93181317               91.12316117                0.01000000               -0.30195965               -0.09020311                0.19881089                1.41760938                0.00795003               -0.02955246
               7.87833236                5.93448187               91.12771119                0.01000001               -0.28018272               -0.03062309                0.17822799                1.45693413                0.03839613               -0.04813227
               8.87613036                5.93370804               91.13263507                0.01000001               -0.14895201               -0.21293696                0.28521298                1.18717237               -0.12540167                0.20274284
               9.87535332                5.92441754               91.13729619                0.03576994               -0.07770403               -0.41533449                0.04076380                0.70642959               -0.12603174                0.45070600
              -0.10015404                6.94186553               91.08916588                1.00000000               -0.01750307               -0.04916836                0.06960814                0.00400459                0.00952784               -0.06706419
               0.89967093                6.93418181               91.09457145                0.83428601               -0.01655309               -0.01276691                0.08453901                0.03036065                0.03575266               -0.00123418
               1.89951490                6.92698732               91.10048483                0.01000000               -0.11252170               -0.15706227                0.06800350                0.43004079                0.07357494                0.01394599
               2.89742050                6.92574885               91.10678661                0.01000000               -0.16262348               -0.20450992                0.12550957                0.66899441                0.08686424                0.06596861
               3.89626243                6.92387451               91.11255329                0.01000003               -0.07664585               -0.34496643                0.15324471                0.78854372                0.04031216                0.11023099
               4.89588758                6.92407829               91.11783807                0.01000000               -0.05101603               -0.43338493                0.18092666                1.11918626               -0.01219882                0.10376188
               5.89524211                6.92672243               91.12277913                0.01000000               -0.10192659               -0.28601331                0.19667032                1.41064436               -0.04051160                0.02498244
               6.89384905                6.93052220               91.12755671                0.01000002               -0.15023367               -0.13935846                0.19244876                1.48575983               -0.04567061               -0.02504616
               7.89223744                6.93328029               91.13259612                0.01000000               -0.14178717               -0.10567111                0.19505638                1.33114133               -0.01027133                0.02470179
               8.89101330                6.93155763               91.13820148                0.01000003               -0.11867897               -0.13857745                0.22698699                0.85076184                0.03255959                0.31464039
               9.88986386                6.92336785               91.14326673                0.01000002               -0.11494477               -0.00476399                0.28103486                0.46571219                0.07277518                0.27992908
              -0.09265443                7.94138142               91.09074509                1.00000000               -0.01638306               -0.04140760                0.06313146                0.00178893                0.00673052               -0.06884430
               0.90718174                7.93403253               91.09643347                0.99846730               -0.02401434               -0.02054371                0.07852648                0.00872382                0.00992205               -0.01811402
               1.90686529                7.92678114               91.10217787                0.01000000               -0.09752581               -0.01718033                0.09054543                0.21640390                0.07377954                0.00649463
               2.90523123                7.92351935               91.10912542                0.01000000               -0.10244220               -0.25791270                0.11761321                0.51811971                0.14306187                0.03693362
               3.90481644                7.91991268               91.11572024                0.01000003                0.01830430               -0.42025193                0.13269337                0.69195288                0.10085756                0.12223071
               4.90559731                7.91866949               91.12198126                0.01000001                0.06620421               -0.64683987                0.20379835                1.16072056                0.00943140                0.22937151
               5.90614053                7.92348267               91.12697274                0.01000001               -0.03529837               -0.26499128                0.17408659                1.43075638               -0.05526636                0.06620184
               6.90489135                7.92902600               91.13224218                0.01000000               -0.11103846               -0.13382983                0.19390198                1.32805144                0.00074236                0.02498787
               7.90391976                7.93236844               91.13780475                0.01000003               -0.09166524               -0.08468401                0.16709944                1.02406910               -0.01101254                0.02294711
               8.90305804                7.93093650               91.14385089                0.01000000               -0.14363154                0.02386875                0.26185914                0.64019917                0.05475656                0.29012771
               9.90104713                7.92432226               91.14993419                0.01000002               -0.20109135                0.22825766                0.32613741                0.41425957                0.15719861                0.27015823
              -0.08542049                8.94103738               91.09231602                0.97193322               -0.01338284               -0.02762599                0.05504602               -0.00513884               -0.00612102               -0.05580244
               0.91444568                8.93377093               91.09816228                0.99982317               -0.01116739               -0.02426532                0.07143189               -0.00097272               -0.00141552               -0.01947030
               1.91435616                8.92664371               91.10408452                0.99999999                0.01028331               -0.01690959                0.08910443                0.05255993                0.03440976                0.01152299
               2.91465135                8.92059059               91.11060154                1.00000000                0.02975896               -0.16732324                0.10385591                0.19885523                0.10420504                0.01321719
               3.91495134                8.91546947               91.11780290                1.00000000                0.04403273               -0.24891468                0.14716668                0.27453734                0.22635651                0.10537409
               4.91553200                8.91114149               91.12625494                0.01004138               -0.07253095               -0.37900741               -0.00822458                0.99451633                0.05395756                0.27287040
               5.91350072                8.92142260               91.13146198                0.01000001               -0.20038508               -0.14294380                0.27033123                1.16068531                0.19583034               -0.08489282
               6.91152430                8.92784560               91.13747653                0.01000001               -0.13461999               -0.11745040                0.22793543                0.84471768                0.27834394                0.08011211
               7.91080833                8.93158661               91.14345680                0.01000005                0.01695824               -0.13923390                0.26572857                0.63946511                0.26382787                0.08970661
               8.91186347                8.93203500               91.15082992                1.00000000                0.02845944                0.03015502                0.15782870                0.46650348                0.03044003                0.05480461
               9.91137751                8.92793300               91.15745152                0.99999999               -0.04859540                0.15311121                0.16804882                0.31154106               -0.00701569                0.06365082
              -0.07822431                9.94082890               91.09415189                0.95436367               -0.02197341               -0.02084807                0.04835662               -0.00854973               -0.03560197               -0.04266550
               0.92155595                9.93354723               91.10000479                0.99837821               -0.03394311               -0.02237079                0.06601958               -0.00827048               -0.04307981               -0.01191281
               1.92109683                9.92644295               91.10573664                0.99999997               -0.05866907               -0.02007644                0.08881979                0.00534884               -0.05881373                0.00496992
               2.92038257                9.92017288               91.11149890                0.99999999               -0.06702660               -0.04177130                0.12178390               -0.00230583               -0.04912074               -0.01080642
               3.91975629                9.91493439               91.11796040                1.00000000               -0.04240295               -0.05350841                0.15525879                0.02631800                0.02657648                0.02955706
               4.91953451                9.91108934               91.12587813                0.22189178               -0.35530866               -0.00521486                0.05456593                0.68472106                0.14972184                0.08086551
               5.91265012                9.92062379               91.13547858                0.01000002               -0.39564125               -0.07988062                0.05763710                0.69432219                0.40015267               -0.09057230
               6.91162169                9.92667699               91.14190808                0.01000000               -0.00652298               -0.11686091                0.31345826                0.45773711                0.26125660                0.10618165
               7.91251966                9.92958376               91.14896116                0.01000000                0.22100163               -0.20028454                0.35382632                0.41426364                0.25381164                0.18217464
               8.91604172                9.93153960               91.15687905                0.99999999                0.14811474               -0.04954072                0.17905022                0.30786142                0.07064865                0.00614590
               9.91548196                9.92738449               91.16352223                1.00000000               -0.05597655               -0.05485125                0.18840140               -0.00506673                0.00822851               -0.00559040
              -0.15356831               -0.05911537               92.07207475                0.81083602               -0.01542715               -0.01687065                0.10292184               -0.00255823                0.00381071               -0.00626631
               0.84627742               -0.06347555               92.07513467                0.56267451                0.02373917               -0.03679329                0.08978537                0.01951390                0.01640874                0.00561596
               1.84690647               -0.06696078               92.07860083                0.70815807                0.04203835               -0.03126818                0.06798613               -0.00484319                0.04635739                0.00475399
               2.84711819               -0.06888787               92.08228228                0.61652796                0.01128573               -0.02517578                0.09100686                0.03421451                0.06685758                0.01626742
               3.84713219               -0.06951791               92.08610413                0.42192939               -0.04391251               -0.02013335                0.09114271                0.06036258                0.00189654                0.00574097
               4.84623994               -0.06865385               92.08856890                0.93781075               -0.06467404               -0.02013193                0.07678807                0.05068272               -0.02777143                0.01289806
               5.84583871               -0.06871464               92.09079933                0.99999999               -0.04366614               -0.02462893                0.06851179                0.00249355               -0.05542763               -0.00009695
               6.84536661               -0.06912087               92.09275199                0.99999999               -0.04579937               -0.01738222                0.06587076                0.00021513               -0.07593830                0.01056557
               7.84492272               -0.06992637               92.09458100                0.99999999               -0.03857797               -0.01610322                0.06195882               -0.00271945               -0.08222124                0.00714024
               8.84459505               -0.07093322               92.09637129                0.94808688               -0.02635129               -0.01316989                0.05620022               -0.00808898               -0.06740420               -0.00706049
               9.84439569               -0.07197545               92.09845134                0.91168340               -0.01993592               -0.02331696                0.04399005               -0.00893649               -0.05124664               -0.03753283
              -0.14923370                0.94071593               92.07463648                0.56611508               -0.03710328                0.01932412                0.09479047                0.01877788                0.00501881               -0.00237485
               0.85039526                0.93615651               92.07776342                0.31126650               -0.06010479               -0.05949355                0.08230830                0.06754653                0.02591251                0.02431305
               1.84956420                0.93272654               92.08129513                0.01000002               -0.08281829               -0.04396911                0.07784972                0.14313467                0.05910236               -0.00315583
               2.84873890                0.93086037               92.08513420                0.01000000               -0.09727002               -0.04251726                0.12371379                0.21050431                0.10383879                0.09798720
               3.84761880                0.93028075               92.08942738                0.01000000               -0.11968870               -0.04852125                0.13563561                0.27544392                0.12395452                0.05571366
               4.84634512                0.93114483               92.09298974                0.01000001               -0.07608231               -0.09101012                0.09664859                0.25992689                0.06815722                0.01514680
               5.84609715                0.93103907               92.09539690                0.10341571               -0.01852472                0.00862918                0.09531468                0.03659180                0.00972755                0.13461708
               6.84597463                0.93070531               92.09780693                0.96891383               -0.01477277               -0.02079502                0.08535728                0.02291799               -0.00411448                0.02569330
               7.84580170                0.92991260               92.09995487                0.99999935               -0.02179626               -0.02353674                0.07514753                0.00079325               -0.02442219                0.00712240
               8.84553870                0.92893508               92.10194330                0.93260743               -0.02265683               -0.01046010                0.06718148               -0.00327370               -0.02464299               -0.00190179
               9.84534856                0.92779138               92.10406663                0.96854012               -0.01901422               -0.04269310                0.05898513               -0.00751193               -0.01503471               -0.04192369
              -0.14407392                1.94127112               92.07743188                0.72065816               -0.03083411                0.03494426                0.07243958               -0.00539067                0.00593742                0.02738024
               0.85561774                1.93533457               92.08075210                0.02312125               -0.04303839               -0.08058309                0.07966498                0.13788405               -0.00635073                0.06088242
               1.85506531                1.93215984               92.08372924                0.01000000               -0.09218395               -0.05968359                0.11868089                0.32883559                0.14395035                0.14718511
               2.85377406                1.93026178               92.08990868                0.01000000               -0.13543546               -0.07588759                0.16452797                0.43401231                0.22437569                0.13026297
               3.85235660                1.92951166               92.09392471                0.01000001               -0.15469531               -0.08740061                0.12111703                0.51364946                0.09293325                0.09166758
               4.85068015                1.92952595               92.09756983                0.01000000               -0.26732659               -0.11773072                0.11619827                0.61850683                0.12209579                0.07128625
               5.84701007                1.93145795               92.10263816                0.01000000               -0.18643526               -0.09648349                0.12768829                0.50943059               -0.09849607                0.18975336
               6.84695145                1.93046323               92.10315208                0.01000001               -0.01506303               -0.10216602                0.09855692                0.28288991               -0.07027346                0.09619493
               7.84670881                1.92960290               92.10532422                0.01000000               -0.01503240               -0.08282835                0.08669509                0.20912060                0.02516715                0.08478222
               8.84665080                1.92885758               92.10764720                1.00000000               -0.00879728                0.00759097                0.08054340                0.05892854                0.01892793                0.03631129
               9.84653286                1.92717069               92.10964952                0.99999999               -0.01179357               -0.08356816                0.08943007                0.00657421                0.00690552               -0.04810826
              -0.13746843                2.94141481               92.08064029                0.66973431               -0.02673459                0.00214777                0.09527586                0.02421178                0.01238512                0.05937611
               0.86226422                2.93454485               92.08417481                0.01000000               -0.06589312               -0.08695837                0.12572620                0.22079346                0.08166033                0.10832716
               1.86121371                2.93153287               92.08933282                0.01000000               -0.10984501               -0.09425638                0.16553285                0.42468602                0.13090120                0.22110668
               2.86006732                2.92934262               92.09391745                0.01000000               -0.12930429               -0.09900104                0.12116947                0.53410843                0.09793182                0.09390081
               3.85862762                2.92853274               92.09834327                0.01000001               -0.16491735               -0.10510028                0.12437425                0.65306060                0.10070343                0.09340099
               4.85676898                2.92879022               92.10257423                0.01000000               -0.16395665               -0.10760636                0.12421817                0.71200646                0.06746734                0.10590736
               5.85534849                2.92910940               92.10607282                0.01000000               -0.16407486               -0.19005127                0.12772679                0.75904505                0.08606780                0.03012718
               6.85348748                2.92866199               92.10965246                0.01000001               -0.18793636               -0.13027723                0.10989351                0.59849359                0.06525002                0.13014787
               7.85158976                2.92825603               92.11222722                0.01000000               -0.21689966               -0.08318180                0.11324767                0.50511504                0.02996624                0.14852731
               8.84914949                2.92908690               92.11403493                1.00000000               -0.13679636                0.02088701                0.08950940                0.20092902                0.01506968                0.07722627
               9.84885383                2.92612001               92.11547363                0.99999999               -0.02956521               -0.10850848                0.12963408                0.00648267                0.00351625               -0.04283612
              -0.12984976                3.94131407               92.08401953                0.47106254               -0.02346874               -0.04665134                0.09419746                0.04469964                0.00311378                0.01492327
               0.86991555                3.93359541               92.08800829                0.01000000               -0.06944871               -0.10097642                0.13713919                0.26829663                0.05086033                0.12688843
               1.86876127                3.93027471               92.09306567                0.01000001               -0.12295988               -0.11390047                0.12349982                0.52299649                0.08782000                0.10278455
               2.86745635                3.92828176               92.09792403                0.01000001               -0.13955271               -0.12064472                0.12225169                0.62990507                0.08890171                0.09825776
               3.86597021                3.92740965               92.10261609                0.01000000               -0.15563680               -0.13084231                0.12936703                0.73142813                0.08760524                0.08746409
               4.86434362                3.92737382               92.10707087                0.01000000               -0.18255041               -0.14533324                0.14012726                0.80033191                0.08764963                0.07557711
               5.86231920                3.92765692               92.11129923                0.01000001               -0.22844638               -0.12976284                0.14380981                0.77991076                0.09118721                0.07487440
               6.85977469                3.92785768               92.11519763                0.01000001               -0.29665044               -0.05967169                0.13624102                0.71369915                0.10720800                0.06636563
               7.85638619                3.92793926               92.11861696                0.01000001               -0.34846477                0.02021539                0.10195160                0.66005597                0.09941610                0.11615423
               8.85280540                3.92927532               92.12077251                0.90158081               -0.18949522                0.02001387                0.06828426                0.28314683                0.05275374                0.10180583
               9.85259629                3.92500052               92.12147967                0.99999998               -0.02091057               -0.09733424                0.13246091                0.01387941               -0.00575542               -0.03395467
              -0.12113711                4.94048179               92.08635185                0.92843359               -0.01933763               -0.06278665                0.07632939                0.03942705                0.01057759               -0.01605963
               0.87866952                4.93252532               92.09132787                0.01000001               -0.09378047               -0.06515774                0.09452391                0.27357175                0.01084205                0.07169312
               1.87698728                4.92925486               92.09640824                0.01000000               -0.15695182               -0.10920167                0.09678979                0.51973817                0.05718737                0.06944089
               2.87553048                4.92692972               92.10167986                0.01000000               -0.14115813               -0.15632036                0.12380980                0.65926334                0.09503735                0.06968023
               3.87416412                4.92591589               92.10667196                0.01000000               -0.15010658               -0.16497669                0.13778442                0.78320432                0.07579182                0.08446963
               4.87252835                4.92588355               92.11149826                0.01000001               -0.18506394               -0.16992459                0.15555460                0.88279103                0.06506185                0.06525247
               5.87046284                4.92651415               92.11604420                0.01000001               -0.25246129               -0.13042067                0.16530148                0.95180583                0.06554609                0.03253963
               6.86747912                4.92746855               92.12039411                0.01000001               -0.35447988               -0.04568394                0.16276514                0.98937361                0.10500814                0.00632678
               7.86337324                4.92866034               92.12470158                0.01000000               -0.48639786                0.04701506                0.11413459                0.98636954                0.18445834               -0.00192695
               8.85775117                4.92948718               92.12789521                0.55056558               -0.28461081                0.15128924               -0.00498281                0.57559174                0.18524513                0.13754281
               9.85768103                4.92417333               92.12801744                0.99999999               -0.00701375               -0.19593680                0.07726721                0.28365896                0.03039374               -0.02493481
              -0.11314829                5.94005834               92.08821710                1.00000000               -0.02377940               -0.04540614                0.06939209                0.00362120                0.00007776               -0.05200719
               0.88661392                5.93229225               92.09336681                0.01000003               -0.10500401               -0.01650098                0.09167977                0.18280908                0.06429344                0.00569230
               1.88475163                5.92809068               92.09976353                0.01000000               -0.13166649               -0.19985463                0.14898247                0.49746379                0.17722739               -0.08779652
               2.88398059                5.92515535               92.10494529                0.01000000               -0.10355816               -0.16157097                0.11097336                0.63547589                0.07403441                0.08074348
               3.88268047                5.92411012               92.11048034                0.01000001               -0.12896993               -0.21100090                0.14229845                0.78868280                0.06550225                0.08330825
               4.88140119                5.92397533               92.11564447                0.01000001               -0.14550724               -0.23364854                0.16445925                0.94961792                0.03128242                0.06166078
               5.87977032                5.92504851               92.12046639                0.01000000               -0.19926081               -0.18177108                0.17994231                1.12106314                0.01249473                0.01329325
               6.87741597                5.92694400               92.12508380                0.01000001               -0.28376814               -0.09461383                0.18144880                1.23641789                0.01222006               -0.04238061
               7.87409496                5.92887956               92.12935729                0.01000001               -0.43058657               -0.02254055                0.17039544                1.43387875                0.10999588               -0.07423673
               8.86880424                5.93230110               92.13536688                0.36624063               -0.25988958                0.06686897                0.09103379                1.03594651               -0.09190924                0.17061427
               9.86889717                5.92108178               92.13599339                1.00000000                0.00929275               -0.23069592                0.00448048                0.32050141               -0.30519784                0.40528082
              -0.10553251                6.93957366               92.08985336                0.99999737               -0.01741322               -0.04730845                0.06640739                0.00176878                0.00763388               -0.06959344
               0.89429336                6.93219530               92.09538784                0.87637474               -0.01970167               -0.01233415                0.08328033                0.02762994                0.02356480               -0.00727931
               1.89407346                6.92525777               92.10122796                0.01007649               -0.10364024               -0.15261069                0.08704637                0.39607581                0.08155616               -0.01590439
               2.89222055                6.92369830               92.10801577                0.01000001               -0.14778299               -0.16434586                0.11207615                0.61144586                0.11422276                0.04820279
               3.89111780                6.92169588               92.11396826                0.01000001               -0.08191169               -0.27984673                0.13554377                0.70943299                0.06003663                0.09241899
               4.89058232                6.92121058               92.11956003                0.01000001               -0.06011840               -0.33426206                0.15897034                0.98688251                0.00408882                0.09666949
               5.88991543                6.92287872               92.12467348                0.01000001               -0.11029471               -0.26356601                0.17892911                1.23325780               -0.04374867                0.01150975
               6.88837643                6.92557628               92.12948639                0.01000001               -0.16108553               -0.14070419                0.19771207                1.36189070               -0.05341762               -0.04827981
               7.88669372                6.92820953               92.13445268                0.01000001               -0.10542751               -0.11601329                0.18368821                1.42881456               -0.01115092               -0.04641099
               8.88626788                6.93082456               92.14030011                0.63534747               -0.00820078               -0.14698581                0.12313134                0.99381522                0.08039180                0.17292597
               9.88652970                6.91955941               92.14651671                0.99614923                0.02618280               -0.05391230                0.15265017                0.30201276                0.16523209                0.39535089
              -0.09835619                7.93911217               92.09137614                1.00000000               -0.01613952               -0.03997289                0.06248983               -0.00099639                0.00513520               -0.07443450
               0.90148241                7.93204557               92.09719346                1.00000000               -0.02368308               -0.02037742                0.07494304                0.00400954                0.00671427               -0.02550679
               1.90117015                7.92503846               92.10304156                0.01000000               -0.08555096               -0.01421903                0.08446638                0.20537859                0.07636588                0.01017193
               2.89977139                7.92186844               92.11022788                0.01000000               -0.09066499               -0.21115104                0.11592924                0.49021031                0.13199482                0.01184011
               3.89935685                7.91851319               92.11692801                0.01000001                0.00922980               -0.33188921                0.10646753                0.64882893                0.10829914                0.07786592
               4.89995599                7.91729009               92.12341042                0.01000000                0.03564694               -0.47165419                0.11407281                0.97353007               -0.00029704                0.16319149
               5.90006978                7.91977719               92.12851479                0.01000001               -0.03165035               -0.40899464                0.16378562                1.43352130               -0.07289727                0.11277113
               6.89932298                7.92412992               92.13405763                0.01000001               -0.13234088               -0.06797934                0.17841561                1.42220012               -0.05084903               -0.00441201
               7.89742297                7.92655929               92.13924253                0.01000001               -0.09961608               -0.07519430                0.18607049                1.36214844                0.01184487                0.02151140
               8.89733066                7.92936139               92.14694999                0.53830604                0.00223741               -0.24159188                0.18089693                0.61551800                0.11781370                0.16136685
               9.89746772                7.92000353               92.15403572                0.85006171                0.01370552                0.10391126                0.20498326               -0.02969781                0.19852942                0.09385059
              -0.09141923                8.93877421               92.09287243                0.94314588               -0.01335103               -0.02705675                0.05609578               -0.00720102               -0.00662946               -0.06019084
               0.90844726                8.93178775               92.09885449                0.94526560               -0.01113017               -0.02266697                0.06798194               -0.00217032               -0.00314732               -0.02575719
               1.90835816                8.92497339               92.10493168                1.00000000                0.00513907               -0.00985961                0.08275600                0.05775480                0.02859552                0.00845994
               2.90855004                8.91947528               92.11158922                1.00000000                0.01572796               -0.13515219                0.09507325                0.19636507                0.06935552                0.00299306
               3.90867272                8.91505809               92.11866700                0.90423822                0.01194420               -0.18400429                0.07588190                0.27436555                0.09984768                0.04050867
               4.90878892                8.91177750               92.12612803                0.50656536                0.15366511               -0.28011178                0.00236897                0.57391339                0.14804924                0.17088686
               5.91174603                8.91469883               92.13417593                0.33093313                0.06246995               -0.25124325                0.08391561                1.05263649                0.18076856               -0.07963685
               6.91003832                8.92421669               92.13946779                0.61064663               -0.15204015                0.01666830                0.11754730                1.00082089                0.16510145                0.11140290
               7.90870522                8.92670564               92.14654189                0.49637592               -0.24521617                0.01353664                0.18088985                0.60465926                0.15812380                0.13988880
               8.90513400                8.92599272               92.15240741                0.99999999               -0.20268828               -0.19570192                0.14350832                0.34989164               -0.03166364               -0.02616930
               9.90465146                8.92163764               92.15913189                1.00000000               -0.04825414                0.05786554                0.16120293                0.13447413               -0.00081768               -0.08629108
              -0.08452731                9.93857104               92.09462782                0.90404289               -0.02328641               -0.02031702                0.04435584               -0.00868828               -0.03285091               -0.04554856
               0.91523983                9.93159223               92.10063630                0.98028358               -0.04174882               -0.01955243                0.06088413               -0.00723124               -0.03690523               -0.01661985
               1.91463771                9.92484127               92.10661843                0.99999998               -0.08129192               -0.01321132                0.09242637                0.00661309               -0.04253204                0.00302669
               2.91361399                9.91916539               92.11281410                0.99999996               -0.10478872               -0.03098902                0.13241234                0.00598638               -0.03847798                0.00371391
               3.91254194                9.91483310               92.11920049                0.99999998               -0.09102357               -0.02249908                0.13460286                0.01304476               -0.03064844               -0.00568069
               4.91179352                9.91168785               92.12609713                0.99999999               -0.19293074               -0.00896451                0.07972762                0.29642045               -0.01485414                0.03055027
               5.90868332                9.91475232               92.13450863                1.00000000               -0.22304633                0.00534900                0.02716796                0.33250160                0.41350695               -0.28959328
               6.90733259                9.92446329               92.14568052                0.99275686               -0.04716021                0.02465983                0.17531279                0.33331215                0.39741006                0.21947932
               7.90774012                9.92683003               92.15347008                0.84956650                0.10319542                0.01243860                0.22862472               -0.04730705                0.06978156                0.23371134
               8.90939650                9.92544735               92.15868166                0.99999999                0.05636226               -0.05453710                0.17581748                0.14279087               -0.09628276                0.00248217
               9.90886737                9.92116084               92.16538493                1.00000000               -0.05291326               -0.04767920                0.17492534               -0.00705957                0.00370288               -0.00236828
              -0.15653243               -0.06169915               93.07316447                0.81021845               -0.02433293               -0.02548591                0.10949779               -0.00255843                0.00174320               -0.00641351
               0.84322424               -0.06600698               93.07608195                0.46628823                0.01281134               -0.03569737                0.09844279                0.02030262                0.00543312                0.00457333
               1.84372380               -0.06962238               93.07921868                0.52940497                0.03971425               -0.02211134                0.06945675               -0.00523971                0.03750839                0.01569948
               2.84401853               -0.07168212               93.08326605                0.70964542                0.01716864               -0.04546697                0.08076858                0.00056642                0.07266576                0.01672716
               3.84406717               -0.07304860               93.08693362                0.63236429               -0.01684100               -0.01358386                0.08272907                0.00692260                0.00774784                0.00690348
               4.84368171               -0.07311638               93.08942997                0.98912393               -0.04165497               -0.02582344                0.08790677                0.01746734               -0.02238806               -0.00241458
               5.84323407               -0.07343145               93.09146819                0.99999999               -0.04707566               -0.01513096                0.07023917                0.00573239               -0.05881919                0.01537209
               6.84274019               -0.07416641               93.09338664                0.99999999               -0.04577838               -0.01660671                0.06454862               -0.00081278               -0.07386295                0.01363201
               7.84231850               -0.07530259               93.09519618                1.00000000               -0.03534851               -0.01618348                0.05789399               -0.00463076               -0.07903381                0.00425215
               8.84203322               -0.07662509               93.09693449                0.80770451               -0.02293807               -0.01566127                0.05558197               -0.01286010               -0.06714232               -0.00431387
               9.84185974               -0.07799278               93.09885952                0.73383045               -0.01734812               -0.02741316                0.04710387               -0.01378281               -0.05614294               -0.02453935
              -0.15225018                0.93804599               93.07563762                0.47295006               -0.03609343                0.00793782                0.10338730                0.01915360                0.00265504               -0.01357466
               0.84738888                0.93363605               93.07861409                0.01000001               -0.06204213               -0.06136605                0.09232327                0.06670063                0.02833424                0.02633603
               1.84650897                0.93015651               93.08206715                0.20781582               -0.08257896               -0.03483001                0.07871494                0.12586488                0.10775448                0.04066819
               2.84573730                0.92786321               93.08658859                0.01000000               -0.08277238               -0.06519438                0.16460565                0.19952620                0.17542491                0.11034775
               3.84485353                0.92681556               93.09090271                0.01000000               -0.08447481               -0.05453608                0.12593848                0.21319424                0.13843397                0.00519925
               4.84404781                0.92662539               93.09402426                0.01000001               -0.05185551               -0.07092070                0.09326145                0.17999054                0.05206054                0.01546728
               5.84381641                0.92641724               93.09644067                0.78555157               -0.01900844                0.00966136                0.09293507                0.03209274                0.00587801                0.09880835
               6.84366764                0.92566752               93.09866184                0.99725764               -0.01574411               -0.02117651                0.08097292                0.01115122               -0.01625350                0.02422810
               7.84350153                0.92453558               93.10068449                1.00000000               -0.02089597               -0.02279125                0.07158002               -0.00294816               -0.03228232                0.00536126
               8.84324972                0.92321830               93.10261285                0.81979376               -0.02059642               -0.01399911                0.06772229               -0.00954852               -0.03061692                0.00083909
               9.84308960                0.92173309               93.10463626                0.92233096               -0.01601133               -0.05355582                0.06177672               -0.01427003               -0.02467619               -0.02793310
              -0.14732947                1.93845960               93.07810495                0.53554370               -0.02227943                0.03159849                0.07617550               -0.00570580                0.01767096                0.01588019
               0.85244773                1.93276570               93.08154236                0.21598695               -0.03282970               -0.08035004                0.08013238                0.12082870                0.03946035                0.10575918
               1.85201393                1.92968102               93.08548404                0.01000000               -0.05488685               -0.05250771                0.23159194                0.27246676                0.17196779                0.18368504
               2.85135000                1.92701399               93.09177947                0.01000001               -0.12225292               -0.08274970                0.14332184                0.34724431                0.16579749                0.11716234
               3.84956888                1.92586068               93.09516775                0.01000000               -0.18350792               -0.08641183                0.12112238                0.44602949                0.09115975                0.04147550
               4.84767984                1.92546521               93.09886979                0.01004904               -0.23675393               -0.08762720                0.11352683                0.52995649                0.16237122                0.06241928
               5.84483380                1.92676178               93.10300012                0.01001164               -0.14174769               -0.07519153                0.01273825                0.43000086                0.06310504                0.04697613
               6.84484488                1.92541005               93.10413012                0.01000000               -0.00625195               -0.08368768                0.08683290                0.23991597               -0.04866245                0.08229371
               7.84470876                1.92424159               93.10614714                0.01000000               -0.01000727               -0.08144525                0.08631743                0.19328082                0.01352675                0.09749823
               8.84464474                1.92309493               93.10845011                0.99999999               -0.00819997                0.00014452                0.08247952                0.04831755                0.01305552                0.03390257
               9.84454476                1.92093611               93.11059066                0.99999999               -0.00999805               -0.09253813                0.09471386               -0.00739809                0.00352745               -0.02211940
              -0.14097649                2.93867796               93.08164795                0.74437298               -0.04394734                0.00977894                0.08270340               -0.00215280                0.01454096                0.06250385
               0.85858404                2.93202905               93.08560900                0.01007931               -0.06567465               -0.07597504                0.15996700                0.18688581                0.10093068                0.17443084
               1.85771002                2.92910636               93.09127749                0.01000001               -0.10407532               -0.09511038                0.14745341                0.33783368                0.12383857                0.15426819
               2.85650253                2.92620821               93.09501440                0.01000001               -0.11935601               -0.08424248                0.12284131                0.40833511                0.07774036                0.06182858
               3.85532290                2.92508733               93.09954392                0.01000000               -0.13783469               -0.09184575                0.09718163                0.56886523                0.11434397                0.05515247
               4.85374584                2.92487284               93.10372545                0.01000000               -0.14256551               -0.09292471                0.10946065                0.64886917                0.08834937                0.07461424
               5.85247159                2.92491341               93.10749995                0.01000001               -0.13798434               -0.16834391                0.12961314                0.67014389                0.05002284                0.04532306
               6.85098615                2.92399376               93.11062632                0.01000000               -0.13946567               -0.11630327                0.10461698                0.51039227                0.02360472                0.12249422
               7.84968227                2.92290667               93.11342580                0.01000003               -0.17323001               -0.07114392                0.14239094                0.44664884               -0.10475433                0.22161451
               8.84752155                2.92322119               93.11490742                0.99975886               -0.12114917                0.01268501                0.08526585                0.19413590               -0.01602232                0.05244263
               9.84725929                2.91988233               93.11678530                0.99999999               -0.02622595               -0.11220116                0.12395976                0.00474796                0.00617608               -0.00082057
              -0.13407470                3.93865518               93.08489443                0.68565775               -0.01682449               -0.02015051                0.08713013               -0.00040004                0.00211997                0.01653131
               0.86575705                3.93124620               93.08945643                0.01000000               -0.06669293               -0.07298112                0.12436034                0.20688576                0.00325221                0.13907052
               1.86459144                3.92777882               93.09432038                0.01000000               -0.11106630               -0.13945007                0.11791438                0.42867043                0.04866949                0.06331993
               2.86353573                3.92532914               93.09908969                0.01000000               -0.11549444               -0.11224339                0.09526369                0.55898182                0.07068354                0.08997369
               3.86228155                3.92402377               93.10384392                0.01001071               -0.13522954               -0.11540628                0.11127717                0.64753616                0.09334435                0.07995490
               4.86083114                3.92360671               93.10844806                0.01004584               -0.15828976               -0.13354686                0.13483016                0.70493554                0.08396720                0.07735277
               5.85911576                3.92339490               93.11268572                0.01000001               -0.18858329               -0.13477744                0.14386710                0.68205167                0.06469587                0.07441433
               6.85705947                3.92308399               93.11649547                0.01000001               -0.23507235               -0.07135685                0.12607069                0.63281166                0.03189931                0.09268403
               7.85441431                3.92281871               93.11949461                0.01000000               -0.27538351                0.01036035                0.08832809                0.58820333                0.02089205                0.09599820
               8.85155180                3.92334863               93.12135986                0.76557784               -0.15484339                0.03758294                0.07075507                0.29732012                0.00819122                0.05506834
               9.85131744                3.91869208               93.12291550                0.99999999               -0.02343598               -0.16101082                0.15575008                0.04726463               -0.01049854                0.01684571
              -0.12616652                4.93827495               93.08720079                0.98911265               -0.02353595               -0.04160248                0.08636729                0.01319193               -0.00270120               -0.01405631
               0.87359812                4.93056942               93.09232111                0.01000001               -0.08164980               -0.04522283                0.08798275                0.18605568               -0.00259429                0.05209836
               1.87220048                4.92631735               93.09734518                0.01006209               -0.10804519               -0.22160393                0.10838841                0.53000275                0.05518714                0.12203977
               2.87143721                4.92396335               93.10287786                0.01000000               -0.11022186               -0.12203198                0.11278516                0.62142670                0.10296031                0.04984920
               3.86999605                4.92277920               93.10801574                0.01004636               -0.14819023               -0.14209471                0.13488121                0.69714416                0.08455667                0.07573420
               4.86847341                4.92220191               93.11302663                0.01000000               -0.16803502               -0.15490406                0.15575904                0.76543123                0.06983480                0.06237392
               5.86663534                4.92221786               93.11767079                0.01000002               -0.21274176               -0.12776920                0.16287089                0.82155411                0.04914422                0.04486025
               6.86421858                4.92256663               93.12186028                0.01000000               -0.27268237               -0.06053565                0.14681558                0.84620274                0.05071965                0.02167265
               7.86118170                4.92311388               93.12554287                0.01000001               -0.33119994                0.02136572                0.08858109                0.86205592                0.04269466                0.01872658
               8.85759458                4.92397285               93.12797489                0.68564536               -0.18320109                0.06833967                0.02227271                0.48262549                0.06171966                0.05688906
               9.85751768                4.91666211               93.12934837                0.99999999               -0.00769006               -0.23340983                0.16926453                0.10287106                0.00828923                0.06108714
              -0.11839981                5.93782313               93.08891150                0.99999999               -0.01644259               -0.04801602                0.07142295                0.00667038                0.01051543               -0.05655182
               0.88143576                5.93034174               93.09434273                0.69146912                0.00986923               -0.01799294                0.08989830                0.03465561                0.09610006                0.00193734
               1.88179757                5.92334674               93.10140458                0.01000001               -0.09666738               -0.14630726                0.07852320                0.44321866                0.14443816               -0.07120477
               2.87950241                5.92288850               93.10604964                0.01000001               -0.19058490               -0.12665154                0.12492839                0.66812833                0.06292297                0.04822153
               3.87798587                5.92118187               93.11187155                0.01000001               -0.14006572               -0.17519895                0.14309520                0.67714968                0.08644598                0.05358565
               4.87670110                5.92050863               93.11725381                0.01000002               -0.14018777               -0.19780874                0.16219651                0.82241890                0.04716677                0.04049623
               5.87518212                5.92083952               93.12223122                0.01000001               -0.18067943               -0.16568221                0.17570727                0.95850352                0.01403913                0.00766664
               6.87308751                5.92187328               93.12679015                0.01000000               -0.24664568               -0.09919254                0.17417924                1.05947120                0.00564546               -0.02623179
               7.87024920                5.92324602               93.13111910                0.01000005               -0.27157166               -0.03235251                0.14186752                1.14305751               -0.00644423               -0.05029699
               8.86765608                5.92471542               93.13445575                0.70765527               -0.11264345               -0.02699066               -0.05105711                0.68702012                0.07818007               -0.09817085
               9.86799633                5.91402389               93.13738580                1.00000000                0.03402583               -0.17147887                0.11074262                0.09172785                0.08208524                0.16308179
              -0.11107033                6.93731463               93.09049402                0.99999999               -0.01620421               -0.04747368                0.06547330                0.00016575                0.01245586               -0.07069682
               0.88876763                6.93020956               93.09623706                0.97089685               -0.02057869               -0.01429968                0.08052631                0.01457158                0.02555368               -0.01756176
               1.88851810                6.92339121               93.10222576                0.01000001               -0.09014908               -0.00329401                0.08578503                0.23906832                0.07549566               -0.05805734
               2.88696465                6.92143032               93.10902813                0.01000000               -0.12995947               -0.13529002                0.10780543                0.51831378                0.10647460                0.01970483
               3.88591891                6.91927522               93.11526417                0.01000001               -0.08502520               -0.22053018                0.12659396                0.63147164                0.08899345                0.01916236
               4.88526414                6.91824573               93.12101747                0.01000000               -0.07390670               -0.25716596                0.14667236                0.84662446                0.02215186                0.03618143
               5.88444077                6.91890422               93.12635771                0.01000000               -0.11313242               -0.23019364                0.17329634                1.05951483               -0.02179379               -0.00539579
               6.88300149                6.92058278               93.13151095                0.01000001               -0.16200365               -0.14584555                0.18948861                1.18108591               -0.03910102               -0.04937873
               7.88120070                6.92246683               93.13626988                0.01000001               -0.12221895               -0.12682831                0.19433478                1.19326776               -0.05407428               -0.08017944
               8.88055711                6.92343304               93.14066411                0.98906549               -0.02326964               -0.13294430                0.04251221                0.68653793               -0.04783392               -0.08349023
               9.88073531                6.91323254               93.14631973                0.99999999                0.01781918               -0.02198958               -0.01754218                0.12244582                0.01198446                0.15990091
              -0.10418637                7.93687366               93.09199489                1.00000000               -0.01630172               -0.03663729                0.05864720               -0.00413499                0.00452016               -0.07346156
               0.89565061                7.93005575               93.09793233                0.99925688               -0.02277210               -0.01983038                0.07170571               -0.00184738                0.00627581               -0.03443681
               1.89535819                7.92328086               93.10386720                0.01000001               -0.08329684               -0.00775825                0.08263510                0.19011033                0.08988433               -0.00156113
               2.89398467                7.92018270               93.11144401                0.01000003               -0.07791486               -0.16830384                0.14532709                0.44144560                0.20777651               -0.12071316
               3.89379989                7.91677127               93.11784959                0.01000000                0.00099580               -0.26340278                0.09146913                0.58365952                0.08885373                0.00373623
               4.89400459                7.91536531               93.12426272                0.01000001                0.01177405               -0.31866062                0.08969356                0.85921485                0.01793257                0.02606998
               5.89403537                7.91623565               93.13024846                0.01000001               -0.04289858               -0.25341013                0.14023563                1.14633095               -0.04707472               -0.02476113
               6.89314662                7.91895637               93.13581049                0.01000000               -0.13855356               -0.10660034                0.19258293                1.19663408               -0.07414732               -0.06935924
               7.89126430                7.92070946               93.14152616                0.01000000               -0.12627448               -0.11549959                0.21662247                1.14653296               -0.03579658               -0.05170429
               8.89062113                7.92205654               93.14746882                0.99999998               -0.02090229               -0.18265465                0.05223496                0.54788639               -0.01294641               -0.09255771
               9.89084625                7.91358410               93.15403385                0.99999999                0.02251239                0.08127139               -0.00757382                0.01160037                0.01725445                0.06419543
              -0.09751721                8.93658188               93.09343793                0.79598509               -0.01593103               -0.02332585                0.05574739               -0.01248820               -0.00406889               -0.06207600
               0.90232348                8.92981296               93.09952191                0.83879370               -0.01447220               -0.02022646                0.06778869               -0.00846030               -0.00015638               -0.03260642
               1.90219335                8.92323604               93.10573964                0.99999999               -0.00101688               -0.00754304                0.08225427                0.04807400                0.02820661                0.00366018
               2.90230315                8.91806424               93.11250300                0.99999999                0.01080668               -0.11926515                0.08819862                0.19087017                0.04819092               -0.02571749
               3.90240948                8.91400717               93.11932053                0.78883288                0.03404582               -0.15087344                0.07537269                0.29343446                0.05633947               -0.00192279
               4.90298406                8.91187252               93.12630232                0.70346367                0.06834286               -0.18015779                0.02690252                0.48767720                0.06125228                0.05666325
               5.90377634                8.91383602               93.13314029                0.71975628               -0.02618495               -0.10345662               -0.05705955                0.69398713               -0.09670722                0.07073088
               6.90246036                8.91845077               93.13982748                0.98978011               -0.13725776               -0.01576274                0.04327923                0.68913208               -0.06608638               -0.06884818
               7.90103118                8.92015684               93.14707460                0.99999997               -0.19100796               -0.01539211                0.05398346                0.54895145               -0.08789332               -0.02233685
               8.89864020                8.91977994               93.15370008                0.99999999               -0.15594932               -0.15079072                0.11138124                0.31406052               -0.00327840               -0.01323414
               9.89791220                8.91485796               93.16067558                0.99999999               -0.07280052                0.06234638                0.12046722                0.07296281                0.00650539               -0.03629095
              -0.09089829                9.93640714               93.09503901                0.73171407               -0.02744715               -0.01747391                0.04838655               -0.01370031               -0.02001781               -0.05295005
               0.90882724                9.92965122               93.10122247                0.93116824               -0.05166654               -0.01617380                0.06347082               -0.01348138               -0.02301726               -0.02656441
               1.90806838                9.92313000               93.10758516                0.99999998               -0.08981445               -0.01060483                0.09761744               -0.00518761               -0.01669204                0.00093117
               2.90703095                9.91779740               93.11414715                0.99999999               -0.11040434               -0.02668411                0.12672749                0.00397105                0.00106633                0.00519746
               3.90586030                9.91375380               93.12065246                0.99999999               -0.15508351               -0.02533676                0.15771027                0.04331944                0.01638936               -0.01101776
               4.90392928                9.91176216               93.12747268                0.99999999               -0.22617171               -0.01103613                0.16951997                0.11515786                0.06611047                0.01408653
               5.90133686                9.91416651               93.13602194                1.00000000               -0.16604221                0.03304955                0.11400778                0.09999984                0.17669879                0.09689024
               6.90060844                9.91864111               93.14541434                0.99999999               -0.02113545                0.01903408               -0.02131137                0.12656278                0.15998096                0.00704601
               7.90091415                9.92040162               93.15353365                0.99999999                0.07963871                0.02447774               -0.00486920                0.00827754                0.05789523                0.02240137
               8.90220121                9.91904072               93.16039540                0.99999999                0.06176577               -0.07392194                0.12987579                0.07757141               -0.05070179                0.00604036
               9.90214947                9.91483102               93.16702074                1.00000000               -0.00517447               -0.00269399                0.16514374                0.00275698               -0.03243784               -0.02427352
              -0.15936842               -0.06418994               94.07426471                0.81335945               -0.02997139               -0.03061100                0.10381592               -0.00235622                0.00192579               -0.00467192
               0.84033187               -0.06844837               94.07710352                0.40158073               -0.00795226               -0.03288067                0.10392253                0.01236388                0.00153537                0.00775670
               1.84047254               -0.07234374               94.07998997                0.34108037                0.02623415               -0.03817151                0.09996242               -0.01027781                0.01413211                0.00812855
               2.84085655               -0.07519842               94.08389765                0.66056280                0.03253411               -0.02476773                0.07384885                0.00681412                0.09416039                0.06405828
               3.84112322               -0.07731803               94.08775871                0.95233260                0.02005241               -0.05313609                0.07730937                0.04824518                0.04070874                0.00629910
               4.84125760               -0.07789070               94.09032703                1.00000000               -0.02087828               -0.00949291                0.07791560                0.00737084               -0.04145070               -0.01016649
               5.84070566               -0.07835215               94.09220411                1.00000000               -0.05481161               -0.01645331                0.07416926                0.01175151               -0.07680264                0.01038193
               6.84016137               -0.07939863               94.09404296                1.00000000               -0.04557284               -0.01549856                0.06347223                0.00114781               -0.08301834                0.01010964
               7.83979420               -0.08081795               94.09573888                0.90415815               -0.02862511               -0.01131902                0.05134250               -0.00779591               -0.07927691                0.00936274
               8.83958887               -0.08237623               94.09748293                0.51676511               -0.01857128               -0.01875381                0.05950663               -0.02151567               -0.06621029               -0.00282428
               9.83942277               -0.08401972               94.09939341                0.80424872               -0.01660940               -0.04787047                0.14031735               -0.02580415               -0.08559894               -0.02731274
              -0.15513355                0.93550395               94.07670422                0.41046468               -0.03340391               -0.01158370                0.10736640                0.01054220                0.00545450               -0.01645565
               0.84453241                0.93122283               94.07960989                0.01000003               -0.05608328               -0.05483919                0.10565983                0.02332865                0.02445972                0.02093228
               1.84374479                0.92727454               94.08286943                0.11391819               -0.05602882               -0.05165245                0.10285628                0.05630480                0.18163919                0.12385381
               2.84341184                0.92455391               94.08842632                0.97362895               -0.03964843               -0.03111812                0.12304399                0.07129087                0.18762619                0.06465688
               3.84295182                0.92215061               94.09194615                0.06500908               -0.07817307               -0.04910051                0.08437112                0.17133587                0.08729599               -0.00072004
               4.84184837                0.92201437               94.09485497                0.01624896               -0.06873426               -0.05180791                0.08186927                0.20851496                0.04648699                0.02242435
               5.84157713                0.92148331               94.09725560                0.82783752               -0.02213149               -0.01548264                0.08285964                0.03691002                0.00268861                0.04058709
               6.84140574                0.92044639               94.09942639                1.00000000               -0.01860458               -0.02283764                0.07287029                0.01276800               -0.02432077                0.01760267
               7.84120504                0.91906886               94.10138647                0.99373429               -0.02155737               -0.01852524                0.06313129               -0.00725007               -0.04097020                0.01286334
               8.84097460                0.91743624               94.10329774                0.61984652               -0.01984072               -0.01913555                0.07005164               -0.03438819               -0.03695569                0.00123162
               9.84080823                0.91550157               94.10530217                0.98977615               -0.01663712               -0.07005105                0.11535556               -0.04848846               -0.04160840               -0.03206345
              -0.15059532                1.93557839               94.07895539                0.34366160               -0.03768255                0.01857267                0.10768625               -0.01066200                0.00989589               -0.00970960
               0.84902786                1.93045485               94.08235475                0.12002712               -0.05685626               -0.05517162                0.10290245                0.05828532                0.12558089                0.17147000
               1.84826756                1.92662321               94.08836108                0.73942221               -0.08107779               -0.07463255                0.18583833                0.21323310                0.13176159                0.13948627
               2.84740630                1.92417922               94.09277511                0.21044269               -0.05890384               -0.06424685                0.06543618                0.25103078                0.01956463                0.04140361
               3.84708948                1.92169996               94.09634715                0.01000000               -0.06555487               -0.05954991                0.07792829                0.30727727                0.03597591                0.01430365
               4.84609520                1.92107314               94.09984037                0.01000000               -0.20388218               -0.06550670                0.11123253                0.41848941                0.02501389                0.11519431
               5.84301184                1.92133819               94.10289292                0.01000001               -0.16320107               -0.05765248                0.02876136                0.34712147                0.05856763                0.05256678
               6.84283118                1.92014462               94.10488874                0.01000000               -0.01762418               -0.08499340                0.08901805                0.20506653                0.00195266                0.09908007
               7.84265935                1.91881155               94.10705057                0.42617640               -0.01813948                0.01359952                0.10076268                0.05524876                0.00828896                0.14216041
               8.84246839                1.91724106               94.10929679                1.00000000               -0.01685129               -0.01051155                0.08705111                0.01313288                0.00043568                0.02604484
               9.84232233                1.91457926               94.11154380                0.99999999               -0.01460654               -0.08614067                0.08234574               -0.04551169               -0.00317175               -0.00339723
              -0.14509971                2.93587541               94.08229436                0.67468733               -0.02469897                0.02567324                0.07590952                0.00759702                0.06369540                0.08107682
               0.85465330                2.93011939               94.08737415                0.98304427               -0.03076070               -0.03950727                0.11989254                0.07166399                0.06348001                0.18207626
               1.85428508                2.92578189               94.09228189                0.20548296               -0.06488024               -0.05748949                0.06545827                0.24917098                0.03728028                0.02671400
               2.85335570                2.92326897               94.09637428                0.01000000               -0.10408148               -0.09807223                0.10225965                0.35589541                0.01797913                0.01108224
               3.85220345                2.92095961               94.10028690                0.01000000               -0.13878807               -0.05815154                0.06836177                0.44122566                0.05229965                0.02342536
               4.85057993                2.92070423               94.10476344                0.01000000               -0.13776840               -0.07267181                0.08657881                0.52283039                0.09556887                0.08388526
               5.84944808                2.92033026               94.10866508                0.01000001               -0.12731065               -0.11819149                0.12980107                0.52980791                0.01813984                0.07770647
               6.84803372                2.91874652               94.11174480                0.01000001               -0.21172517               -0.08336102                0.13420637                0.48916004               -0.09280772                0.22014809
               7.84521358                2.91934085               94.11507504                0.01000001               -0.12820886               -0.05346942                0.09133204                0.38798874               -0.15182637                0.19359670
               8.84546954                2.91722600               94.11574025                0.99925660                0.00040127                0.00340748                0.08518216                0.07589234               -0.08299737                0.03392484
               9.84522160                2.91377876               94.11795283                1.00000000               -0.02479435               -0.09024495                0.10298994                0.00291181                0.00464945                0.04362039
              -0.13893136                3.93609185               94.08576214                0.98624774               -0.05139939                0.01540927                0.08192141                0.04068233                0.00458481                0.04393832
               0.86055465                3.92966470               94.09049550                0.06878026               -0.04836224               -0.07192038                0.08455089                0.16007557               -0.00186801                0.08778703
               1.86010140                3.92547342               94.09542396                0.01000000               -0.06040838               -0.05852213                0.07373395                0.29011388                0.01934522                0.03034265
               2.85934648                3.92221778               94.09982930                0.01000000               -0.08113355               -0.11511101                0.06673652                0.43134720                0.03914762                0.03706439
               3.85847873                3.92053693               94.10484163                0.01000000               -0.10826607               -0.07783346                0.05373161                0.54524799                0.08034161                0.05831495
               4.85718116                3.91961970               94.10976747                0.01000338               -0.14565114               -0.11894784                0.14863376                0.60637437                0.07887630                0.08601792
               5.85556571                3.91897436               94.11417657                0.01000000               -0.17886847               -0.12322049                0.15221336                0.60108468                0.01739101                0.09579425
               6.85360379                3.91847740               94.11771905                0.01000003               -0.18130316               -0.05695973                0.13331891                0.56777591               -0.02855232                0.11412715
               7.85193964                3.91774216               94.12038352                0.01000000               -0.20277317               -0.09652376                0.11554368                0.58653821               -0.05876551                0.03839737
               8.84954833                3.91730921               94.12218761                0.88630963               -0.13322974                0.01515346                0.08534802                0.23713573               -0.01654645                0.01527440
               9.84927505                3.91277436               94.12459467                1.00000000               -0.02732809               -0.14269948                0.15164770                0.04042797                0.00954204                0.08090280
              -0.13143176                4.93618359               94.08807920                1.00000000               -0.00949876               -0.02288901                0.07722051                0.00628511               -0.01028869               -0.03578569
               0.86847325                4.92868099               94.09308752                0.01000001               -0.05169772               -0.06248279                0.07775478                0.19580198                0.02188808                0.04481888
               1.86753428                4.92461145               94.09857601                0.01000000               -0.07770617               -0.18437078                0.12286208                0.40589233                0.12304616                0.01160382
               2.86691912                4.92096675               94.10393556                0.01000000               -0.09138998               -0.11241340                0.09611428                0.51085456                0.09729938                0.07964559
               3.86570648                4.91940295               94.10936958                0.01001836               -0.13245664               -0.13017635                0.15009616                0.60425072                0.09456338                0.06448632
               4.86426999                4.91832528               94.11461344                0.01000000               -0.15472041               -0.14126454                0.16338901                0.66333008                0.06480930                0.05651039
               5.86261207                4.91786585               94.11930161                0.01001794               -0.18242740               -0.12297212                0.17264387                0.71155549                0.02506157                0.05095566
               6.86062144                4.91760733               94.12333042                0.01000001               -0.22497724               -0.08543493                0.16176780                0.72908658               -0.02143000                0.03883210
               7.85811253                4.91741038               94.12647320                0.01000001               -0.27206928               -0.02977770                0.11598004                0.71412894               -0.08772150                0.01006117
               8.85518006                4.91752907               94.12834066                0.42893835               -0.15063317                0.01696292                0.07416608                0.40336038               -0.05466010               -0.04834770
               9.85509986                4.91092477               94.13140273                1.00000000               -0.00801930               -0.27011548                0.17420640                0.10975598               -0.00982710                0.16258479
              -0.12380044                5.93563407               94.08964556                1.00000000               -0.01567223               -0.05536251                0.07457859                0.01121245                0.01030900               -0.07494310
               0.87604283                5.92841505               94.09516477                0.80423232               -0.01330364               -0.02132601                0.08229319                0.03756903                0.04391186                0.00084999
               1.87593348                5.92178600               94.10133400                0.01000001               -0.06353787               -0.14887203                0.02692892                0.34062413                0.04903034                0.05153713
               2.87477208                5.91996951               94.10744386                0.01000001               -0.13641334               -0.11343590                0.14232857                0.52699584                0.08500993                0.00192840
               3.87320522                5.91793341               94.11334224                0.01000000               -0.13936103               -0.16509283                0.15308818                0.60133728                0.10156263                0.00639281
               4.87198486                5.91679441               94.11888841                0.01000129               -0.13452253               -0.16999856                0.17289090                0.71216686                0.05755010                0.01371344
               5.87051477                5.91651492               94.12398053                0.01000001               -0.16719279               -0.15561408                0.18702632                0.81741488                0.01024534                0.00111692
               6.86864100                5.91676870               94.12856739                0.01000001               -0.21071460               -0.10194850                0.18031023                0.88462390               -0.04393991               -0.01730040
               7.86630047                5.91714660               94.13219464                0.01000001               -0.22699292               -0.06057477                0.14630472                0.96131574               -0.14779042               -0.01904954
               8.86410114                5.91764847               94.13434574                0.01000001               -0.08108513               -0.06936974                0.00516491                0.51533676               -0.18485462               -0.03768989
               9.86467877                5.90737205               94.13820825                1.00000000                0.05776295               -0.24076980                0.12208288               -0.00972788               -0.14076932                0.29617450
              -0.11676947                6.93507634               94.09116282                1.00000000               -0.01578347               -0.04675226                0.06448667                0.00080065                0.00971247               -0.08033500
               0.88307270                6.92825447               94.09699837                0.99271636               -0.02191157               -0.01715343                0.07252258                0.01252260                0.01800553               -0.02630921
               1.88279230                6.92163401               94.10294366                0.01000000               -0.08805312               -0.01463190                0.08087244                0.19831194                0.09283887               -0.01135129
               2.88131164                6.91869803               94.11017188                0.01000001               -0.09419890               -0.19951034                0.13697187                0.48197688                0.21560965               -0.10162825
               3.88090832                6.91610109               94.11650014                0.01000003               -0.06899115               -0.17009311                0.13474059                0.56686346                0.11293504               -0.04079852
               4.87993181                6.91492530               94.12249347                0.01000000               -0.09611227               -0.21338832                0.16263346                0.72916986                0.04241234               -0.03611691
               5.87898608                6.91475357               94.12813941                0.01000001               -0.11247883               -0.20077698                0.18078926                0.88543995               -0.00919575               -0.05877308
               6.87768224                6.91556836               94.13327616                0.01000001               -0.12635021               -0.11712483                0.18652926                0.96833224               -0.03332808               -0.04634258
               7.87645908                6.91619888               94.13833938                0.01000001               -0.12104448               -0.12130568                0.15814798                0.96607771               -0.09916950               -0.03249752
               8.87526135                6.91614168               94.14115036                0.01000001               -0.05004635               -0.15871061                0.26056311                0.51866946                0.02506626               -0.20016657
               9.87545815                6.90610938               94.14616586                0.90427071                0.01968002               -0.02202270                0.39157538               -0.00303157                0.06977033                0.09811900
              -0.11014068                7.93469903               94.09254908                0.89544879               -0.01236990               -0.02938885                0.05204726               -0.00766002                0.00965423               -0.07512900
               0.88973562                7.92807198               94.09862758                0.97928817               -0.02015810               -0.02044878                0.06310459               -0.00679671                0.01206445               -0.04256104
               1.88945616                7.92149336               94.10469426                0.26289839                0.01044562               -0.01526928                0.09578916                0.05281152                0.14065822               -0.00471531
               2.88994453                7.91597930               94.11313442                0.01000003               -0.05704722               -0.12201193                0.09935987                0.38297499                0.19322163               -0.16989466
               3.88831521                7.91453154               94.11875739                0.01000000               -0.10143808               -0.19421607                0.11674692                0.58196066                0.03419600               -0.07337938
               4.88791577                7.91252664               94.12520429                0.01000001               -0.03673493               -0.26122517                0.11738609                0.71151157                0.01120158               -0.10489481
               5.88758051                7.91249938               94.13131950                0.01000001               -0.06767177               -0.22068021                0.14869307                0.96001005               -0.01238573               -0.16762860
               6.88656233                7.91442621               94.13790929                0.01000001               -0.12659041               -0.11662383                0.15954570                0.96605811               -0.01963626               -0.11673048
               7.88504871                7.91472049               94.14357498                0.01000825               -0.09991493               -0.09737354                0.18907925                0.83318641               -0.10696707               -0.12071853
               8.88456404                7.91447426               94.14799469                0.79554154               -0.01829799               -0.16701070                0.06005306                0.42086040               -0.05810388               -0.15196213
               9.88468275                7.90693160               94.15388424                1.00000000                0.01187092                0.09077795                0.05801260                0.01435522               -0.02469427                0.15073363
              -0.10366857                8.93448856               94.09398738                0.51431902               -0.01890013               -0.01945711                0.05995686               -0.02200247               -0.00149983               -0.06219544
               0.89614243                8.92784549               94.10021027                0.64907394               -0.01951101               -0.02060730                0.07039013               -0.03311178                0.00140423               -0.03874493
               1.89594121                8.92132862               94.10657677                1.00000000               -0.01047361               -0.01622630                0.08921836                0.01676697                0.02418137               -0.00579841
               2.89593296                8.91625779               94.11335319                0.99893130                0.00294925                0.00008715                0.08985038                0.07558183                0.03313163               -0.09342250
               3.89600020                8.91221677               94.12017445                0.91555894                0.01306256               -0.12913197                0.08646039                0.23359956                0.01445133               -0.02528200
               4.89619421                8.90970080               94.12666608                0.44367922                0.01432619               -0.14488924                0.07153288                0.39768357               -0.04768752               -0.06318055
               5.89628672                8.91033997               94.13303473                0.01000000               -0.07059593               -0.07862720               -0.00218024                0.51151025               -0.02988593               -0.19267251
               6.89478229                8.91323588               94.14033337                0.01003762               -0.16059840               -0.04978597                0.26636305                0.51848025               -0.19625007                0.02183181
               7.89307475                8.91425141               94.14762156                0.82778237               -0.16574193               -0.01802711                0.05962405                0.42169237               -0.14142091               -0.06768257
               8.89146745                8.91280146               94.15463503                1.00000000               -0.11220871               -0.11483639                0.08770226                0.20024327               -0.05805462               -0.06640710
               9.89083058                8.90792493               94.16154123                1.00000000               -0.06368743                0.05267303                0.09650740                0.02660620               -0.04627239                0.04144992
              -0.09729458                9.93430989               94.09559555                0.80566548               -0.04720892               -0.01786780                0.14218744               -0.02760669               -0.02234021               -0.08143896
               0.90223333                9.92765983               94.10190571                0.99244144               -0.06631111               -0.01856570                0.11275797               -0.04796264               -0.02489635               -0.04331894
               1.90137919                9.92116884               94.10857078                0.99999999               -0.08326522               -0.01597832                0.08418248               -0.04014109                0.00242179               -0.00286150
               2.90056802                9.91598105               94.11534865                1.00000000               -0.09174993               -0.02767477                0.10535908                0.00250986                0.04505674                0.00600067
               3.89954419                9.91194890               94.12235469                0.99999996               -0.14108902               -0.02678631                0.15252708                0.03679070                0.07940298                0.01035739
               4.89774624                9.90962886               94.12948753                1.00000000               -0.26342771               -0.00719415                0.17001423                0.10410001                0.16349019               -0.00794475
               5.89427564                9.91092684               94.13678879                1.00000000               -0.23628726                0.05868697                0.10951164               -0.01102651                0.30395513               -0.12891931
               6.89302050                9.91343049               94.14525430                0.92373907               -0.01793366                0.01946071                0.38760372               -0.00452370                0.10350143                0.07752731
               7.89391697                9.91435995               94.15337270                1.00000000                0.09374406                0.01085383                0.05066606                0.02157383                0.14712111               -0.02143721
               8.89489538                9.91217753               94.16127918                1.00000000                0.05254811               -0.06239344                0.09385935                0.02404805                0.03102905               -0.04750609
               9.89496793                9.90798506               94.16868781                1.00000000                0.00725520                0.00601218                0.13119644               -0.00551208                0.00060373                0.00824994
              -0.16217154               -0.06667163               95.07524078                0.79784750               -0.02987651               -0.03021805                0.09060415                0.00261806                0.00517390               -0.00029040
               0.83752969               -0.07086457               95.07816040                0.38901965               -0.03080727               -0.03319635                0.10739945               -0.00903673                0.01241187                0.00818478
               1.83721231               -0.07521873               95.08121792                0.24178507                0.03016497               -0.05187993                0.14811839               -0.01838391                0.01017625                0.01604173
               2.83813299               -0.07945828               95.08474303                0.49216514                0.06198297               -0.02628302                0.12260948               -0.07592604                0.08244209                0.04532045
               3.83845197               -0.08129748               95.08847981                0.99384538                0.01371514               -0.04897959                0.06846040                0.02601674                0.02269273                0.02969691
               4.83840729               -0.08237559               95.09098829                0.99999999               -0.02349403               -0.00638739                0.06622737                0.02461557               -0.08064643                0.02869380
               5.83798209               -0.08332677               95.09295158                0.99999999               -0.04311171               -0.01330507                0.06860878                0.01389291               -0.10198461                0.01539044
               6.83754506               -0.08473108               95.09465609                0.91535915               -0.03445430               -0.00951237                0.05619415               -0.00365738               -0.10054100                0.00855832
               7.83729300               -0.08641050               95.09622303                0.48305241               -0.02452855               -0.01083394                0.04956500               -0.02722879               -0.07839146                0.00847026
               8.83705449               -0.08831121               95.09812462                0.62111989               -0.04831080               -0.02597219                0.11736491               -0.04325959               -0.03759594               -0.01094085
               9.83632679               -0.09035653               95.10166586                0.99999999               -0.07277006               -0.07020282                0.17593725               -0.01235189                0.03809799               -0.10857745
              -0.15795242                0.93302619               95.07778495                0.39285200               -0.03347090               -0.03265463                0.10856421               -0.01020953                0.00668769               -0.00314309
               0.84171287                0.92880346               95.08072729                0.01000001               -0.03611282               -0.03522962                0.12117392               -0.03698732                0.02781342                0.02149017
               1.84132533                0.92426247               95.08412428                0.01000003               -0.06498831               -0.08614956                0.14224750               -0.07540407                0.15386072                0.11451186
               2.84041311                0.92027889               95.08904947                0.74912332               -0.05772678               -0.03238095                0.05280398               -0.02137635                0.11293606                0.00178577
               3.84017079                0.91821272               95.09259014                0.75273509               -0.03725063               -0.04482609                0.06708538                0.10264089                0.04164129                0.04276323
               4.83966809                0.91756054               95.09566164                0.82778512               -0.04360121                0.01181074                0.07288970                0.07772528                0.03300275                0.06116798
               5.83929877                0.91654018               95.09809787                0.93360862               -0.03088725               -0.01347957                0.07740780                0.02939716               -0.01790763                0.03402497
               6.83905035                0.91517379               95.10011924                1.00000000               -0.02439942               -0.00978316                0.06560202                0.00611069               -0.04995063                0.02682955
               7.83881078                0.91348116               95.10194711                0.86301533               -0.02277214               -0.00966336                0.05826509               -0.02856190               -0.04980670                0.02652021
               8.83859491                0.91142907               95.10401388                0.55210612               -0.02810925               -0.02577345                0.08920308               -0.07169912               -0.00681155               -0.00596591
               9.83824859                0.90894144               95.10694337                0.99999999               -0.03463142               -0.07129819                0.17108744               -0.06573725                0.02186580               -0.09900542
              -0.15393028                1.93267528               95.08025867                0.24107342               -0.05160600                0.02332773                0.15350947               -0.01993226                0.01604769               -0.01537549
               0.84555366                1.92843084               95.08360041                0.01000002               -0.09204589               -0.06368224                0.14174033               -0.07318865                0.11852828                0.13944441
               1.84422881                1.92305828               95.08920080                0.78291974               -0.08992242               -0.08423615                0.05769743               -0.02032854                0.07181257                0.06795150
               2.84375521                1.91989410               95.09308819                0.65119227               -0.05028339               -0.04516106                0.03011885                0.15958545                0.00560013               -0.02132250
               3.84322314                1.91780600               95.09672631                0.02367758               -0.10604346               -0.05756836                0.06391725                0.28877333                0.01108898                0.04027052
               4.84163435                1.91786063               95.10109444                0.01002379               -0.11331798               -0.04685449                0.07708678                0.31042906               -0.02058207                0.08784598
               5.84095678                1.91640363               95.10357535                0.01000001               -0.04540273               -0.06781407                0.06620863                0.18834431                0.02187768                0.10059851
               6.84072629                1.91507325               95.10591048                0.87318127               -0.02451446                0.01963136                0.09483570                0.03311407                0.00756823                0.13264709
               7.84046649                1.91339623               95.10816239                0.99999999               -0.02830333               -0.00177502                0.09530589               -0.00302087               -0.01007675                0.09616923
               8.84016022                1.91117332               95.11019114                0.96961975               -0.02395923               -0.02100983                0.06967044               -0.03949118               -0.02120941                0.01092549
               9.83998730                1.90821750               95.11223757                1.00000000               -0.01729204               -0.06187836                0.05151910               -0.06165534               -0.01780612               -0.04258423
              -0.14986217                2.93349275               95.08316614                0.49778982               -0.02717299                0.05369138                0.12697752               -0.07226589                0.05024601                0.06760007
               0.84986610                2.92752982               95.08800685                0.75275506               -0.03411687               -0.05711353                0.05372003               -0.02053967                0.00585490                0.10703160
               1.84945549                2.92257775               95.09258665                0.63886162               -0.05044985               -0.04833641                0.03015286                0.16307917               -0.02293252                0.00441678
               2.84885710                2.91937567               95.09705959                0.17667027               -0.07378811               -0.06924761                0.05501885                0.28146992               -0.02879203               -0.02244484
               3.84797973                2.91706136               95.10091116                0.01000148               -0.07890320               -0.08493065                0.06183025                0.39874300                0.00784787                0.01400140
               4.84727904                2.91662345               95.10545703                0.01000001               -0.10633514               -0.11917758                0.10626614                0.47809574                0.06724848                0.08236050
               5.84585303                2.91518389               95.11009597                0.01000000               -0.22795005               -0.08646919                0.17826357                0.47490958               -0.02681471                0.20044762
               6.84272004                2.91556642               95.11331045                0.01000000               -0.16013675               -0.06461723                0.08681093                0.39084730               -0.10884224                0.19606168
               7.84265029                2.91344566               95.11525244                0.01008944                0.01318867               -0.06038661                0.01501267                0.18732020               -0.06487578                0.07130257
               8.84298381                2.91100887               95.11661106                0.95070874                0.01384170               -0.00598058                0.07726526                0.05538579               -0.06473049                0.01480202
               9.84292713                2.90770387               95.11884509                0.99999998               -0.00566851               -0.06786303                0.08476256                0.00484258               -0.01460321                0.06208280
              -0.14344974                3.93374911               95.08653286                1.00000000               -0.04923956                0.00915291                0.07436489                0.02760662                0.02983750                0.02276640
               0.85605787                3.92728856               95.09114745                0.74406990               -0.04528603               -0.03666451                0.06950598                0.10077082                0.04207275                0.04390138
               1.85564454                3.92209155               95.09579506                0.01944535               -0.05784287               -0.09691778                0.06331015                0.27892289                0.03711212                0.01830565
               2.85490101                3.91850915               95.10042442                0.01000003               -0.08471625               -0.07169835                0.06120673                0.38741759                0.01000317                0.02391955
               3.85395022                3.91610738               95.10491855                0.01004791               -0.09136436               -0.07465179                0.04963575                0.50988174                0.09699403                0.08142302
               4.85307372                3.91547708               95.11142073                0.01004997               -0.12191091               -0.12061339                0.17550655                0.55626977                0.11232351                0.12900242
               5.85151200                3.91467425               95.11572999                0.01000001               -0.13961236               -0.08754385                0.15655426                0.54352001               -0.00355241                0.12038186
               6.85028147                3.91378091               95.11916185                0.01000001               -0.13707791               -0.15357458                0.16736286                0.57063009               -0.03562513                0.08685691
               7.84877044                3.91218850               95.12180548                0.01000002               -0.16358743               -0.09708374                0.15199066                0.45197693               -0.12624711                0.05224543
               8.84700973                3.91105371               95.12306682                0.95628768               -0.10381406               -0.00805529                0.10150201                0.16298892               -0.06053372                0.00050892
               9.84669416                3.90686024               95.12594845                0.99999998               -0.03155675               -0.07018192                0.12245646               -0.00585312                0.01588227                0.09729960
              -0.13638895                4.93367581               95.08874520                0.99999999               -0.00719796               -0.02542336                0.06805968                0.02295661                0.02774028               -0.07596783
               0.86353907                4.92679653               95.09387621                0.80366290                0.01011590               -0.04203353                0.07362907                0.07656438                0.06191439                0.03235674
               1.86381337                4.92063940               95.09980242                0.01000001               -0.04747226               -0.10408640                0.07561382                0.29998584                0.09781518               -0.01335786
               2.86258962                4.91794170               95.10480014                0.01000001               -0.13019656               -0.09091981                0.11648149                0.46111408                0.09062561                0.07007494
               3.86120944                4.91556832               95.11101766                0.01006151               -0.13760291               -0.09641075                0.17372815                0.54459233                0.12702560                0.10440052
               4.85983757                4.91421118               95.11629441                0.01000000               -0.13949212               -0.12871046                0.18142240                0.60023917                0.06311987                0.05555778
               5.85841959                4.91343302               95.12112367                0.01000001               -0.16095865               -0.13250926                0.20181072                0.62398946                0.01190569                0.06510558
               6.85661839                4.91249493               95.12509564                0.01000001               -0.20012827               -0.10996915                0.18984119                0.58920455               -0.07290378                0.05143332
               7.85441703                4.91150398               95.12786247                0.01000001               -0.25232745               -0.05948218                0.16453340                0.55487238               -0.16317443                0.01978896
               8.85157184                4.91084777               95.12945821                0.34428753               -0.16100139                0.00491110                0.12992258                0.28659540               -0.10706122               -0.09349751
               9.85119700                4.90630023               95.13283249                1.00000000               -0.03748438               -0.08380000                0.12512067                0.08333521               -0.03234909                0.16261511
              -0.12923205                5.93324064               95.09040307                0.99999999               -0.01423834               -0.04356995                0.06892720                0.01281427                0.01426539               -0.09897321
               0.87062556                5.92644789               95.09598860                0.91086877               -0.01344300               -0.02879778                0.07714966                0.02885097                0.03419830               -0.01749688
               1.87049909                5.92000983               95.10194316                0.01003206               -0.07155989               -0.04177378                0.06085438                0.18154262                0.09744322                0.01339822
               2.86919437                5.91669075               95.10889621                0.01000000               -0.09632526               -0.21172559                0.17782345                0.46500360                0.20013125               -0.03484521
               3.86857258                5.91417917               95.11493332                0.01000001               -0.09902793               -0.12621073                0.15917371                0.54293454                0.12543358               -0.01235055
               4.86721381                5.91290287               95.12071163                0.01000001               -0.14322714               -0.15018360                0.20214700                0.62402290                0.07153909                0.00201062
               5.86570804                5.91202407               95.12597175                0.01000001               -0.16096035               -0.15216126                0.21861260                0.68666169                0.00217721               -0.00822810
               6.86399460                5.91158153               95.13039635                0.01000002               -0.20964955               -0.10904520                0.21331115                0.72456774               -0.07333653               -0.01558963
               7.86151505                5.91099885               95.13404520                0.01000001               -0.30246089               -0.05337209                0.20237721                0.82482486               -0.27255106               -0.04135412
               8.85794538                5.91115193               95.13455905                0.01243465               -0.20295590               -0.25335064                0.18018796                0.79227484               -0.25799399                0.14244719
               9.85745593                5.90518424               95.13982746                0.95558366               -0.04894524               -0.33906576                0.17183918                0.44836569               -0.07390484                0.64599466
              -0.12254717                6.93280441               95.09178376                0.90764991               -0.01059250               -0.03470564                0.05652531               -0.00429460                0.00915760               -0.09738361
               0.87734690                6.92622057               95.09768751                1.00000000               -0.01257329               -0.02276321                0.06471513                0.00603363                0.02422938               -0.04954480
               1.87720136                6.91980392               95.10384321                0.74387510                0.01867250               -0.02281926                0.09114032                0.03260152                0.13369006               -0.00062790
               2.87772035                6.91370719               95.11176757                0.01000000               -0.06726756               -0.15436273                0.09258750                0.39158977                0.20448346               -0.10911195
               3.87585601                6.91304411               95.11795898                0.01000001               -0.16236135               -0.12748977                0.16849962                0.56708399                0.08771181               -0.04820735
               4.87447313                6.91120751               95.12427014                0.01000001               -0.11909220               -0.19040280                0.19145855                0.58991941                0.05563398               -0.08570336
               5.87347417                6.91038979               95.12997350                0.01000001               -0.11690831               -0.20181603                0.21409056                0.72405655               -0.00693924               -0.08588951
               6.87213496                6.91031402               95.13524153                0.01000001               -0.10655247               -0.10084892                0.21392022                0.82752785               -0.09020789               -0.10350965
               7.87134312                6.91043654               95.13943284                0.01005917                0.05484959               -0.09929762                0.16197139                0.64956202               -0.04923107               -0.05239100
               8.87323195                6.90578075               95.14587537                0.05117158                0.03782887               -0.28096552                0.31225124                0.51433924                0.20018127               -0.09947753
               9.87209970                6.89951892               95.15415124                0.68463706               -0.11322569               -0.19804192                0.38830067                0.42968259                0.29484892                0.12780991
              -0.11615028                7.93254653               95.09303583                0.47295165               -0.01029983               -0.02564512                0.04970316               -0.02768057                0.01109919               -0.07388366
               0.88374672                7.92599263               95.09919443                0.86506484               -0.00926092               -0.02303261                0.05768100               -0.02889079                0.02735523               -0.05102924
               1.88366450                7.91955344               95.10578298                1.00000000                0.00196265               -0.02801807                0.09569429               -0.00282223                0.10507906               -0.01310339
               2.88378598                7.91360350               95.11343121                0.01000005               -0.06252809                0.01371880                0.01723331                0.18618364                0.07375798               -0.07620719
               3.88241394                7.91162937               95.12018453                0.01000002               -0.10597337               -0.15699402                0.15475684                0.45104593                0.04592062               -0.13967005
               4.88166651                7.90909481               95.12661044                0.01000000               -0.06656434               -0.24409175                0.16657318                0.55276368                0.02461520               -0.18171324
               5.88108266                7.90798775               95.13322232                0.01000001               -0.05840498               -0.29382559                0.20301079                0.82534503               -0.03404398               -0.29746480
               6.88049841                7.90956455               95.13900141                0.01000001               -0.10215479                0.06141881                0.16305094                0.64193631               -0.04248162               -0.05948138
               7.87903956                7.90901290               95.14530774                0.01000001               -0.06743094               -0.07155338                0.14801372                0.42630335               -0.15324611               -0.16583580
               8.87914979                7.90553262               95.14866989                0.59489322               -0.02331519               -0.03067207                0.16674260                0.12689973               -0.14619918               -0.30766236
               9.87857326                7.90122340               95.15519411                0.99999998               -0.05765353                0.06822401                0.21512125                0.12281083               -0.02657317               -0.23232968
              -0.10999299                8.93229150               95.09463707                0.61965771               -0.02448391               -0.04922585                0.11881104               -0.04391525               -0.00804285               -0.03376219
               0.88976218                8.92575992               95.10092972                0.57324804               -0.02364811               -0.02993432                0.08833301               -0.07202892               -0.00228949               -0.01211724
               1.88953405                8.91924356               95.10752400                0.98714691               -0.01970405               -0.02343457                0.07196916               -0.03844884                0.01313516               -0.02451402
               2.88936809                8.91398156               95.11430001                0.96991080               -0.00742178                0.01614992                0.08122585                0.05114310                0.01063961               -0.07754038
               3.88938562                8.90990422               95.12104974                0.97592996               -0.00990330               -0.10144527                0.10025529                0.16198228               -0.00564524               -0.06831995
               4.88917003                8.90632567               95.12773298                0.33097039                0.00628573               -0.15672163                0.12767113                0.28537679               -0.10018559               -0.11939912
               5.88951133                8.90451328               95.13309669                0.01000001               -0.26107483               -0.19538631                0.18804970                0.78916332                0.15855746               -0.27375148
               6.88394853                8.91154240               95.14515474                0.05916380               -0.28051104                0.03926317                0.31345911                0.50441700               -0.08102902                0.19805947
               7.88390111                8.90900547               95.14826708                0.60502539               -0.01945434               -0.02711494                0.16449874                0.12085234               -0.29958922               -0.15367196
               8.88355944                8.90516731               95.15545413                0.99999998               -0.03633801               -0.03651579                0.11296109                0.01174088               -0.04411850               -0.04970135
               9.88317435                8.90088340               95.16260573                1.00000000               -0.03850948               -0.02602692                0.10190122                0.01015979               -0.03175686                0.02026772
              -0.10396542                9.93156201               95.09788276                0.99999999               -0.06804920               -0.07294931                0.17532897               -0.01404991               -0.10998570                0.04306733
               0.89535409                9.92539394               95.10347763                0.99999999               -0.06803494               -0.03659780                0.16667710               -0.06467148               -0.09173313                0.01480584
               1.89467388                9.91908475               95.10926881                1.00000000               -0.06029593               -0.01588091                0.05097860               -0.05938922               -0.03427679               -0.02045897
               2.89414817                9.91392649               95.11625433                0.99999998               -0.06822030               -0.00550696                0.08427919                0.00379378                0.06450512               -0.01605988
               3.89330948                9.90960047               95.12370300                0.99999998               -0.06915914               -0.03037567                0.11991609               -0.00591968                0.09737026                0.01629270
               4.89276499                9.90596038               95.13087296                1.00000000               -0.08301419               -0.03652960                0.12279407                0.08347372                0.16069424               -0.03381466
               5.89164919                9.90408002               95.13821217                0.96120962               -0.33352163               -0.04332608                0.17037479                0.43325801                0.66349036               -0.06933799
               6.88609456                9.91034981               95.15316641                0.69931521               -0.19087504               -0.11925897                0.37762251                0.43413170                0.14232286                0.29212402
               7.88783169                9.90847060               95.15454697                0.99999998                0.07060631               -0.05348706                0.20239257                0.11568314               -0.23546469               -0.02551383
               8.88750668                9.90480231               95.16227258                1.00000000               -0.02437063               -0.03650062                0.09677715                0.00633703                0.01756818               -0.03443613
               9.88734428                9.90070286               95.16964466                0.87601081               -0.01624024               -0.01805326                0.05619079                0.00704899               -0.00443420               -0.00217395
              -0.16510417               -0.06928407               96.07607679                0.75555844               -0.02928610               -0.02927317                0.08065304                0.00853180                0.00927901                0.00449776
               0.83460297               -0.07341844               96.07925151                0.41614341               -0.04011963               -0.03689332                0.11288151               -0.01293963                0.03532692                0.00742144
               1.83409344               -0.07783562               96.08295233                0.21391183                0.03202709               -0.05824841                0.16852480               -0.03368517                0.04121781                0.01385872
               2.83524351               -0.08290490               96.08634984                0.46231478                0.06191909               -0.08506434                0.14531850               -0.15933706               -0.03533836                0.02647266
               3.83533182               -0.08494474               96.08912792                0.93963507               -0.00353031               -0.02958857                0.06118666               -0.00386637               -0.07768926                0.05693356
               4.83517290               -0.08666354               96.09165158                1.00000000               -0.01668271               -0.02048848                0.05801611                0.01317054               -0.11293705                0.03278738
               5.83499816               -0.08833692               96.09357629                0.91695518               -0.01469012               -0.01230383                0.05200338                0.00180937               -0.12851175                0.01846597
               6.83487910               -0.09015378               96.09516685                0.47332870               -0.01201631               -0.01176402                0.05341976               -0.02015151               -0.11885997                0.01437768
               7.83475784               -0.09209672               96.09673018                0.41007960               -0.07424941               -0.02433839                0.11491104               -0.05534690               -0.10165767                0.00692625
               8.83339411               -0.09437357               96.09983022                0.85164191               -0.08277972               -0.03760268                0.12065548                0.01232167               -0.03729730               -0.07805960
               9.83310224               -0.09674628               96.10291216                1.00000000               -0.02918696               -0.03039633                0.08658195               -0.00883763               -0.01062971               -0.04321954
              -0.16088448                0.93042320               96.07887551                0.41059700               -0.03661750               -0.04131246                0.11192243               -0.01374068                0.00715640                0.02202216
               0.83874935                0.92621263               96.08203336                0.01000000               -0.03078549               -0.03086915                0.14113521               -0.04939909                0.03050067                0.02292627
               1.83849981                0.92158190               96.08571438                0.01000000               -0.07723236               -0.13222587                0.17380438               -0.19227905                0.06147961                0.06364381
               2.83720470                0.91624446               96.08948240                0.01000000               -0.06636687               -0.06762252                0.08711681               -0.10366198                0.09070709                0.05413086
               3.83717248                0.91475938               96.09328785                0.81133301               -0.01020006               -0.04354531                0.07765554                0.04301563                0.04347370                0.07647701
               4.83700070                0.91313158               96.09631277                0.95848783               -0.02055492               -0.01508958                0.06757935                0.02211440               -0.00523938                0.04701630
               5.83676138                0.91154004               96.09880375                0.96505423               -0.02216073               -0.01555111                0.06105018                0.01160925               -0.04463078                0.02875381
               6.83655748                0.90972858               96.10073843                0.93438387               -0.02235547               -0.01199314                0.05418693               -0.01818711               -0.07172903                0.02778055
               7.83631427                0.90765990               96.10255177                0.20711124               -0.03576863               -0.02368404                0.08066463               -0.05294298               -0.04437137                0.02117028
               8.83584211                0.90525040               96.10508181                0.38741530               -0.04638475               -0.03820161                0.14166766               -0.00676168                0.00939871               -0.06254818
               9.83538657                0.90294976               96.10872392                0.99999999               -0.04555391               -0.07139367                0.13197316                0.00849019                0.06380273               -0.11628115
              -0.15695783                1.92988968               96.08202558                0.20648528               -0.05858793                0.02650090                0.17229869               -0.03713744                0.01314112                0.01824982
               0.84245629                1.92596418               96.08518956                0.01000000               -0.14130739               -0.07498204                0.17622127               -0.18846398                0.06847292                0.04621083
               1.84021602                1.91951987               96.08951503                0.01000001               -0.12317480               -0.11529631                0.13667338               -0.19738270                0.13498300                0.12171383
               2.83999279                1.91574265               96.09337749                0.01003370               -0.04555039               -0.03803056                0.14103841                0.09575697                0.09958378                0.10961371
               3.83930501                1.91418435               96.09762550                0.01039865               -0.05791347               -0.08559868                0.11268644                0.20412545                0.07076773                0.07033847
               4.83883452                1.91303467               96.10138210                0.01000001               -0.03358354               -0.05532141                0.04380960                0.14535469                0.06601675                0.05804484
               5.83863334                1.91135206               96.10421710                0.45012174               -0.02195117                0.03222657                0.08089112                0.04343403                0.02979253                0.17443008
               6.83839550                1.90960636               96.10678546                0.99999998               -0.02280901               -0.01560979                0.08603321                0.01102329               -0.00294360                0.08474865
               7.83817716                1.90742960               96.10895669                0.96651659               -0.02132389               -0.02680431                0.06258530               -0.02213950               -0.03955495                0.03387315
               8.83796902                1.90486239               96.11069020                0.43903826               -0.01519157               -0.03020212                0.04544880               -0.04317938               -0.04769119               -0.03175602
               9.83787333                1.90182585               96.11257418                0.87994566               -0.00956920               -0.08201106                0.05952253               -0.04990976               -0.02978107               -0.06544681
              -0.15377621                2.93095322               96.08483391                0.46802531               -0.08739044                0.05392162                0.15077920               -0.15432097                0.02983839               -0.04835157
               0.84534989                2.92471298               96.08844855                0.01000000               -0.07250550               -0.06454006                0.08840047               -0.09998143                0.06104793                0.08274454
               1.84477368                2.91927597               96.09288495                0.01000002               -0.04472684               -0.04480513                0.14207733                0.10607581                0.11569195                0.09382739
               2.84445535                2.91548385               96.09747466                0.01000000               -0.04053573               -0.03935168                0.14734922                0.21008431                0.08380178                0.07936800
               3.84396297                2.91304740               96.10152351                0.01000000               -0.08576309               -0.10627345                0.17655854                0.33292907                0.11521943                0.07671387
               4.84274009                2.91202515               96.10688876                0.01000001               -0.14523001               -0.08361498                0.24609513                0.44594219                0.14883433                0.23995800
               5.84105837                2.91218457               96.11223035                0.01000000               -0.10198418               -0.04988793                0.12773672                0.32557181               -0.01399259                0.23267533
               6.84070041                2.90941639               96.11348102                0.01000000               -0.02214611               -0.05885067                0.05807233                0.16797688               -0.04351611                0.12949760
               7.84061544                2.90712381               96.11537529                0.01000001               -0.00590619               -0.06262807                0.05918110                0.12812658               -0.02340628                0.10731768
               8.84058228                2.90464636               96.11728556                0.93588065               -0.00769870               -0.01950778                0.08730740                0.02056901               -0.03427338                0.02831251
               9.84046147                2.90130954               96.11964808                1.00000000               -0.01208105               -0.05464478                0.08008999               -0.03587692               -0.02275773                0.05205040
              -0.14756378                3.93096812               96.08724943                0.96217881               -0.03023119               -0.00795988                0.06571458                0.00238800                0.05689030               -0.07621599
               0.85213391                3.92467337               96.09188562                0.83521640               -0.04347734               -0.01130058                0.07957044                0.04800396                0.07618155                0.04405870
               1.85156667                3.91862376               96.09669016                0.01031208               -0.08554290               -0.05398935                0.11086835                0.20376061                0.07005127                0.07186821
               2.85042305                3.91495562               96.10105344                0.01000000               -0.10721895               -0.07936985                0.17979067                0.32480826                0.07384512                0.13096426
               3.84942229                3.91205889               96.10583435                0.01000002               -0.09034275               -0.07856045                0.24842143                0.45982551                0.21628188                0.22528848
               4.84861620                3.91136237               96.11327760                0.01000001               -0.08343774               -0.09398075                0.18353725                0.54908540                0.16310154                0.17759864
               5.84775354                3.91035430               96.11730766                0.01000001               -0.09001988               -0.16291833                0.18912757                0.50287839                0.00667638                0.10342991
               6.84681580                3.90842935               96.12106631                0.01000000               -0.11219074               -0.10074503                0.19250588                0.37734547               -0.12870364                0.21011470
               7.84550973                3.90617704               96.12342334                0.01000000               -0.13105579               -0.07786862                0.15932608                0.29569555               -0.21721371                0.17520703
               8.84419468                3.90447224               96.12421765                0.99999999               -0.08401453               -0.02397288                0.12811343                0.10212167               -0.09761677                0.01624081
               9.84382943                3.90073295               96.12704380                1.00000000               -0.03652478               -0.05057333                0.08873375               -0.01178606                0.01296388                0.07451490
              -0.14113896                4.93079402               96.08944039                1.00000000               -0.02067159               -0.01760302                0.06052467                0.01317493                0.03229412               -0.10985452
               0.85865432                4.92448697               96.09456010                0.97237297               -0.01471938               -0.02097849                0.06893220                0.02274823                0.04689872               -0.00367908
               1.85856665                4.91819619               96.10008828                0.01000000               -0.05689641               -0.03052918                0.04162984                0.14087679                0.06973214                0.06412220
               2.85751639                4.91389645               96.10626519                0.01000001               -0.09069617               -0.13252200                0.23502106                0.43207520                0.23787164                0.15649528
               3.85675273                4.91147619               96.11284415                0.01000001               -0.10450054               -0.06569035                0.18355893                0.53626299                0.17289083                0.16346852
               4.85542638                4.91014553               96.11824189                0.01000001               -0.13518840               -0.12517399                0.23572368                0.56055136                0.09113786                0.08497037
               5.85404896                4.90892621               96.12333783                0.01000000               -0.15009048               -0.14268843                0.24080205                0.51879994                0.00809120                0.11256725
               6.85242457                4.90740149               96.12712725                0.01000001               -0.17812465               -0.10591665                0.22588953                0.44626289               -0.08518831                0.09760026
               7.85048646                4.90556644               96.12976386                0.01000000               -0.21778833               -0.07139477                0.20795122                0.39712230               -0.17708482                0.05977306
               8.84806881                4.90416690               96.13093911                0.38304109               -0.13910711               -0.01959908                0.14952440                0.18479720               -0.10676193                0.01059638
               9.84770432                4.90029807               96.13390514                1.00000000               -0.03644830               -0.08798771                0.11208876                0.05483802               -0.02361893                0.10295969
              -0.13468618                5.93061606               96.09102411                0.90605765               -0.01271078               -0.01490564                0.05215579                0.00103169                0.01976588               -0.12492306
               0.86518671                5.92425380               96.09670777                0.95524067               -0.01695436               -0.02146157                0.06145369                0.01203197                0.02949984               -0.04396052
               1.86497473                5.91801318               96.10255108                0.37616204                0.02989186               -0.02072763                0.07888279                0.04353874                0.17429393                0.02594502
               2.86578455                5.91230518               96.11100033                0.01000000               -0.05381293               -0.09578260                0.13192889                0.32505204                0.24232038               -0.01917226
               3.86389847                5.91074508               96.11652572                0.01000001               -0.17036698               -0.07952297                0.18960909                0.49804860                0.10924407                0.00437435
               4.86237721                5.90885889               96.12293135                0.01000000               -0.15124435               -0.14165529                0.24182817                0.51795237                0.11769035                0.00163572
               5.86087359                5.90750053               96.12835279                0.01000001               -0.16381934               -0.15704992                0.27783257                0.56395346                0.01680369                0.00792691
               6.85910082                5.90631101               96.13283361                0.01000001               -0.20934132               -0.12541891                0.28169135                0.56213897               -0.08890571               -0.00390722
               7.85668676                5.90474915               96.13624219                0.01000001               -0.29709109               -0.08389644                0.25722120                0.60616974               -0.20747282               -0.02103804
               8.85315900                5.90408026               96.13794950                0.20447674               -0.20114521               -0.20628044                0.30065841                0.53509098               -0.14288497                0.10856939
               9.85266385                5.89897320               96.14164503                1.00000000               -0.04951446               -0.34995719                0.19266443                0.34424747               -0.03557925                0.34096487
              -0.12839383                6.93049591               96.09229333                0.45531373               -0.01083369               -0.01240082                0.05310086               -0.02130183                0.01533695               -0.11418327
               0.87149784                6.92405774               96.09829267                0.93036143               -0.01100627               -0.02223066                0.05298949               -0.01827047                0.02925321               -0.07165188
               1.87138605                6.91778163               96.10476647                0.99999998               -0.01061520               -0.02313391                0.09029138                0.01346418                0.09487809               -0.00533956
               2.87128553                6.91198080               96.11202363                0.01000000               -0.06130315               -0.01912302                0.05233908                0.16688494                0.12697565               -0.04711877
               3.87015999                6.90988573               96.11987014                0.01000000               -0.11277788               -0.10488495                0.19723444                0.37437742                0.20439704               -0.13484379
               4.86902998                6.90731243               96.12632265                0.01000002               -0.11420416               -0.17146715                0.22742447                0.44462747                0.10163710               -0.09575740
               5.86787590                6.90578521               96.13242122                0.01000001               -0.13056200               -0.20368198                0.28236664                0.56078806                0.00348713               -0.10186326
               6.86641874                6.90489311               96.13755457                0.01000000               -0.15176429               -0.14938210                0.28218076                0.63148809               -0.11652490               -0.12716840
               7.86484062                6.90388851               96.14157880                0.01000000               -0.09360806               -0.10898058                0.26402491                0.53883645               -0.13389176               -0.12523402
               8.86454657                6.90004129               96.14739538                0.44088501               -0.00186136               -0.26690020                0.12608830                0.40025515               -0.13016650                0.09035861
               9.86480339                6.89329893               96.15393188                0.99982486                0.02568151               -0.25713410               -0.00147329                0.24771286               -0.03797583                0.24050357
              -0.12223588                7.93036804               96.09354315                0.40220470               -0.02285399               -0.07647572                0.11953443               -0.05692942                0.00920274               -0.09831855
               0.87753558                7.92380919               96.09978120                0.22319501               -0.02215805               -0.03688989                0.07997417               -0.05528336                0.02264948               -0.04529538
               1.87732096                7.91755050               96.10660814                0.97646875               -0.02587160               -0.02145626                0.06507034               -0.02194493                0.03686040               -0.03997979
               2.87701815                7.91192272               96.11347909                0.01000001               -0.06332822               -0.00484682                0.05068592                0.12156770                0.10135504               -0.03323571
               3.87605439                7.90864738               96.12185253                0.01000000               -0.08239321               -0.12769181                0.16320104                0.29005830                0.16904399               -0.23467113
               4.87537028                7.90542955               96.12853575                0.01000000               -0.07728634               -0.21310668                0.21010141                0.39465428                0.05890714               -0.19501744
               5.87450867                7.90342689               96.13537972                0.01000000               -0.08715014               -0.29550624                0.25705937                0.60270126               -0.01328622               -0.21895623
               6.87362728                7.90332337               96.14117031                0.01000000               -0.10966796               -0.09305228                0.26519957                0.53576136               -0.11397906               -0.14538344
               7.87231531                7.90256954               96.14653526                0.01000000               -0.09367942               -0.09748860                0.19161205                0.36809205               -0.17118539               -0.18265601
               8.87175369                7.89874225               96.15132954                0.81524769               -0.06062323               -0.09182757                0.21470726                0.14804203               -0.13762320               -0.14895984
               9.87110284                7.89383052               96.15818667                1.00000000               -0.06508486                0.02904020                0.19640195                0.06326914               -0.01741263               -0.19009213
              -0.11641472                8.92896639               96.09636360                0.84840703               -0.03755745               -0.08440894                0.12157474                0.01294712               -0.07843785               -0.03343216
               0.88320971                8.92331994               96.10197693                0.37456347               -0.03758305               -0.04745309                0.14120084               -0.00684280               -0.06050730                0.00642899
               1.88283362                8.91735251               96.10801615                0.46066503               -0.02948503               -0.01402318                0.04451101               -0.04200405               -0.02995710               -0.04592987
               2.88262001                8.91188386               96.11497771                0.94522338               -0.01896499               -0.00857570                0.08740221                0.01925924                0.02383320               -0.04088173
               3.88245432                8.90733190               96.12217956                0.99999999               -0.02382298               -0.08395651                0.12912262                0.09925022                0.01081460               -0.10839870
               4.88214355                8.90305029               96.12921951                0.39218031               -0.02091099               -0.13784797                0.15302691                0.18119291                0.02015978               -0.11904690
               5.88203610                8.89987508               96.13679573                0.19780068               -0.20761149               -0.20588896                0.31454879                0.53625510                0.11853893               -0.15356662
               6.87799132                8.90303206               96.14660256                0.44243947               -0.26262627               -0.00368765                0.12148120                0.39842658                0.10063656               -0.14274485
               7.87678358                8.90193874               96.15091154                0.82357621               -0.08724420               -0.06398249                0.21408923                0.14794368               -0.14469477               -0.14152051
               8.87624644                8.89820474               96.15689425                0.99999999               -0.04456657               -0.04451774                0.13457757                0.01681738               -0.05076011               -0.05411123
               9.87589225                8.89387973               96.16357925                0.65350180               -0.03541889                0.00165914                0.07897754                0.01911118               -0.01465584               -0.07164971
              -0.11068404                9.92867986               96.09910213                1.00000000               -0.03033535               -0.02865337                0.08447742               -0.00890534               -0.04467528               -0.00962338
               0.88901261                9.92286013               96.10523926                1.00000000               -0.06995032               -0.04598144                0.13261828                0.00979876               -0.11027394                0.05937295
               1.88791696                9.91727004               96.10959035                0.86658424               -0.07943342               -0.00824703                0.05491238               -0.04711291               -0.06555010               -0.02975567
               2.88742394                9.91175120               96.11703423                1.00000000               -0.05219954               -0.01326583                0.07748039               -0.03469619                0.05508558               -0.02381468
               3.88687297                9.90696825               96.12475301                1.00000000               -0.04864944               -0.03636477                0.08564723               -0.01206660                0.07500206                0.01262410
               4.88645095                9.90267259               96.13194341                1.00000000               -0.08104835               -0.03777058                0.11279744                0.04778347                0.11205537               -0.02469478
               5.88525200                9.89930911               96.14019628                1.00000000               -0.34593995               -0.05659714                0.19534201                0.35044105                0.36065877               -0.05092216
               6.87953215                9.90324962               96.15280675                0.99968456               -0.25752473                0.02175563               -0.01077757                0.25312201                0.23955917               -0.04453363
               7.88010150                9.90128989               96.15742055                1.00000000                0.03084481               -0.06488555                0.18936834                0.06190651               -0.18851887               -0.01980106
               8.88014905                9.89785190               96.16321472                0.65626607                0.00167899               -0.03528412                0.07637372                0.01895201               -0.07037542               -0.01606623
               9.88013508                9.89386370               96.16981163                0.37483346               -0.00139657               -0.00160313                0.00206057                0.02546376               -0.01998761               -0.01875750
              -0.16833541               -0.07217911               97.07685385                0.70860024               -0.03039072               -0.03030432                0.08127233                0.01096674                0.01395789                0.00922246
               0.83136068               -0.07627985               97.08041803                0.46853953               -0.03631285               -0.03962069                0.11834156               -0.00199298                0.04129950                0.00928069
               1.83093833               -0.08046564               97.08458842                0.23165372               -0.00550239               -0.05617049                0.14635060               -0.02894910                0.01097633                0.01312244
               2.83125064               -0.08519393               97.08764940                0.57939987                0.03290575               -0.04722063                0.08071376               -0.06033835               -0.14576641                0.03739237
               3.83159645               -0.08847868               97.08970354                0.97883325                0.02247731               -0.02766394                0.04450416               -0.03106955               -0.15213727                0.06230673
               4.83170018               -0.09104221               97.09214861                0.84450590                0.01500691               -0.01874470                0.03995809               -0.01196283               -0.13830445                0.02750288
               5.83189659               -0.09341238               97.09399165                0.43898655                0.01568913               -0.01131745                0.05022857               -0.01883515               -0.15221473                0.02079892
               6.83201397               -0.09558671               97.09572448                0.32374457               -0.06500586               -0.03024994                0.11885988               -0.03976011               -0.13635674               -0.01417837
               7.83059647               -0.09791515               97.09852125                0.61336322               -0.09437001               -0.04067894                0.12581032                0.05890785               -0.13380613               -0.09949481
               8.83012657               -0.10037557               97.10053773                0.80015814               -0.03230745               -0.03063050                0.07244339                0.00195309               -0.07015146                0.00076745
               9.82995032               -0.10284444               97.10339750                0.84559605               -0.01762436               -0.02017725                0.04242536               -0.01787632               -0.02034066               -0.02174611
              -0.16412500                0.92751785               97.08002339                0.45668849               -0.03909801               -0.03695052                0.11678465               -0.00239053                0.00998778                0.03166748
               0.83548402                0.92332395               97.08354999                0.01000001               -0.03845563               -0.03901426                0.15422880               -0.02361004                0.03482243                0.02983790
               1.83510589                0.91897266               97.08760037                0.01000449               -0.04151230               -0.06061886                0.19567826               -0.05939429                0.01180168                0.08125864
               2.83465377                0.91433386               97.09079181                0.01003484               -0.04479957               -0.03559770                0.15719412               -0.06710956                0.02643253                0.15950323
               3.83420989                0.91124469               97.09414325                0.89335023               -0.03031826               -0.02721066                0.08702357               -0.02630474                0.00302687                0.08539166
               4.83404741                0.90877034               97.09701323                0.99999998               -0.01147059               -0.02561295                0.06168343               -0.00536709               -0.04489029                0.03515059
               5.83398048                0.90647444               97.09931887                0.81537156               -0.00898282               -0.00609897                0.04797336               -0.02034279               -0.08576599                0.03580012
               6.83386775                0.90411079               97.10120298                0.24907648               -0.02002524               -0.01938243                0.08144657               -0.04412635               -0.08054628                0.01741110
               7.83357998                0.90167806               97.10356041                0.01000001               -0.06285070               -0.04173362                0.17868262                0.01907557               -0.02743784               -0.06527284
               8.83261074                0.89931813               97.10684724                0.10518183               -0.06697744               -0.06449919                0.15785207                0.03690387               -0.00062532               -0.10030979
               9.83224043                0.89695379               97.10958283                0.68065626               -0.03703079               -0.05855810                0.10358276                0.04723590               -0.02570770               -0.13760218
              -0.15999541                1.92708188               97.08370465                0.22292104               -0.05709146               -0.01079932                0.14867890               -0.03268601                0.01099572               -0.00929833
               0.83943367                1.92293987               97.08712483                0.01000001               -0.06320272               -0.04176492                0.20040437               -0.06039501                0.08339509               -0.00093615
               1.83874053                1.91832199               97.09193427                0.01000000               -0.08986272               -0.08467488                0.24215451               -0.06042086                0.18475147                0.17152098
               2.83763642                1.91409411               97.09590896                0.01000000               -0.10533284               -0.05233914                0.28041711               -0.00520342                0.07048395                0.22675984
               3.83663388                1.91097711               97.09898004                0.01000000               -0.06366684               -0.04289508                0.12642315                0.05057655                0.04370044                0.14352114
               4.83636308                1.90844553               97.10197063                0.14135437               -0.02422995                0.03783863                0.09184589                0.04950016                0.05847666                0.21509266
               5.83614928                1.90646564               97.10519317                0.99999998               -0.02176278                0.01361976                0.09048462                0.02902783                0.02798690                0.14594153
               6.83592783                1.90402564               97.10763115                1.00000000               -0.01893161               -0.01176358                0.06934140               -0.01892212               -0.03914200                0.06807806
               7.83577065                1.90125017               97.10941410                0.61118892               -0.01694596               -0.02763464                0.05347937               -0.04467729               -0.07602941               -0.00824267
               8.83558891                1.89833445               97.11110011                0.01000000               -0.00734648               -0.06352274                0.02850633                0.00745227               -0.03406685               -0.11839535
               9.83562372                1.89598440               97.11342802                0.48811594                0.00348086               -0.13392638                0.11411782                0.04031992               -0.05134176                0.01400072
              -0.15649469                2.92730186               97.08618172                0.58970759               -0.04692942                0.02682122                0.08315100               -0.06076631                0.03846050               -0.15855742
               0.84303601                2.92248865               97.08977486                0.01000002               -0.03810420               -0.04408411                0.15845197               -0.06578042                0.16626843                0.01582276
               1.84274322                2.91727916               97.09542820                0.01000000               -0.05707170               -0.09982002                0.27826632               -0.00321766                0.23886496                0.06003744
               2.84189458                2.91328708               97.10000658                0.01000000               -0.09366057               -0.08781071                0.27632490                0.13524662                0.16316014                0.15661887
               3.84087001                2.91038678               97.10444233                0.01000001               -0.11728482               -0.08422988                0.30455061                0.28289239                0.19387950                0.23436149
               4.83954888                2.90952711               97.11037893                0.01000001               -0.09445449               -0.03848009                0.19918600                0.24297079                0.12532743                0.27380622
               5.83898092                2.90674684               97.11265070                0.01000001               -0.04220539               -0.04151347                0.04369977                0.10279773               -0.00966724                0.15472512
               6.83870477                2.90387552               97.11447189                0.74999661               -0.03016485                0.01556643                0.09641440                0.00212110               -0.02092579                0.17784463
               7.83837763                2.90112536               97.11643606                0.99999999               -0.03396106                0.00269444                0.10530766               -0.01618340               -0.02637173                0.12828424
               8.83802555                2.89804767               97.11835721                0.91733127               -0.03153498               -0.03047404                0.09712910               -0.05010388               -0.03182077                0.02661200
               9.83774693                2.89427526               97.12044689                0.90892356               -0.02786282               -0.09454623                0.07056712               -0.09337013               -0.03189531                0.00340589
              -0.15158431                3.92761831               97.08784715                0.99196537               -0.02749266                0.02010901                0.04666944               -0.03040244                0.06099906               -0.15035046
               0.84814077                3.92205818               97.09273886                0.91112527               -0.02689714               -0.02939215                0.08685455               -0.02497912                0.08359149                0.00230836
               1.84787775                3.91632559               97.09801242                0.01000000               -0.04535185               -0.06091202                0.12424084                0.05197067                0.14561525                0.03775871
               2.84723373                3.91233790               97.10402023                0.01000001               -0.09130292               -0.10811824                0.30585133                0.28317705                0.23400304                0.19360447
               3.84605169                3.90929251               97.10988698                0.01000001               -0.11856432               -0.11202306                0.38008014                0.35792859                0.20680096                0.21573969
               4.84486244                3.90767592               97.11509148                0.01000743               -0.10974346               -0.16351335                0.25084202                0.39803074                0.11689902                0.14099802
               5.84385682                3.90563537               97.11951254                0.01000000               -0.16353589               -0.10538024                0.21937032                0.36880922                0.02208479                0.21825784
               6.84159172                3.90433697               97.12301197                0.01000001               -0.12909988               -0.05979479                0.11642970                0.27262542               -0.07921403                0.21243534
               7.84127482                3.90130406               97.12499200                0.01000002               -0.00773976               -0.06223868                0.07692564                0.10369187               -0.16218319                0.16072071
               8.84143693                3.89772497               97.12562909                0.99999999                0.00131556               -0.03599149                0.11000661                0.00295957               -0.10083995                0.00071732
               9.84130114                3.89409348               97.12772313                1.00000000               -0.01357939               -0.02585348                0.06015887               -0.01086734               -0.02531398                0.04007266
              -0.14598250                4.92770404               97.08995570                0.83519859               -0.01883503                0.01354664                0.04117329               -0.01131105                0.02583142               -0.13485958
               0.85382915                4.92190080               97.09525485                1.00000000               -0.02572888               -0.01110343                0.06112536               -0.00476513                0.03327604               -0.04298584
               1.85350292                4.91606092               97.10063502                0.09835333                0.03810209               -0.02375210                0.08960746                0.05192803                0.21400440                0.05824611
               2.85459119                4.91112471               97.10950056                0.01000000               -0.04061828               -0.08945156                0.18743082                0.24589079                0.27865476                0.12994708
               3.85269056                4.90814632               97.11468884                0.01000000               -0.17122753               -0.10259234                0.25278772                0.39534451                0.14420157                0.11926686
               4.85116664                4.90625684               97.12100888                0.01000001               -0.14972493               -0.14105521                0.30142994                0.46855074                0.13524254                0.13361513
               5.84969606                4.90463923               97.12593971                0.01000001               -0.13390251               -0.12680769                0.28420553                0.43539030                0.01463233                0.16362694
               6.84848859                4.90267963               97.12961343                0.01000001               -0.13162970               -0.16304577                0.26290624                0.39883575               -0.07952551                0.14014046
               7.84706346                4.89988059               97.13202149                0.01000001               -0.15966307               -0.12704548                0.22535827                0.28115524               -0.18986739                0.11810153
               8.84529533                4.89732785               97.13244870                0.39944893               -0.11354501               -0.04289593                0.16736624                0.10627595               -0.10514346                0.05918274
               9.84479256                4.89375819               97.13507427                1.00000000               -0.05027652               -0.10583377                0.12430897                0.04564213               -0.00190947                0.12115435
              -0.14020405                5.92788924               97.09144619                0.41897753               -0.01073641                0.01488303                0.05121145               -0.01814305                0.02219156               -0.14870206
               0.85968858                5.92183612               97.09721767                0.79995788               -0.00517737               -0.00933500                0.04738970               -0.02045055                0.03677936               -0.08481315
               1.85969240                5.91585054               97.10352082                0.99999998                0.01887793               -0.02104263                0.09098279                0.02888979                0.15373218                0.03022662
               2.86006614                5.91054887               97.11153479                0.01000000               -0.04329755               -0.04193298                0.04377717                0.09775635                0.15775091               -0.01366368
               3.85882645                5.90724067               97.11872550                0.01000000               -0.11627990               -0.15629515                0.22070679                0.36301661                0.21672097                0.02469270
               4.85774054                5.90485482               97.12554819                0.01000001               -0.13423018               -0.12844465                0.28595155                0.43233480                0.16719796                0.00942141
               5.85614185                5.90309922               97.13152840                0.01000001               -0.17067304               -0.16568194                0.35894706                0.44185827                0.05591939                0.05008445
               6.85432708                5.90107606               97.13603018                0.01000002               -0.19460684               -0.16228334                0.37367745                0.39111100               -0.07461695                0.04947494
               7.85224971                5.89876315               97.13918962                0.01000000               -0.23211201               -0.11209002                0.32424955                0.37760008               -0.20214151                0.03970169
               8.84968484                5.89686705               97.14057222                0.22885967               -0.14482150               -0.15599823                0.28702949                0.30969349               -0.11304730                0.11201163
               9.84935328                5.89197680               97.14368075                1.00000000               -0.03315643               -0.29854233                0.19128277                0.18470605               -0.00379144                0.32582223
              -0.13423912                6.92800170               97.09284577                0.31306139               -0.03020511               -0.06896729                0.12601415               -0.04067366               -0.01388169               -0.12917633
               0.86545883                6.92171410               97.09874730                0.25115073               -0.01964586               -0.02168238                0.08382738               -0.04577518                0.01990787               -0.07987503
               1.86536797                6.91564007               97.10564903                1.00000000               -0.01513188               -0.01731920                0.07054096               -0.02083158                0.06676157               -0.03744654
               2.86515620                6.91028605               97.11281435                0.60040418                0.01384843               -0.02820816                0.08944228               -0.00585471                0.17772075               -0.03224963
               3.86564494                6.90502042               97.12190367                0.01000001               -0.06007039               -0.13070685                0.12835829                0.26568029                0.22468442               -0.08349616
               4.86395479                6.90368795               97.12881863                0.01000001               -0.16664743               -0.12786097                0.26396602                0.39410464                0.14099659               -0.08782783
               5.86231199                6.90132560               97.13562083                0.01000002               -0.16539566               -0.19325534                0.37437917                0.38932688                0.05517347               -0.08363140
               6.86064687                6.89943396               97.14088515                0.01000001               -0.17437580               -0.17335829                0.39136420                0.45246982               -0.12067632               -0.12862737
               7.85882447                6.89763879               97.14471334                0.01000001               -0.11856624               -0.13680530                0.33580488                0.39904165               -0.19144778               -0.13932696
               8.85827555                6.89420788               97.14839714                0.58814741               -0.02786434               -0.19062491                0.12745351                0.26048155               -0.12573586                0.05683092
               9.85826718                6.88778735               97.15412177                0.99999999               -0.00083652               -0.21013096                0.00666811                0.11582004               -0.02721945                0.24775810
              -0.12844233                7.92650989               97.09542652                0.60914048               -0.04229580               -0.09689126                0.13015621                0.06179317               -0.10609814               -0.12782680
               0.87113472                7.92140247               97.10079391                0.01000001               -0.04269267               -0.06418301                0.18161651                0.02174543               -0.06737875               -0.02528280
               1.87070382                7.91550416               97.10708439                0.60662696               -0.02830089               -0.01486547                0.05407981               -0.04258014               -0.00731568               -0.07610429
               2.87056870                7.90998470               97.11444493                0.99999999                0.00171691               -0.03386329                0.10305348               -0.01762367                0.13029629               -0.02982816
               3.87073816                7.90462653               97.12344855                0.01000001               -0.06256180               -0.00923280                0.08000537                0.10140358                0.16325455               -0.17594333
               4.86931746                7.90229760               97.13081247                0.01000001               -0.12778910               -0.15754345                0.22751788                0.28049219                0.11850406               -0.20230404
               5.86818238                7.89923411               97.13836351                0.01000000               -0.11270873               -0.23501079                0.32749245                0.37491814                0.04533641               -0.21086601
               6.86706329                7.89760889               97.14430540                0.01000001               -0.13628777               -0.11914466                0.33562337                0.39957574               -0.13146071               -0.19909925
               7.86545662                7.89602705               97.14913998                0.01000001               -0.11586851               -0.11745095                0.26658232                0.36683548               -0.21445758               -0.22293918
               8.86474592                7.89305455               97.15296403                0.89601310               -0.04729374               -0.10039870                0.16640275                0.16740564               -0.14837960               -0.07035388
               9.86451075                7.88777418               97.15912214                0.64943001               -0.02351707                0.00190496                0.07212723                0.03416506               -0.00670299               -0.06548864
              -0.12278840                8.92606388               97.09706857                0.79616885               -0.03121217               -0.03087086                0.07272012                0.00211424                0.00095791               -0.06962921
               0.87689947                8.92043044               97.10375373                0.08634986               -0.06387336               -0.06728626                0.15868410                0.04022810               -0.09866343               -0.00014328
               1.87593413                8.91534276               97.10841422                0.01000000               -0.06090612               -0.00814584                0.02936404                0.00212153               -0.11366605               -0.03674269
               2.87568135                8.90960879               97.11604805                0.93470060               -0.02870093               -0.03237765                0.09598861               -0.04942365                0.02588858               -0.03477079
               3.87536011                8.90483576               97.12363220                0.99999999               -0.03621498                0.00397543                0.11330124                0.00452406               -0.00225769               -0.10889187
               4.87495705                8.90053708               97.13079351                0.42365970               -0.04305253               -0.11394617                0.17222704                0.10174908                0.06328098               -0.11397567
               5.87449906                8.89662538               97.13938767                0.22923053               -0.15558000               -0.14868224                0.27958280                0.31653195                0.11764128               -0.11861880
               6.87184545                8.89705107               97.14758436                0.59519447               -0.18917705               -0.02790680                0.12506933                0.26312894                0.06064205               -0.13099180
               7.87071552                8.89528977               97.15254886                0.90452406               -0.09844630               -0.04852445                0.16582584                0.16727813               -0.06780604               -0.15076010
               8.86987653                8.89219991               97.15814568                0.86450347               -0.06021459               -0.06072557                0.12214113                0.07489303               -0.02712888               -0.02919416
               9.86951123                8.88782545               97.16418528                0.01463987               -0.03652992                0.00443955                0.05246248                0.02455284               -0.00602211               -0.04223474
              -0.11713317                9.92589248               97.09957231                0.84599405               -0.02064303               -0.01714020                0.04190464               -0.01805025               -0.02047591               -0.01945978
               0.88266040                9.92005674               97.10612999                0.66128998               -0.06494600               -0.03737002                0.10539474                0.04853050               -0.13535325               -0.02658779
               1.88156791                9.91534124               97.11036706                0.46639315               -0.12865882               -0.00015156                0.10876587                0.02739809                0.01634362               -0.05337822
               2.88008722                9.90933715               97.11780394                0.90592065               -0.08337808               -0.02716366                0.06635862               -0.09117349                0.00712164               -0.03381948
               3.87990034                9.90470604               97.12541594                1.00000000               -0.02621966               -0.01297246                0.05929025               -0.01190026                0.04047067               -0.02635535
               4.87956283                9.90001868               97.13312891                1.00000000               -0.09506567               -0.05184044                0.12355252                0.03829864                0.12340668               -0.00147063
               5.87799903                9.89626046               97.14211901                1.00000000               -0.29506757               -0.03649153                0.17999775                0.20160102                0.32337511               -0.00792659
               6.87366147                9.89705076               97.15295086                0.99999999               -0.21728446               -0.00003102                0.00274870                0.12140686                0.24747194               -0.02873811
               7.87365334                9.89505656               97.15833434                0.66112385                0.00233128               -0.02332129                0.06979120                0.03324663               -0.06576544               -0.00705614
               8.87370810                9.89184004               97.16380006                0.02011658                0.00486899               -0.03598647                0.05044669                0.02347819               -0.04214264               -0.00643815
               9.87375072                9.88786297               97.16968588                0.16855829                0.00426214                0.00375267               -0.01739308                0.02624263               -0.01490996               -0.01426546
              -0.17195338               -0.07543871               98.07770224                0.67373494               -0.03522318               -0.03555363                0.08885354                0.01574365                0.01498218                0.01135368
               0.82769438               -0.07949675               98.08161834                0.49302863               -0.04825096               -0.04006702                0.11646965                0.00952674                0.02561671                0.01022748
               1.82708160               -0.08359706               98.08587935                0.42393371               -0.02406620               -0.05417201                0.09517527               -0.00601322               -0.07488752                0.00978333
               2.82721306               -0.08844187               98.08796412                0.74708185                0.03541336               -0.03831643                0.02609967               -0.05130637               -0.17394728                0.07238647
               3.82778986               -0.09257801               98.09001800                0.79183310                0.04528259               -0.02312790                0.03229957               -0.04786935               -0.15392205                0.05602262
               4.82811871               -0.09584272               98.09245074                0.41793139                0.02940670               -0.01447096                0.04904630               -0.01901286               -0.14418058                0.00922046
               5.82837800               -0.09857539               98.09458086                0.35151032               -0.02481730               -0.03700929                0.13336042               -0.02975069               -0.13036139               -0.04085919
               6.82762237               -0.10139435               98.09754404                0.52740509               -0.05547641               -0.04355120                0.13682236                0.02878861               -0.15557427               -0.13145678
               7.82726847               -0.10416493               98.09924639                0.68834579               -0.02537676               -0.03734787                0.07649200                0.00613413               -0.12853074                0.02538640
               8.82711483               -0.10697724               98.10127909                0.67203198               -0.01462937               -0.03409384                0.07127075               -0.00011154               -0.07275165               -0.00096368
               9.82697588               -0.10955186               98.10376067                0.74760811               -0.01389484               -0.02809471                0.04900650               -0.01492693               -0.05124080               -0.01924508
              -0.16773792                0.92420575               98.08121120                0.48224916               -0.03932604               -0.05079491                0.11581794                0.00843833                0.01062163                0.01830226
               0.83186882                0.92010258               98.08511794                0.01305979               -0.03840287               -0.03913342                0.16628914               -0.00721731                0.04382332                0.04190611
               1.83149403                0.91586122               98.08962794                0.01000000               -0.03391764               -0.06402431                0.21146231               -0.04411468               -0.00963301                0.07648731
               2.83119047                0.91117496               98.09262628                0.55686262               -0.02412164               -0.02475226                0.14247801               -0.07634325               -0.08886627                0.17123519
               3.83101159                0.90719071               98.09502832                0.99999999               -0.01316004               -0.03331457                0.07479064               -0.04174517               -0.08204248                0.06267050
               4.83092727                0.90401257               98.09754643                0.82979585               -0.00776454               -0.00932294                0.04882710               -0.02319861               -0.08243601                0.02844308
               5.83085630                0.90105452               98.09976322                0.25202169               -0.01111240               -0.02427799                0.08556144               -0.03439314               -0.07746655               -0.00829476
               6.83070502                0.89817014               98.10236737                0.02228902               -0.03675228               -0.04533205                0.19494312                0.00882204                0.00441532               -0.11110278
               7.83012126                0.89546159               98.10612542                0.01000001               -0.04489207               -0.07229894                0.18694313                0.02154093               -0.00832347               -0.12671809
               8.82980718                0.89268182               98.10823885                0.02619137               -0.03600140               -0.10191218                0.14769648                0.04322657               -0.03435188               -0.20425001
               9.82940123                0.89016719               98.11079557                0.45114465               -0.04059511                0.03968292                0.15154179                0.00927706               -0.01370112               -0.18419526
              -0.16357829                1.92354539               98.08499916                0.42245913               -0.05271478               -0.02830919                0.09379621               -0.00524789                0.00932813               -0.09273039
               0.83589457                1.91972058               98.08919764                0.01000000               -0.06473962               -0.03435844                0.21211136               -0.04314879                0.07663568               -0.02106105
               1.83512692                1.91512245               98.09435812                0.01000001               -0.07689316               -0.07313257                0.27338207               -0.04161340                0.13921751                0.13167456
               2.83435670                1.91106308               98.09898583                0.01000001               -0.05047843               -0.03350036                0.19628921               -0.04264011               -0.01914538                0.15108686
               3.83411735                1.90675570               98.10015396                0.01000001               -0.02828879               -0.01815100                0.12778160               -0.03178272               -0.06041731                0.19988953
               4.83379093                1.90397082               98.10321902                0.99999999               -0.02923955                0.01839282                0.10365806                0.01471724                0.02245554                0.16397719
               5.83353256                1.90093905               98.10602679                0.99898052               -0.01995973               -0.00474074                0.06573549               -0.01780252               -0.01680315                0.06643746
               6.83339173                1.89769901               98.10817228                0.68575410               -0.01724770               -0.02888400                0.06352969               -0.03792260               -0.05693788               -0.01157174
               7.83318761                1.89438909               98.11002628                0.02838564               -0.00589856               -0.06749994                0.14551559               -0.03165304               -0.10869337               -0.14196531
               8.83327376                1.89098451               98.11126033                0.01000003               -0.04984670               -0.10161013                0.31688492                0.14902796               -0.01181460               -0.25407141
               9.83219067                1.89124180               98.11485654                0.35631093               -0.10830872               -0.15423224                0.35341990                0.33787676                0.09154451               -0.34668276
              -0.16019327                2.92363957               98.08649693                0.75895326               -0.03779502                0.03208727                0.02649537               -0.04986123                0.07245777               -0.18253568
               0.83942878                2.91941541               98.09161759                0.56258639               -0.02437352               -0.02405179                0.14331329               -0.07475490                0.17219095               -0.09805295
               1.83931926                2.91439857               98.09845028                0.01007436               -0.03621786               -0.04751678                0.19315406               -0.04198877                0.15855192               -0.02939912
               2.83870442                2.91050496               98.10300116                0.01000000               -0.09255297               -0.08646798                0.37642077                0.06504861                0.09091848                0.08224750
               3.83746820                2.90682769               98.10761452                0.01000000               -0.08330832               -0.03142670                0.26766708                0.11225917                0.07785207                0.30339901
               4.83703826                2.90438043               98.11087248                0.01000001               -0.03480707               -0.02092198                0.03857557                0.08348528                0.02588991                0.19198693
               5.83677206                2.90095971               98.11310435                0.84900473               -0.02708639                0.02456982                0.04228395               -0.00228912               -0.00232746                0.16837053
               6.83649653                2.89759246               98.11540930                0.99999999               -0.02846833               -0.00812466                0.07317303               -0.02438945               -0.01115571                0.10583503
               7.83620269                2.89411160               98.11748144                1.00000000               -0.02807477               -0.02915319                0.08150097               -0.02407588               -0.03036959                0.03637466
               8.83593504                2.89064962               98.11922814                0.70293848               -0.02792496               -0.02947107                0.09396843               -0.04280254               -0.03586101                0.00775715
               9.83564420                2.88708255               98.12105942                0.72575664               -0.02908399               -0.21673843                0.11384720               -0.00948639               -0.03875716               -0.08679178
              -0.15612721                3.92418713               98.08818282                0.79188475               -0.02323269                0.04291140                0.03355430               -0.04612705                0.05450781               -0.15102650
               0.84364047                3.91923955               98.09362271                0.99999999               -0.03375938               -0.01334860                0.07548649               -0.04016369                0.06137106               -0.08164644
               1.84319761                3.91417212               98.09917498                0.01000002               -0.02059562               -0.02729276                0.12888343               -0.03120318                0.20349324               -0.06343056
               2.84322855                3.90933372               98.10717047                0.01000001               -0.03552690               -0.07620621                0.26506220                0.11431417                0.31077165                0.07343120
               3.84248707                3.90612716               98.11343595                0.01000003               -0.09499683               -0.09023386                0.42032257                0.24394462                0.18670878                0.18398939
               4.84132862                3.90355238               98.11829444                0.01000003               -0.11061611               -0.10096530                0.33296542                0.25726958                0.04646962                0.22934155
               5.84027475                3.90143045               98.12169506                0.01000000               -0.07882809               -0.03884087                0.14929752                0.14745678               -0.05892988                0.26208145
               6.83975206                3.89753652               98.12339490                0.01000002               -0.03129052               -0.02031896                0.05580045                0.03156659               -0.03690003                0.17995969
               7.83964894                3.89380603               98.12496185                0.01000000               -0.01526488               -0.01903693                0.03262613                0.02548623               -0.03937949                0.12634957
               8.83944676                3.89039509               98.12641778                0.73524006               -0.02569259               -0.01210930                0.08142363                0.00395612               -0.04075814                0.01514207
               9.83913508                3.88690703               98.12824697                1.00000000               -0.03116747               -0.01595050                0.07517401               -0.01026609               -0.02702212                0.01947415
              -0.15122064                4.92449779               98.09026385                0.40362371               -0.01388361                0.02824026                0.04924095               -0.01784046                0.00794856               -0.13999269
               0.84864052                4.91914844               98.09578261                0.82194789               -0.00891675               -0.00872300                0.04846536               -0.02189396                0.02760420               -0.08012276
               1.84860102                4.91385271               98.10188043                0.99999999                0.01975694               -0.02842125                0.10450606                0.01835186                0.16608392                0.02537804
               2.84903566                4.90898083               98.11001381                0.01000001               -0.02362937               -0.03078017                0.03873409                0.08383158                0.19504438                0.02151998
               3.84812844                4.90502301               98.11789990                0.01000004               -0.10776496               -0.10515289                0.33498924                0.25563552                0.22801890                0.04799913
               4.84688036                4.90236112               98.12427049                0.01000001               -0.11956895               -0.11574051                0.34509446                0.33747631                0.11951631                0.12066248
               5.84573706                4.90018289               98.12902194                0.01000005               -0.10640400               -0.13046743                0.31408923                0.30301004                0.01682324                0.22513142
               6.84475228                4.89718608               98.13238537                0.01000000               -0.09416067               -0.07538627                0.24223762                0.18715866               -0.10001758                0.29613229
               7.84385384                4.89373086               98.13427103                0.01000002               -0.09195627               -0.04773488                0.18500094                0.08371539               -0.21777753                0.27306910
               8.84291316                4.89040743               98.13428644                1.00000000               -0.07194232               -0.00115192                0.15370313               -0.00035750               -0.11528587                0.13273879
               9.84241500                4.88676354               98.13639132                1.00000000               -0.04981591               -0.02324461                0.10388408               -0.00259511                0.00350213                0.11488864
              -0.14578531                5.92475194               98.09204834                0.34390572               -0.03670192               -0.02828717                0.14089940               -0.03137873               -0.04278642               -0.11963174
               0.85384767                5.91906509               98.09765556                0.24727285               -0.02412167               -0.01322201                0.08684544               -0.03480170               -0.00811933               -0.07252133
               1.85373225                5.91360369               98.10437074                0.99821128               -0.00563911               -0.01917896                0.06622213               -0.01468802                0.06695799               -0.01281341
               2.85373489                5.90871812               98.11187587                0.82783054                0.02436182               -0.02775796                0.03712836               -0.00149673                0.16578068               -0.00359266
               3.85421949                5.90402411               98.12093985                0.01000001               -0.04083090               -0.07651255                0.15342901                0.15202028                0.26391787               -0.05273406
               4.85291827                5.90123757               98.12865038                0.01000000               -0.13547527               -0.10347617                0.31606940                0.30246897                0.22376198                0.01482443
               5.85150998                5.89882110               98.13553173                0.01002373               -0.14855032               -0.14527079                0.44325841                0.29835103                0.12237814                0.12135925
               6.84994726                5.89602879               98.14030716                0.01000000               -0.17040455               -0.15703693                0.50538592                0.20953241               -0.05705954                0.07318917
               7.84810189                5.89285133               98.14272718                0.01000000               -0.17701675               -0.12896236                0.51017347                0.19945453               -0.19509265                0.00055355
               8.84640693                5.89037205               98.14369009                0.51630653               -0.08654641               -0.08106682                0.19121871                0.16505356               -0.12181884                0.06243864
               9.84637097                5.88644214               98.14547068                1.00000000               -0.00359607               -0.19754246                0.09989630                0.12674486               -0.06295807                0.21048527
              -0.14047452                6.92393205               98.09481361                0.52612534               -0.04327489               -0.05816136                0.14396297                0.02982984               -0.14017314               -0.14695933
               0.85909273                6.91888400               98.09996922                0.03038739               -0.04356249               -0.03839924                0.19949797                0.01097767               -0.11631131                0.01070316
               1.85865423                6.91346913               98.10617728                0.68533294               -0.02537102               -0.01702330                0.06237538               -0.03334785               -0.01143804               -0.05431288
               2.85858531                6.90842567               98.11381248                0.99999999               -0.00024210               -0.03128331                0.07771801               -0.02256731                0.12058466               -0.01199432
               3.85864939                6.90349276               98.12243730                0.01000000               -0.02262842               -0.03120600                0.05624881                0.02991873                0.18155878               -0.04115886
               4.85813275                6.90029160               98.13160197                0.01000001               -0.08682684               -0.09144921                0.24541656                0.18459231                0.28594817               -0.10566008
               5.85691286                6.89727747               98.13990880                0.01000000               -0.16100229               -0.16891832                0.50768339                0.20831118                0.07460258               -0.06284198
               6.85491270                6.89404534               98.14538185                0.01000003               -0.17065905               -0.16933103                0.44393940                0.20742309               -0.12134707               -0.12596120
               7.85349967                6.89115161               98.14829490                0.01000005               -0.11446386               -0.12880530                0.34419343                0.30031906               -0.27101219               -0.17100840
               8.85262342                6.88878609               98.14994445                0.81585271               -0.03449732               -0.13927114                0.15183715                0.20290453               -0.18078670               -0.04636634
               9.85280973                6.88281269               98.15406524                0.99999999                0.01863046               -0.19924492               -0.02583369                0.01673890               -0.04533112                0.22153099
              -0.13509262                7.92358871               98.09614627                0.68296247               -0.03772426               -0.02520123                0.07700066                0.00627053                0.02474286               -0.12530153
               0.86453014                7.91829710               98.10341353                0.01000001               -0.06918769               -0.04515045                0.18980023                0.02362831               -0.12737503               -0.00637821
               1.86352363                7.91326323               98.10768974                0.05344280               -0.06351132               -0.00670774                0.14445295               -0.02964508               -0.14041140               -0.10599921
               2.86325991                7.90809245               98.11554016                0.99999999               -0.02858427               -0.02981187                0.08437166               -0.02643740                0.04137372               -0.03316836
               3.86295194                7.90339999               98.12345263                0.01000000               -0.02172542               -0.01530489                0.03438594                0.01652244                0.12802271               -0.05170572
               4.86282540                7.89940859               98.13308611                0.01000002               -0.05147397               -0.09186307                0.18844078                0.07818508                0.27177058               -0.22685873
               5.86192246                7.89544274               98.14192957                0.01000000               -0.13019080               -0.17651355                0.50962421                0.19594051                0.00236126               -0.20737462
               6.86022159                7.89264217               98.14788278                0.01000005               -0.12774690               -0.11392894                0.34301860                0.29813761               -0.16808745               -0.27803223
               7.85936752                7.89027523               98.15186690                0.49581154               -0.07088248               -0.07112131                0.21067085                0.31554627               -0.24153182               -0.24648269
               8.85880394                7.88758663               98.15465760                1.00000000               -0.03574849               -0.10006330                0.14948937                0.18130180               -0.14927974               -0.08333017
               9.85865255                7.88245724               98.15962921                0.33141807               -0.01513837               -0.01706930                0.02842325                0.03120506               -0.02972084                0.02587051
              -0.12976589                8.92342803               98.09781800                0.67164421               -0.03433233               -0.01527621                0.07233558               -0.00051874               -0.00086787               -0.07088587
               0.86989079                8.91798099               98.10515061                0.02008773               -0.09840625               -0.03606249                0.14837397                0.04438027               -0.20092904               -0.03482126
               1.86826598                8.91333498               98.10860343                0.01000000               -0.09854890               -0.04832154                0.31325197                0.14473500               -0.25166509               -0.01464585
               2.86791981                8.90782944               98.11689748                0.71490427               -0.03011378               -0.02647041                0.09219891               -0.04453667                0.00477601               -0.03820883
               3.86766371                8.90318666               98.12444558                0.76533992               -0.01330547               -0.02631684                0.08276162                0.00151808                0.01322654               -0.04494260
               4.86765370                8.89845433               98.13266405                0.99999999               -0.00328149               -0.07181048                0.15443477               -0.00244249                0.12856805               -0.12112751
               5.86759808                8.89374720               98.14238738                0.51144670               -0.08053681               -0.08774238                0.18801151                0.16437594                0.06393359               -0.12732634
               6.86604296                8.89176676               98.14910394                0.82077603               -0.13659687               -0.03501561                0.15061694                0.20133294               -0.04075896               -0.18374841
               7.86486614                8.88972918               98.15422806                0.99999999               -0.09877579               -0.03487071                0.14909061                0.17937701               -0.08068402               -0.15129568
               8.86406745                8.88678483               98.15933707                0.15355618               -0.05867643               -0.05861262                0.10465054                0.09464213               -0.04186345               -0.04340578
               9.86369261                8.88247130               98.16462850                0.01003841               -0.03748337                0.00599746                0.04214257                0.03928220               -0.02286844               -0.01858502
              -0.12420893                9.92328319               98.09994022                0.75057230               -0.02802808               -0.01448387                0.04930911               -0.01503711               -0.01828328               -0.04974945
               0.87551079                9.91757585               98.10734715                0.44284941                0.03894071               -0.04051389                0.15084167                0.01268086               -0.18342082               -0.01321445
               1.87656988                9.91229680               98.11176566                0.33243741               -0.14966485               -0.10381832                0.34973905                0.32974959               -0.33746424                0.08446658
               2.87251749                9.90756304               98.11836141                0.70608944               -0.21062409               -0.02663905                0.10727501               -0.01138884               -0.08496651               -0.04039788
               3.87235740                9.90287365               98.12593882                0.99999999               -0.01507387               -0.03130152                0.07056321               -0.01016397                0.01867309               -0.02498353
               4.87221602                9.89797238               98.13441446                1.00000000               -0.02299258               -0.04819588                0.09991847               -0.00305635                0.11094304                0.00309868
               5.87189755                9.89368789               98.14379624                1.00000000               -0.19748753               -0.00593141                0.09512541                0.12842152                0.20264328               -0.06006320
               6.86826626                9.89194186               98.15286172                0.99999999               -0.19802760                0.01750965               -0.02896792                0.01682647                0.22447553               -0.04500377
               7.86793700                9.88957781               98.15881637                0.33144204               -0.01558022               -0.01513710                0.02669850                0.03071177                0.02519880               -0.02943415
               8.86795466                9.88641438               98.16422366                0.01007979                0.00641243               -0.03704491                0.04088221                0.03869022               -0.01868820               -0.02345998
               9.86806525                9.88257719               98.16946376                0.20533638                0.01105879                0.01058858                0.22367866                0.05354454                0.01564217                0.01520162
              -0.17586798               -0.07896997               99.07863092                0.60186319               -0.04361129               -0.04430610                0.09115268                0.00374046                0.00370813                0.00205667
               0.82369591               -0.08307449               99.08274742                0.46613984               -0.05186065               -0.03427410                0.12090059               -0.01507614               -0.01134563                0.04038773
               1.82309481               -0.08776716               99.08649193                0.59653382               -0.00314375               -0.02092045                0.06915107               -0.06879357               -0.07569100                0.07662012
               2.82363303               -0.09307052               99.08817139                0.67133670                0.04682894               -0.01926248                0.04175151               -0.09628206               -0.14031984                0.05850851
               3.82403139               -0.09737886               99.09034953                0.51144772                0.03103404               -0.02589978                0.06454813               -0.03718329               -0.10603592                0.02458150
               4.82425371               -0.10104919               99.09312953                0.45215477                0.00823354               -0.03798883                0.11860535               -0.01976323               -0.04344212               -0.03507465
               5.82419606               -0.10459428               99.09665886                0.52695174               -0.00083814               -0.05430958                0.15213142                0.00075157               -0.08364432               -0.13237173
               6.82423695               -0.10786249               99.09846093                0.55127713                0.00473743               -0.08770150                0.11011842                0.00712975               -0.13154193                0.02085913
               7.82429081               -0.11116549               99.10005109                0.58917759               -0.00398481               -0.04706988                0.08782727                0.00252884               -0.11413219                0.00979516
               8.82415726               -0.11431435               99.10196314                0.60831185               -0.01642255               -0.04337542                0.06963255                0.00294721               -0.07359902                0.00132929
               9.82396236               -0.11729914               99.10437763                0.77851803               -0.01948995               -0.05268414                0.06943089               -0.00941886               -0.04703963               -0.00042156
              -0.17172605                0.92058697               99.08233975                0.46141657               -0.03302088               -0.05442425                0.12104043               -0.01731314                0.04013146               -0.01745688
               0.82794374                0.91658277               99.08687577                0.50092710               -0.04345329               -0.04532550                0.16569006               -0.03259106                0.06604640                0.06442840
               1.82740489                0.91202363               99.09182961                0.66816251               -0.02338401               -0.00498479                0.13448270               -0.06020126               -0.00861899                0.11330072
               2.82747606                0.90673685               99.09364137                0.96670440                0.01220007               -0.00942518                0.06910073               -0.09184317               -0.13313305                0.08688340
               3.82764889                0.90236214               99.09563906                0.85791124                0.00938635               -0.01162147                0.05493911               -0.05024908               -0.09078340                0.02801314
               4.82766379                0.89857092               99.09798977                0.44626335               -0.00193340               -0.02758925                0.07535107               -0.04069334               -0.04017184               -0.01984570
               5.82761022                0.89486262               99.10103010                0.54757151               -0.00349687               -0.04762266                0.15965011               -0.03232631                0.04797064               -0.10008071
               6.82759385                0.89126050               99.10510185                0.45155023               -0.00340975               -0.06926207                0.16335019                0.00269081                0.02054933               -0.11052069
               7.82754203                0.88836381               99.10729927                0.16526553               -0.01701508               -0.08898293                0.13920117                0.01046635               -0.01713064               -0.09991869
               8.82725355                0.88525190               99.10980117                0.35982359               -0.03445325               -0.17109588                0.17881262                0.00876524                0.01463274               -0.01583436
               9.82685296                0.88217401               99.11261367                0.80062070               -0.04005914               -0.19569798                0.17834745                0.00720307                0.01648891               -0.01868385
              -0.16820583                1.91994155               99.08558057                0.59973370               -0.01867476               -0.00597454                0.06645319               -0.07029621                0.07542139               -0.08494287
               0.83160743                1.91601900               99.09136706                0.66776897               -0.00287384               -0.02401229                0.13189764               -0.06128349                0.11282598               -0.01445379
               1.83173670                1.91213314               99.09740191                0.01000000               -0.00748799               -0.00746604                0.13390371               -0.10761080                0.03432581                0.02823018
               2.83145767                1.90674097               99.09983474                0.52896586               -0.02721789                0.00052708                0.05921877               -0.13358985               -0.04703105                0.18139494
               3.83119234                1.90238871               99.10153567                0.99999999               -0.02591510                0.04053183                0.09928110               -0.07175578               -0.05635738                0.17960078
               4.83093936                1.89839902               99.10404379                0.95764054               -0.01661928               -0.01397442                0.06900081               -0.05111894               -0.02835971                0.05625629
               5.83085995                1.89445326               99.10650788                0.47952918               -0.00748918               -0.02083230                0.06557842               -0.04297101               -0.02681271               -0.03438972
               6.83078958                1.89075227               99.10890174                0.62106857               -0.01756092               -0.02454455                0.13426186               -0.04438536                0.01580545               -0.10867882
               7.83050874                1.88705485               99.11232441                0.60551153               -0.01336140               -0.07232611                0.18988316               -0.10395832                0.14000860               -0.13067067
               8.83052235                1.88226373               99.11743781                0.52614739               -0.01232777               -0.11032653                0.34456621               -0.08955747                0.10127661               -0.12199388
               9.83026218                1.87878690               99.12049642                0.78205069               -0.02601733               -0.15125107                0.35273753               -0.02487087                0.05173492               -0.32753780
              -0.16528687                2.92046748               99.08671163                0.68050484               -0.01866534                0.04446482                0.04245439               -0.09490157                0.05774952               -0.14386402
               0.83452648                2.91610252               99.09264112                0.98145410               -0.00912195                0.01206183                0.06995670               -0.09122843                0.08643517               -0.13760399
               1.83453070                2.91187431               99.09929128                0.52993670                0.00111117               -0.02531620                0.05846353               -0.13459814                0.18583800               -0.05431229
               2.83454870                2.90674739               99.10753499                0.66405726                0.00125148                0.00264484                0.22948475               -0.04855066                0.10791426                0.10104715
               3.83455573                2.90317277               99.10979567                0.01000003                0.00140755                0.01491068                0.08863390               -0.04932066               -0.10771053                0.29494226
               4.83457686                2.89829143               99.11115044                0.63553537               -0.00790865                0.02328659                0.03485286               -0.10667222               -0.04961531                0.24292339
               5.83439755                2.89444597               99.11349638                0.99999999               -0.02361465                0.02530704                0.05068808               -0.04020057               -0.00426928                0.10478448
               6.83410456                2.89076961               99.11593535                0.98191019               -0.02230769                0.01039146                0.04630895               -0.03656656               -0.01059066                0.03174546
               7.83395140                2.88691729               99.11806608                0.55123593               -0.01871039               -0.00066908                0.06759218               -0.03843108               -0.01157915               -0.04823506
               8.83373036                2.88304536               99.12023658                0.87284196               -0.03210911                0.03528905                0.10865839               -0.04770027                0.00576873               -0.20062773
               9.83330922                2.87914899               99.12272384                0.99114112               -0.04211389                0.01820828                0.11183432               -0.04763115                0.03889390               -0.27879991
              -0.16137393                3.92083085               99.08851824                0.50536936               -0.02500411                0.02855956                0.06416640               -0.03577007                0.02283721               -0.10144577
               0.83837603                3.91626023               99.09424859                0.86144302               -0.01131035                0.00814903                0.05548619               -0.04829253                0.02746844               -0.08923935
               1.83839986                3.91162682               99.10059009                0.99999999                0.04060829               -0.02507951                0.10105361               -0.07018271                0.18142884               -0.05637083
               2.83918819                3.90679387               99.10932147                0.01000000                0.01310143                0.00511546                0.08708354               -0.05079973                0.29967046               -0.11226526
               3.83866189                3.90268692               99.11829343                0.68419946               -0.08277362               -0.07851853                0.26182414                0.02547079                0.15874076                0.15725888
               4.83753272                3.89886475               99.12175078                0.77112654               -0.05420616                0.00113645                0.17098755                0.00652789               -0.11076946                0.27489921
               5.83757777                3.89495940               99.12249849                0.99999999                0.00271097                0.04296130                0.04786508               -0.01922838               -0.12104254                0.19204401
               6.83758694                3.89096010               99.12412798                0.99999998               -0.00567059                0.04602016                0.05373845               -0.03916762               -0.05610413                0.17484389
               7.83746435                3.88704147               99.12564453                0.65772848               -0.01251497                0.03296779                0.06871518               -0.05675690               -0.04845532                0.12703455
               8.83733664                3.88296951               99.12725756                0.70989285               -0.01810267               -0.01675252                0.08475909               -0.03757184               -0.01990304                0.02823352
               9.83710230                3.87915106               99.12922661                0.89604014               -0.02343389               -0.01583676                0.07363340               -0.01466393                0.01427346               -0.02016747
              -0.15686104                4.92103867               99.09094052                0.44979312               -0.03743008                0.00579991                0.12262526               -0.02233208               -0.03578231               -0.03365090
               0.84276466                4.91626550               99.09622416                0.44566214               -0.02727765               -0.00305764                0.07546288               -0.04190917               -0.02070348               -0.03593138
               1.84259341                4.91137272               99.10272514                0.96262597               -0.01460239               -0.01646983                0.07020252               -0.05022068                0.05645112               -0.02655666
               2.84247261                4.90684970               99.11027524                0.62509399                0.02004262               -0.00577619                0.03402720               -0.10729338                0.24574812               -0.05228957
               3.84299426                4.90160240               99.12138863                0.77777540               -0.00188400               -0.05191673                0.17334010                0.00664362                0.27907394               -0.10954540
               4.84243493                4.89831416               99.12791077                0.91279926               -0.05383095               -0.05224628                0.17809114                0.18969924                0.05454453                0.05861460
               5.84191764                4.89530520               99.13222150                0.54441048               -0.05978903               -0.01599317                0.14818288                0.13653534               -0.05534188                0.23857396
               6.84123915                4.89169001               99.13445818                0.01000000               -0.05553957               -0.07083711                0.10078727                0.03374704               -0.10385772                0.33068776
               7.84080685                4.88757664               99.13572151                0.01000001               -0.01849131               -0.11455572                0.07912810               -0.07395586               -0.15586835                0.39824101
               8.84086932                4.88271031               99.13552276                0.83378433               -0.00770033               -0.02558511                0.10842995               -0.07880308               -0.10081050                0.08610561
               9.84065284                4.87883226               99.13715195                0.99999999               -0.02164821               -0.03192368                0.06834006               -0.01627475                0.00332483                0.04525112
              -0.15227423                5.92094684               99.09426418                0.52887245               -0.05219789               -0.00370462                0.15772273                0.00058621               -0.14183193               -0.07484405
               0.84720379                5.91619908               99.09895458                0.55269623               -0.04572637               -0.00476515                0.16175729               -0.03225712               -0.10497195                0.05401313
               1.84681125                5.91129742               99.10484526                0.48132166               -0.01955747               -0.00689571                0.06454614               -0.04090943               -0.03485627               -0.02487853
               2.84681264                5.90667835               99.11227736                0.99999998                0.02595302               -0.02339108                0.05141039               -0.04067876                0.10974158               -0.00405657
               3.84733031                5.90164859               99.12179408                0.99999998                0.04056320                0.00410283                0.04920037               -0.01830777                0.19222615               -0.12226061
               4.84762391                5.89781983               99.13186958                0.53628037               -0.01988411               -0.05875730                0.14933380                0.13791396                0.23463966               -0.05325021
               5.84693262                5.89463954               99.14039357                0.99999999               -0.08167341               -0.08171416                0.24062435               -0.00849783                0.16446486                0.16462524
               6.84599044                5.88954336               99.14613790                0.95973718               -0.09838456               -0.11754449                0.29629700               -0.06472534                0.03900115                0.25127856
               7.84496493                5.88475035               99.14939309                0.57848215               -0.07427392               -0.12488724                0.35377872                0.04746181               -0.35312138                0.28930186
               8.84450496                5.88245781               99.14439659                0.99999997               -0.02160061               -0.01986355                0.06553693                0.08911963               -0.32856192                0.05205959
               9.84453292                5.87851259               99.14567867                0.99999999                0.00279582               -0.03864098                0.02043410                0.02878491               -0.03676963                0.06021628
              -0.14735379                6.92096458               99.09572503                0.54714381               -0.08772732                0.00263164                0.11114937                0.01017369                0.01969940               -0.12755108
               0.85176894                6.91617020               99.10273726                0.45390402               -0.06751292               -0.00527828                0.16371044                0.00550889               -0.11240789                0.02546744
               1.85129595                6.91123481               99.10689654                0.61920340               -0.02305325               -0.01696970                0.13380257               -0.04153011               -0.10964941                0.01755096
               2.85130787                6.90638188               99.11436871                0.97967521                0.00953346               -0.02210072                0.04848238               -0.03648568                0.03285270               -0.01013911
               3.85148662                6.90168446               99.12302864                0.99999999                0.04471909               -0.00322247                0.04540074               -0.04102568                0.16676427               -0.05936630
               4.85220225                6.89713901               99.13372696                0.01178532               -0.07312340               -0.05607410                0.10380917                0.03192441                0.32624687               -0.10517393
               5.85002415                6.89367092               99.14577450                0.95269206               -0.11842109               -0.10157539                0.29826217               -0.06497906                0.25031580                0.03443260
               6.84983383                6.88933912               99.14976394                0.22107627               -0.05912611               -0.06086002                0.22265071               -0.04091319               -0.15530489               -0.15695283
               7.84884163                6.88507890               99.15159721                0.80080423               -0.04721762                0.02069442                0.16917981                0.09300784               -0.23064723               -0.24680870
               8.84888948                6.88231304               99.15143388                1.00000000                0.01386771               -0.02312423                0.08089468                0.12367961               -0.16838880               -0.04229580
               9.84911898                6.87805944               99.15360510                0.67906606                0.02295054               -0.03921299               -0.03086566                0.04664805               -0.08244520                0.15060467
              -0.14248199                7.92099948               99.09696653                0.58694192               -0.04742704               -0.00561871                0.08979671                0.00354426                0.00985979               -0.11155422
               0.85704374                7.91609352               99.10458991                0.16992387               -0.08745273               -0.01849012                0.13971909                0.01425379               -0.10065090               -0.01586745
               1.85576896                7.91095803               99.10997345                0.61071576               -0.07052321               -0.01304458                0.18829942               -0.09995894               -0.13335847                0.13990071
               2.85563328                7.90623633               99.11613236                0.56229308               -0.00081498               -0.01792577                0.06766885               -0.03735209               -0.04846899               -0.01174636
               3.85575266                7.90158414               99.12413627                0.66558347                0.03213302               -0.01168672                0.06794698               -0.05832659                0.12475992               -0.05482871
               4.85627594                7.89669835               99.13458128                0.01000002               -0.11598620               -0.01764140                0.08098566               -0.07958727                0.39299918               -0.16289121
               5.85343294                7.89260803               99.14855599                0.58453415               -0.12558711               -0.07293690                0.35170897                0.04707474                0.28543160               -0.35791788
               6.85376420                7.88832616               99.15116577                0.80199313                0.02091145               -0.04709831                0.16810162                0.09559889               -0.24478006               -0.23272390
               7.85385117                7.88516424               99.15335340                0.98570819                0.01169073                0.01177458                0.07596366                0.18481228               -0.18400579               -0.18556791
               8.85399801                7.88199533               99.15595382                0.72858451                0.00609636               -0.02736560                0.08721751                0.11567088               -0.09279534               -0.08014460
               9.85397309                7.87772833               99.15969061                0.57276781               -0.00249202               -0.02201204                0.00960934                0.04090089               -0.04130818                0.06625025
              -0.13747098                8.92085221               99.09851528                0.60968949               -0.04335578               -0.01732200                0.07052117                0.00328332                0.00181856               -0.07198152
               0.86209546                8.91580040               99.10672121                0.35778772               -0.16875313               -0.03470730                0.17897632                0.01222521               -0.01731013                0.01446243
               1.85915396                8.91097392               99.11467926                0.52749301               -0.10803692               -0.01259601                0.33830590               -0.08708111               -0.12448718                0.10126233
               2.85993472                8.90602337               99.11789203                0.86686904                0.03520593               -0.03174944                0.10744681               -0.04708675               -0.19939561                0.00396566
               3.85985807                8.90145073               99.12528743                0.70840054               -0.01740557               -0.01821200                0.08467721               -0.03845438                0.02527857               -0.02496743
               4.85958661                8.89678619               99.13388221                0.83957446               -0.02601192               -0.00592590                0.10810344               -0.07951107                0.08473461               -0.10565892
               5.85933784                8.89221218               99.14314790                0.99999997               -0.01985042               -0.01832709                0.06822639                0.08913330                0.05446729               -0.33074770
               6.85918960                8.88839715               99.15059670                0.99999999               -0.02345647                0.01544829                0.08126078                0.12344303               -0.04062300               -0.16966870
               7.85886871                8.88531439               99.15553068                0.73761901               -0.02753970                0.00634986                0.08764615                0.11563983               -0.07920870               -0.09398224
               8.85863881                8.88176573               99.16023869                0.35549924               -0.01988541               -0.01988228                0.07056679                0.04968718               -0.03223568               -0.03232082
               9.85847100                8.87761920               99.16502813                0.95744276               -0.01678100                0.03840800                0.06603122                0.06585938               -0.01677204                0.21809118
              -0.13231270                9.92065304               99.10055849                0.77966672               -0.05207669               -0.01991702                0.06908879               -0.00953818               -0.00048490               -0.04562170
               0.86716654                9.91539937               99.10914683                0.79472315               -0.19414688               -0.04010261                0.17668873                0.00976126               -0.01964669                0.01593358
               1.86380437                9.91070611               99.11736184                0.76672402               -0.14759007               -0.02678094                0.34986670               -0.02486020               -0.32562222                0.05067800
               2.86421474                9.90560134               99.11994944                0.97351413                0.02081930               -0.04220230                0.10886862               -0.04630922               -0.27897133                0.03511395
               3.86422075                9.90121990               99.12682721                0.87319573               -0.01452353               -0.02308301                0.06947542               -0.01480788               -0.02071193                0.01076426
               4.86392427                9.89657983               99.13512728                0.99974702               -0.03080595               -0.02063574                0.06533429               -0.01515477                0.04410594                0.00325667
               5.86360463                9.89224149               99.14402152                0.99999999               -0.03967077                0.00293120                0.02142634                0.02944456                0.06053615               -0.03726408
               6.86313085                9.88863512               99.15237150                0.68140207               -0.04046253                0.02379696               -0.03245711                0.04661206                0.15292647               -0.08286681
               7.86279538                9.88529124               99.15886831                0.56509810               -0.02219517               -0.00231506                0.00889315                0.04079559                0.06669232               -0.04144043
               8.86268695                9.88159768               99.16461770                0.94748295                0.03939825               -0.01680508                0.06372694                0.06507639                0.21839531               -0.01603517
               9.86358335                9.87849649               99.17415945                0.99999997                0.08964018                0.08772910                0.39634273                0.20111577                0.32204461                0.32242582
              -0.18011224               -0.08281525              100.07952529                1.00000000               -0.02813003               -0.02777900                0.08943743               -0.00255274                0.02668049                0.02614322
               0.81960646               -0.08694569              100.08403636                1.00000000                0.01280234               -0.02827929                0.12889310               -0.08689577               -0.02209086                0.05241891
               1.82014381               -0.09274003              100.08726237                1.00000000                0.04712964               -0.00427229                0.07704423               -0.12207421               -0.05696034                0.00823582
               2.82054905               -0.09821166              100.08879915                1.00000000                0.02835971               -0.05390619                0.06277572               -0.07933905               -0.10606804                0.00680081
               3.82071100               -0.10266543              100.09130897                1.00000000                0.01957471               -0.07697359                0.09594321                0.01100092               -0.03085359               -0.04684255
               4.82094055               -0.10626469              100.09482285                1.00000000                0.03313574               -0.10339132                0.16933127                0.01423076               -0.01559047               -0.09848851
               5.82137372               -0.10996531              100.09762349                1.00000000                0.03293728               -0.08308116                0.09646342               -0.06672317               -0.03605594               -0.00382903
               6.82159929               -0.11425900              100.09974641                1.00000000                0.00549469               -0.02220861                0.12854823               -0.10024953               -0.09479350               -0.05085527
               7.82148361               -0.11846539              100.10100294                1.00000000               -0.01414940               -0.03447160                0.09518466               -0.05881391               -0.13445300                0.06066201
               8.82131631               -0.12262670              100.10267174                1.00000000               -0.01387503               -0.04828321                0.07085996               -0.03143555               -0.07677750                0.08310042
               9.82120611               -0.12603236              100.10514928                1.00000000               -0.01101952               -0.02929118                0.07716520               -0.05057610               -0.02787037                0.04800189
              -0.17600733                0.91690696              100.08363201                1.00000000               -0.02927791                0.01449525                0.12922583               -0.09007368                0.05184485               -0.02785520
               0.82369989                0.91277152              100.08843174                1.00000000                0.02816896                0.03059245                0.15559684               -0.14832134                0.00989398                0.00883717
               1.82455605                0.90721725              100.09231760                1.00000000                0.05092356                0.04827107                0.04879839               -0.21601461               -0.00605620                0.00805234
               2.82471836                0.90124928              100.09400829                1.00000000                0.01457376               -0.04954914                0.03669230               -0.09595717               -0.08529462                0.01979557
               3.82484753                0.89656483              100.09612711                1.00000000                0.00072155               -0.05717327                0.04880478               -0.02388604               -0.02787826               -0.03819955
               4.82473279                0.89270140              100.09905346                1.00000000               -0.00719420               -0.09000204                0.10636850               -0.00249871                0.04835602               -0.09814230
               5.82470364                0.88920388              100.10295622                1.00000000                0.00570219               -0.11248594                0.19261240               -0.02089220                0.03838765               -0.08013049
               6.82484684                0.88551892              100.10563437                1.00000000                0.01878414               -0.05245374                0.05325233               -0.08609823                0.02295959               -0.01860270
               7.82507932                0.88118990              100.10890945                1.00000000               -0.00307002               -0.02628737                0.16101777               -0.13301755                0.06276632               -0.07634064
               8.82478544                0.87689046              100.11181510                1.00000000               -0.04866589                0.03679641                0.20139333               -0.08520963                0.02584209               -0.06214772
               9.82410601                0.87367473              100.11436252                1.00000000               -0.06794311                0.03066162                0.17488519               -0.02647156               -0.01995355               -0.01182837
              -0.17364283                1.91747465              100.08632822                1.00000000               -0.00274234                0.04588307                0.07476491               -0.12534604                0.00703709               -0.06098968
               0.82632974                1.91366616              100.09183560                1.00000000                0.04942928                0.05051450                0.04685388               -0.21856574                0.00763033               -0.00603477
               1.82734575                1.90822539              100.09703619                1.00000000                0.14762892                0.14534479               -0.03657223               -0.46413488               -0.02236392               -0.02567772
               2.82928232                1.90079736              100.10017021                1.00000000                0.07177037                0.08949448                0.03354627               -0.31971642                0.03763522                0.08476637
               3.82878116                1.89619110              100.10213958                1.00000000               -0.05153983               -0.02980296                0.06039100               -0.10055354               -0.01967628                0.04324441
               4.82825153                1.89193527              100.10459904                1.00000000               -0.03214013               -0.05847508                0.05552487               -0.03968441               -0.00884513               -0.02057070
               5.82813836                1.88778497              100.10733836                1.00000000               -0.01801069               -0.10695482                0.08304770               -0.00226114                0.04076453               -0.10873465
               6.82789131                1.88469193              100.11085752                1.00000000               -0.03433238               -0.12588901                0.19557800                0.00460362                0.03445225               -0.07097871
               7.82745171                1.88100887              100.11382394                1.00000000               -0.03820145               -0.06815598                0.14995297                0.00039308                0.05900400               -0.10840608
               8.82712728                1.87810922              100.11815165                1.00000000               -0.01717789               -0.00365783                0.07138393                0.00896108                0.06486050                0.06385959
               9.82710815                1.87458087              100.12191129                1.00000000               -0.00191309               -0.04491825                0.14148684                0.01424205                0.06056121                0.02607704
              -0.17089726                2.91782462              100.08734601                1.00000000               -0.05248986                0.02273401                0.06343824               -0.07869746                0.00603118               -0.10739001
               0.82857784                2.91378181              100.09301672                1.00000000               -0.04802918                0.01027847                0.03755995               -0.09561197                0.01881232               -0.08722945
               1.82814215                2.91012414              100.09961955                1.00000000                0.08902415                0.06927258                0.03282685               -0.31675481                0.08985204                0.03297600
               2.83035832                2.90303917              100.10759085                1.00000000                0.17781938                0.17754034                0.00558575               -0.59595338                0.06934417                0.06627398
               3.83169854                2.89596878              100.10938720                1.00000000                0.09934576                0.07441388               -0.04084693               -0.35279294               -0.08678399                0.10624254
               4.83234524                2.89153190              100.11156954                1.00000000                0.01016122                0.01773815                0.04190964               -0.11236728                0.01338346                0.17980455
               5.83190176                2.88706479              100.11411811                1.00000000               -0.03151090               -0.06193779                0.06217233               -0.05962088               -0.01128164                0.02758150
               6.83171502                2.88300114              100.11633548                1.00000000               -0.01159387               -0.10906788                0.04001283                0.01773098               -0.00319550               -0.09623970
               7.83166989                2.87982678              100.11883329                1.00000000               -0.01611820               -0.11587859                0.07672037                0.09573506                0.02514005               -0.08344002
               8.83139265                2.87681731              100.12140131                1.00000000               -0.01111672               -0.12178237                0.11647277                0.06444573               -0.01062904               -0.12474016
               9.83144755                2.87277636              100.12329611                1.00000000                0.00548989               -0.12526517                0.05722693                0.01462114                0.00331384               -0.24684531
              -0.16713116                3.91792933              100.08946615                1.00000000               -0.07508611                0.01271096                0.09479114                0.01392433               -0.04909403               -0.02163411
               0.83211798                3.91387173              100.09473244                1.00000000               -0.05577734               -0.00289922                0.04838495               -0.02272469               -0.03930944               -0.02509330
               1.83175329                3.90961084              100.10119605                1.00000000               -0.02996789               -0.05288654                0.06059606               -0.09933778                0.04432839               -0.01835095
               2.83151862                3.90434817              100.10891214                1.00000000                0.07396387                0.09699934               -0.04093379               -0.35013228                0.10686197               -0.08939542
               3.83323257                3.89767938              100.11867243                1.00000000                0.16947738                0.16813423                0.03789996               -0.38411407                0.09717109                0.09822150
               4.83490817                3.89229004              100.12171419                1.00000000                0.11220659                0.09413584               -0.00365916               -0.31700078               -0.06345836                0.15566661
               5.83547670                3.88654622              100.12265237                1.00000000                0.02878842               -0.00027461                0.01538748               -0.17992103               -0.07233249                0.05205599
               6.83548394                3.88251057              100.12446967                1.00000000                0.00367673               -0.06056113                0.03416931               -0.01974134               -0.02611082                0.05832855
               7.83555024                3.87869130              100.12633615                1.00000000               -0.00086623               -0.09398324                0.06916265                0.05825081               -0.00924699                0.01599822
               8.83546661                3.87567358              100.12811296                1.00000000               -0.00338867               -0.09133951                0.08553957                0.07290625               -0.01782809                0.02309292
               9.83548247                3.87207557              100.12971964                1.00000000                0.00158512               -0.07799328                0.04930340                0.02897758               -0.00131542                0.01555139
              -0.16250357                4.91807884              100.09271636                1.00000000               -0.10545975                0.02706042                0.17758433                0.02091864               -0.10670183               -0.00915165
               0.83644183                4.91372382              100.09729187                1.00000000               -0.09087355               -0.01197404                0.10677112                0.00183692               -0.10387631                0.05374560
               1.83567896                4.90906641              100.10328448                1.00000000               -0.05773490               -0.03380626                0.05593448               -0.03928063               -0.02132042               -0.00735077
               2.83528714                4.90497916              100.11069435                1.00000000                0.01977143                0.00976789                0.04191065               -0.11363376                0.18556369                0.01254260
               3.83607439                4.89933146              100.12136670                1.00000000                0.09256244                0.11297466               -0.00219225               -0.31626609                0.16491092               -0.06452317
               4.83713838                4.89341462              100.12783231                1.00000000                0.10042112                0.10331694               -0.00784643               -0.40843818                0.00129015                0.00618858
               5.83808281                4.88705929              100.13198560                1.00000000                0.10183654                0.10071930               -0.02358980               -0.32852222               -0.05504241                0.06000163
               6.83917512                4.88178991              100.13440112                1.00000000                0.07945421                0.16190199               -0.00570665               -0.14341778               -0.01300365                0.09816197
               7.83967190                4.87794711              100.13585359                1.00000000                0.01456953                0.20351882                0.01320834                0.02155710               -0.01079918                0.21037742
               8.83946651                4.87499052              100.13645504                1.00000000               -0.02243866               -0.00857233                0.09322716                0.06764365               -0.04505527                0.07241350
               9.83922312                4.87121650              100.13775812                1.00000000               -0.02433837               -0.04411268                0.06061707                0.00204513               -0.01266332                0.04641017
              -0.15800276                5.91847054              100.09520279                1.00000000               -0.08301000                0.02999170                0.09386136               -0.06390012               -0.00406139               -0.03161837
               0.84116714                5.91363225              100.10089071                1.00000000               -0.11424478                0.00170972                0.19361262               -0.01522936               -0.08072136                0.04089460
               1.83971235                5.90893472              100.10566166                1.00000000               -0.10931225               -0.01872212                0.08164010                0.00310572               -0.10922080                0.04217216
               2.83898090                5.90454352              100.11290408                1.00000000               -0.06202791               -0.03056328                0.06267241               -0.05863557                0.02993529               -0.00909375
               3.83847179                5.89993888              100.12192386                1.00000000                0.00153369                0.03158951                0.01297796               -0.18175566                0.05079697               -0.07204034
               4.83901157                5.89435637              100.13163705                1.00000000                0.10295861                0.10308998               -0.02325285               -0.33024122                0.05978422               -0.05405325
               5.84053096                5.88856060              100.14034421                1.00000000                0.13580944                0.13722040               -0.00493526               -0.04041899                0.08963640                0.08652870
               6.84172776                5.88574861              100.14623310                1.00000000                0.11249062                0.20442510                0.00952021                0.05049224                0.04665917                0.39221272
               7.84278078                5.88276167              100.14980275                1.00000000                0.09111710                0.21540046                0.04096654               -0.13507930               -0.28002959                0.59237733
               8.84355010                5.87550213              100.14500082                1.00000000                0.01453168                0.06962164                0.06042338               -0.18935537               -0.29165519                0.05979742
               9.84307141                5.87119332              100.14587937                1.00000000               -0.04786951                0.02981740                0.02006941               -0.05111848               -0.05829692                0.05256295
              -0.15410499                6.91867867              100.09703660                1.00000000               -0.02219457                0.00484209                0.13115673               -0.09903675               -0.05443674               -0.09162035
               0.84567307                6.91375802              100.10324343                1.00000000               -0.05326081                0.01817787                0.05061663               -0.08218189               -0.01875001                0.02464213
               1.84482980                6.90869197              100.10885334                1.00000000               -0.12814015               -0.03280981                0.19567940                0.01057681               -0.06968057                0.03541931
               2.84311027                6.90436789              100.11478212                1.00000000               -0.11016874               -0.01046590                0.04134132                0.02090463               -0.09516151               -0.00192637
               3.84262642                6.89996325              100.12334532                1.00000000               -0.05992178                0.00528766                0.03166724               -0.01825256                0.05878167               -0.02773540
               4.84191183                6.89547642              100.13367815                1.00000000                0.16278866                0.08195707               -0.00488136               -0.14527305                0.09739405               -0.01282115
               5.84588220                6.88980370              100.14587404                1.00000000                0.20360313                0.11751874                0.00995462                0.04588206                0.39364032                0.04425491
               6.84598389                6.88587841              100.14983487                1.00000000                0.06672952                0.07031602                0.00709298                0.06261176               -0.09477111               -0.09548512
               7.84721679                6.88225512              100.15167850                1.00000000                0.06319310               -0.00656362                0.00812914               -0.06884390               -0.07611044               -0.10320608
               8.84724775                6.87638295              100.15156234                1.00000000               -0.01992017                0.08383986                0.01284644               -0.16907802               -0.07570104               -0.02295319
               9.84681838                6.87181285              100.15344793                1.00000000               -0.04293709                0.05829510               -0.01571732               -0.09294066               -0.04150182                0.07244245
              -0.15014218                7.91856738              100.09794220                1.00000000               -0.03476099               -0.01411149                0.09756700               -0.05897794                0.06055097               -0.13361848
               0.84951021                7.91399580              100.10620791                1.00000000               -0.02719034               -0.00223442                0.16179969               -0.12906650               -0.07767731                0.06456422
               1.84931401                7.90827852              100.11145573                1.00000000               -0.06912486               -0.03600699                0.14822838                0.00570125               -0.11121345                0.05785992
               2.84812771                7.90433421              100.11689354                1.00000000               -0.11578986               -0.01381105                0.07611789                0.09897854               -0.08276469                0.02300197
               3.84699821                7.90004463              100.12481157                1.00000000               -0.09310251                0.00165626                0.06753068                0.06069942                0.01516984               -0.01426030
               4.84626566                7.89599552              100.13470583                1.00000000                0.20241952                0.01593709                0.01245424                0.02212212                0.20658072               -0.01288472
               5.85104660                7.89091098              100.14896374                1.00000000                0.21314570                0.09315085                0.04077543               -0.13749269                0.58831606               -0.27581193
               6.85052858                7.88715493              100.15124481                1.00000000               -0.00736219                0.06446215                0.00790379               -0.07083760               -0.10244062               -0.07240824
               7.85089936                7.88263040              100.15338618                1.00000000                0.00411231                0.00397532                0.00327772               -0.17764051               -0.03732360               -0.03826008
               8.85061082                7.87717893              100.15640195                1.00000000               -0.02732773                0.05457884                0.04481279               -0.17968281               -0.01695798               -0.02233651
               9.85035281                7.87235922              100.15982140                1.00000000               -0.02580151                0.02757208                0.01307909               -0.13397539               -0.02008312                0.08814900
              -0.14614139                8.91839644              100.09922842                1.00000000               -0.04780114               -0.01415243                0.07131432               -0.03096743                0.08313056               -0.07658689
               0.85338060                8.91371333              100.10873013                1.00000000                0.03734059               -0.04762527                0.20089219               -0.08101590               -0.06442973                0.02494407
               1.85460542                8.90797183              100.11536955                1.00000000               -0.00284352               -0.01666626                0.06902877                0.01595792                0.06096074                0.06515464
               2.85332373                8.90409167              100.11904642                1.00000000               -0.12131609               -0.00918478                0.11543859                0.06847679               -0.12262047               -0.01090766
               3.85217910                8.89999638              100.12613913                1.00000000               -0.09179038               -0.00176255                0.08516983                0.07352961                0.02108762               -0.01959743
               4.85148792                8.89579516              100.13482612                1.00000000               -0.01030856               -0.02240771                0.09439069                0.06542505                0.07077038               -0.04833691
               5.85197293                8.89166672              100.14375191                1.00000000                0.06798998                0.01421889                0.06040161               -0.19050260                0.05866149               -0.29149508
               6.85284772                8.88716766              100.15072916                1.00000000                0.08335244               -0.02100037                0.01324551               -0.16913296               -0.02273481               -0.07456113
               7.85363998                8.88233463              100.15598098                1.00000000                0.05387799               -0.02783310                0.04503019               -0.17839218               -0.02191020               -0.01757285
               8.85392528                8.87747453              100.16074841                1.00000000                0.00691600                0.00783626                0.05097191               -0.17748691                0.02705478                0.02569201
               9.85377830                8.87236429              100.16594913                1.00000000               -0.01469826               -0.07980777                0.09210011               -0.25753209                0.05080186                0.35296985
              -0.14139530                9.91828433              100.10132200                1.00000000               -0.02901936               -0.01121080                0.07635104               -0.04949495                0.04763182               -0.02751268
               0.85831450                9.91304330              100.11088093                1.00000000                0.03250666               -0.06700294                0.17340990               -0.02356659               -0.01315353               -0.02052798
               1.85925483                9.90794520              100.11876300                1.00000000               -0.04209005               -0.00266335                0.14011570                0.02030116                0.02793880                0.06325368
               2.85747270                9.90415051              100.12053878                1.00000000               -0.12447551                0.00588401                0.05893401                0.01810630               -0.24593710                0.00415276
               3.85676532                9.90000938              100.12732833                1.00000000               -0.07844411                0.00130024                0.05011201                0.02846443                0.01357492               -0.00213185
               4.85590382                9.89554736              100.13572114                1.00000000               -0.04506333               -0.02477951                0.05938616                0.00088876                0.04277734               -0.01374377
               5.85586405                9.89119536              100.14422477                1.00000000                0.02870926               -0.04713606                0.02032453               -0.05150972                0.05051355               -0.05732803
               6.85647800                9.88673492              100.15221258                1.00000000                0.05802974               -0.04327353               -0.01589253               -0.09305269                0.07318899               -0.04167801
               7.85702465                9.88207374              100.15899424                1.00000000                0.02767108               -0.02608924                0.01259273               -0.13149657                0.08720712               -0.02042411
               8.85703143                9.87733565              100.16549819                1.00000000               -0.08010007               -0.01388742                0.08804918               -0.25491929                0.35426698                0.04877565
               9.85542265                9.87076306              100.17739062                1.00000000               -0.16087805               -0.16012255                0.32311684               -0.49282446                0.37317208                0.37080626
         1          2         13         12        122        123        134        133  
         2          3         14         13        123        124        135        134  
         3          4         15         14        124        125        136        135  
         4          5         16         15        125        126        137        136  
         5          6         17         16        126        127        138        137  
         6          7         18         17        127        128        139        138  
         7          8         19         18        128        129        140        139  
         8          9         20         19        129        130        141        140  
         9         10         21         20        130        131        142        141  
        10         11         22         21        131        132        143        142  
        12         13         24         23        133        134        145        144  
        13         14         25         24        134        135        146        145  
        14         15         26         25        135        136        147        146  
        15         16         27         26        136        137        148        147  
        16         17         28         27        137        138        149        148  
        17         18         29         28        138        139        150        149  
        18         19         30         29        139        140        151        150  
        19         20         31         30        140        141        152        151  
        20         21         32         31        141        142        153        152  
        21         22         33         32        142        143        154        153  
        23         24         35         34        144        145        156        155  
        24         25         36         35        145        146        157        156  
        25         26         37         36        146        147        158        157  
        26         27         38         37        147        148        159        158  
        27         28         39         38        148        149        160        159  
        28         29         40         39        149        150        161        160  
        29         30         41         40        150        151        162        161  
        30         31         42         41        151        152        163        162  
        31         32         43         42        152        153        164        163  
        32         33         44         43        153        154        165        164  
        34         35         46         45        155        156        167        166  
        35         36         47         46        156        157        168        167  
        36         37         48         47        157        158        169        168  
        37         38         49         48        158        159        170        169  
        38         39         50         49        159        160        171        170  
        39         40         51         50        160        161        172        171  
        40         41         52         51        161        162        173        172  
        41         42         53         52        162        163        174        173  
        42         43         54         53        163        164        175        174  
        43         44         55         54        164        165        176        175  
        45         46         57         56        166        167        178        177  
        46         47         58         57        167        168        179        178  
        47         48         59         58        168        169        180        179  
        48         49         60         59        169        170        181        180  
        49         50         61         60        170        171        182        181  
        50         51         62         61        171        172        183        182  
        51         52         63         62        172        173        184        183  
        52         53         64         63        173        174        185        184  
        53         54         65         64        174        175        186        185  
        54         55         66         65        175        176        187        186  
        56         57         68         67        177        178        189        188  
        57         58         69         68        178        179        190        189  
        58         59         70         69        179        180        191        190  
        59         60         71         70        180        181        192        191  
        60         61         72         71        181        182        193        192  
        61         62         73         72        182        183        194        193  
        62         63         74         73        183        184        195        194  
        63         64         75         74        184        185        196        195  
        64         65         76         75        185        186        197        196  
        65         66         77         76        186        187        198        197  
        67         68         79         78        188        189        200        199  
        68         69         80         79        189        190        201        200  
        69         70         81         80        190        191        202        201  
        70         71         82         81        191        192        203        202  
        71         72         83         82        192        193        204        203  
        72         73         84         83        193        194        205        204  
        73         74         85         84        194        195        206        205  
        74         75         86         85        195        196        207        206  
        75         76         87         86        196        197        208        207  
        76         77         88         87        197        198        209        208  
        78         79         90         89        199        200        211        210  
        79         80         91         90        200        201        212        211  
        80         81         92         91        201        202        213        212  
        81         82         93         92        202        203        214        213  
        82         83         94         93        203        204        215        214  
        83         84         95         94        204        205        216        215  
        84         85         96         95        205        206        217        216  
        85         86         97         96        206        207        218        217  
        86         87         98         97        207        208        219        218  
        87         88         99         98        208        209        220        219  
        89         90        101        100        210        211        222        221  
        90         91        102        101        211        212        223        222  
        91         92        103        102        212        213        224        223  
        92         93        104        103        213        214        225        224  
        93         94        105        104        214        215        226        225  
        94         95        106        105        215        216        227        226  
        95         96        107        106        216        217        228        227  
        96         97        108        107        217        218        229        228  
        97         98        109        108        218        219        230        229  
        98         99        110        109        219        220        231        230  
       100        101        112        111        221        222        233        232  
       101        102        113        112        222        223        234        233  
       102        103        114        113        223        224        235        234  
       103        104        115        114        224        225        236        235  
       104        105        116        115        225        226        237        236  
       105        106        117        116        226        227        238        237  
       106        107        118        117        227        228        239        238  
       107        108        119        118        228        229        240        239  
       108        109        120        119        229        230        241        240  
       109        110        121        120        230        231        242        241  
       122        123        134        133        243        244        255        254  
       123        124        135        134        244        245        256        255  
       124        125        136        135        245        246        257        256  
       125        126        137        136        246        247        258        257  
       126        127        138        137        247        248        259        258  
       127        128        139        138        248        249        260        259  
       128        129        140        139        249        250        261        260  
       129        130        141        140        250        251        262        261  
       130        131        142        141        251        252        263        262  
       131        132        143        142        252        253        264        263  
       133        134        145        144        254        255        266        265  
       134        135        146        145        255        256        267        266  
       135        136        147        146        256        257        268        267  
       136        137        148        147        257        258        269        268  
       137        138        149        148        258        259        270        269  
       138        139        150        149        259        260        271        270  
       139        140        151        150        260        261        272        271  
       140        141        152        151        261        262        273        272  
       141        142        153        152        262        263        274        273  
       142        143        154        153        263        264        275        274  
       144        145        156        155        265        266        277        276  
       145        146        157        156        266        267        278        277  
       146        147        158        157        267        268        279        278  
       147        148        159        158        268        269        280        279  
       148        149        160        159        269        270        281        280  
       149        150        161        160        270        271        282        281  
       150        151        162        161        271        272        283        282  
       151        152        163        162        272        273        284        283  
       152        153        164        163        273        274        285        284  
       153        154        165        164        274        275        286        285  
       155        156        167        166        276        277        288        287  
       156        157        168        167        277        278        289        288  
       157        158        169        168        278        279        290        289  
       158        159        170        169        279        280        291        290  
       159        160        171        170        280        281        292        291  
       160        161        172        171        281        282        293        292  
       161        162        173        172        282        283        294        293  
       162        163        174        173        283        284        295        294  
       163        164        175        174        284        285        296        295  
       164        165        176        175        285        286        297        296  
       166        167        178        177        287        288        299        298  
       167        168        179        178        288        289        300        299  
       168        169        180        179        289        290        301        300  
       169        170        181        180        290        291        302        301  
       170        171        182        181        291        292        303        302  
       171        172        183        182        292        293        304        303  
       172        173        184        183        293        294        305        304  
       173        174        185        184        294        295        306        305  
       174        175        186        185        295        296        307        306  
       175        176        187        186        296        297        308        307  
       177        178        189        188        298        299        310        309  
       178        179        190        189        299        300        311        310  
       179        180        191        190        300        301        312        311  
       180        181        192        191        301        302        313        312  
       181        182        193        192        302        303        314        313  
       182        183        194        193        303        304        315        314  
       183        184        195        194        304        305        316        315  
       184        185        196        195        305        306        317        316  
       185        186        197        196        306        307        318        317  
       186        187        198        197        307        308        319        318  
       188        189        200        199        309        310        321        320  
       189        190        201        200        310        311        322        321  
       190        191        202        201        311        312        323        322  
       191        192        203        202        312        313        324        323  
       192        193        204        203        313        314        325        324  
       193        194        205        204        314        315        326        325  
       194        195        206        205        315        316        327        326  
       195        196        207        206        316        317        328        327  
       196        197        208        207        317        318        329        328  
       197        198        209        208        318        319        330        329  
       199        200        211        210        320        321        332        331  
       200        201        212        211        321        322        333        332  
       201        202        213        212        322        323        334        333  
       202        203        214        213        323        324        335        334  
       203        204        215        214        324        325        336        335  
       204        205        216        215        325        326        337        336  
       205        206        217        216        326        327        338        337  
       206        207        218        217        327        328        339        338  
       207        208        219        218        328        329        340        339  
       208        209        220        219        329        330        341        340  
       210        211        222        221        331        332        343        342  
       211        212        223        222        332        333        344        343  
       212        213        224        223        333        334        345        344  
       213        214        225        224        334        335        346        345  
       214        215        226        225        335        336        347        346  
       215        216        227        226        336        337        348        347  
       216        217        228        227        337        338        349        348  
       217        218        229        228        338        339        350        349  
       218        219        230        229        339        340        351        350  
       219        220        231        230        340        341        352        351  
       221        222        233        232        342        343        354        353  
       222        223        234        233        343        344        355        354  
       223        224        235        234        344        345        356        355  
       224        225        236        235        345        346        357        356  
       225        226        237        236        346        347        358        357  
       226        227        238        237        347        348        359        358  
       227        228        239        238        348        349        360        359  
       228        229        240        239        349        350        361        360  
       229        230        241        240        350        351        362        361  
       230        231        242        241        351        352        363        362  
       243        244        255        254        364        365        376        375  
       244        245        256        255        365        366        377        376  
       245        246        257        256        366        367        378        377  
       246        247        258        257        367        368        379        378  
       247        248        259        258        368        369        380        379  
       248        249        260        259        369        370        381        380  
       249        250        261        260        370        371        382        381  
       250        251        262        261        371        372        383        382  
       251        252        263        262        372        373        384        383  
       252        253        264        263        373        374        385        384  
       254        255        266        265        375        376        387        386  
       255        256        267        266        376        377        388        387  
       256        257        268        267        377        378        389        388  
       257        258        269        268        378        379        390        389  
       258        259        270        269        379        380        391        390  
       259        260        271        270        380        381        392        391  
       260        261        272        271        381        382        393        392  
       261        262        273        272        382        383        394        393  
       262        263        274        273        383        384        395        394  
       263        264        275        274        384        385        396        395  
       265        266        277        276        386        387        398        397  
       266        267        278        277        387        388        399        398  
       267        268        279        278        388        389        400        399  
       268        269        280        279        389        390        401        400  
       269        270        281        280        390        391        402        401  
       270        271        282        281        391        392        403        402  
       271        272        283        282        392        393        404        403  
       272        273        284        283        393        394        405        404  
       273        274        285        284        394        395        406        405  
       274        275        286        285        395        396        407        406  
       276        277        288        287        397        398        409        408  
       277        278        289        288        398        399        410        409  
       278        279        290        289        399        400        411        410  
       279        280        291        290        400        401        412        411  
       280        281        292        291        401        402        413        412  
       281        282        293        292        402        403        414        413  
       282        283        294        293        403        404        415        414  
       283        284        295        294        404        405        416        415  
       284        285        296        295        405        406        417        416  
       285        286        297        296        406        407        418        417  
       287        288        299        298        408        409        420        419  
       288        289        300        299        409        410        421        420  
       289        290        301        300        410        411        422        421  
       290        291        302        301        411        412        423        422  
       291        292        303        302        412        413        424        423  
       292        293        304        303        413        414        425        424  
       293        294        305        304        414        415        426        425  
       294        295        306        305        415        416        427        426  
       295        296        307        306        416        417        428        427  
       296        297        308        307        417        418        429        428  
       298        299        310        309        419        420        431        430  
       299        300        311        310        420        421        432        431  
       300        301        312        311        421        422        433        432  
       301        302        313        312        422        423        434        433  
       302        303        314        313        423        424        435        434  
       303        304        315        314        424        425        436        435  
       304        305        316        315        425        426        437        436  
       305        306        317        316        426        427        438        437  
       306        307        318        317        427        428        439        438  
       307        308        319        318        428        429        440        439  
       309        310        321        320        430        431        442        441  
       310        311        322        321        431        432        443        442  
       311        312        323        322        432        433        444        443  
       312        313        324        323        433        434        445        444  
       313        314        325        324        434        435        446        445  
       314        315        326        325        435        436        447        446  
       315        316        327        326        436        437        448        447  
       316        317        328        327        437        438        449        448  
       317        318        329        328        438        439        450        449  
       318        319        330        329        439        440        451        450  
       320        321        332        331        441        442        453        452  
       321        322        333        332        442        443        454        453  
       322        323        334        333        443        444        455        454  
       323        324        335        334        444        445        456        455  
       324        325        336        335        445        446        457        456  
       325        326        337        336        446        447        458        457  
       326        327        338        337        447        448        459        458  
       327        328        339        338        448        449        460        459  
       328        329        340        339        449        450        461        460  
       329        330        341        340        450        451        462        461  
       331        332        343        342        452        453        464        463  
       332        333        344        343        453        454        465        464  
       333        334        345        344        454        455        466        465  
       334        335        346        345        455        456        467        466  
       335        336        347        346        456        457        468        467  
       336        337        348        347        457        458        469        468  
       337        338        349        348        458        459        470        469  
       338        339        350        349        459        460        471        470  
       339        340        351        350        460        461        472        471  
       340        341        352        351        461        462        473        472  
       342        343        354        353        463        464        475        474  
       343        344        355        354        464        465        476        475  
       344        345        356        355        465        466        477        476  
       345        346        357        356        466        467        478        477  
       346        347        358        357        467        468        479        478  
       347        348        359        358        468        469        480        479  
       348        349        360        359        469        470        481        480  
       349        350        361        360        470        471        482        481  
       350        351        362        361        471        472        483        482  
       351        352        363        362        472        473        484        483  
       364        365        376        375        485        486        497        496  
       365        366        377        376        486        487        498        497  
       366        367        378        377        487        488        499        498  
       367        368        379        378        488        489        500        499  
       368        369        380        379        489        490        501        500  
       369        370        381        380        490        491        502        501  
       370        371        382        381        491        492        503        502  
       371        372        383        382        492        493        504        503  
       372        373        384        383        493        494        505        504  
       373        374        385        384        494        495        506        505  
       375        376        387        386        496        497        508        507  
       376        377        388        387        497        498        509        508  
       377        378        389        388        498        499        510        509  
       378        379        390        389        499        500        511        510  
       379        380        391        390        500        501        512        511  
       380        381        392        391        501        502        513        512  
       381        382        393        392        502        503        514        513  
       382        383        394        393        503        504        515        514  
       383        384        395        394        504        505        516        515  
       384        385        396        395        505        506        517        516  
       386        387        398        397        507        508        519        518  
       387        388        399        398        508        509        520        519  
       388        389        400        399        509        510        521        520  
       389        390        401        400        510        511        522        521  
       390        391        402        401        511        512        523        522  
       391        392        403        402        512        513        524        523  
       392        393        404        403        513        514        525        524  
       393        394        405        404        514        515        526        525  
       394        395        406        405        515        516        527        526  
       395        396        407        406        516        517        528        527  
       397        398        409        408        518        519        530        529  
       398        399        410        409        519        520        531        530  
       399        400        411        410        520        521        532        531  
       400        401        412        411        521        522        533        532  
       401        402        413        412        522        523        534        533  
       402        403        414        413        523        524        535        534  
       403        404        415        414        524        525        536        535  
       404        405        416        415        525        526        537        536  
       405        406        417        416        526        527        538        537  
       406        407        418        417        527        528        539        538  
       408        409        420        419        529        530        541        540  
       409        410        421        420        530        531        542        541  
       410        411        422        421        531        532        543        542  
       411        412        423        422        532        533        544        543  
       412        413        424        423        533        534        545        544  
       413        414        425        424        534        535        546        545  
       414        415        426        425        535        536        547        546  
       415        416        427        426        536        537        548        547  
       416        417        428        427        537        538        549        548  
       417        418        429        428        538        539        550        549  
       419        420        431        430        540        541        552        551  
       420        421        432        431        541        542        553        552  
       421        422        433        432        542        543        554        553  
       422        423        434        433        543        544        555        554  
       423        424        435        434        544        545        556        555  
       424        425        436        435        545        546        557        556  
       425        426        437        436        546        547        558        557  
       426        427        438        437        547        548        559        558  
       427        428        439        438        548        549        560        559  
       428        429        440        439        549        550        561        560  
       430        431        442        441        551        552        563        562  
       431        432        443        442        552        553        564        563  
       432        433        444        443        553        554        565        564  
       433        434        445        444        554        555        566        565  
       434        435        446        445        555        556        567        566  
       435        436        447        446        556        557        568        567  
       436        437        448        447        557        558        569        568  
       437        438        449        448        558        559        570        569  
       438        439        450        449        559        560        571        570  
       439        440        451        450        560        561        572        571  
       441        442        453        452        562        563        574        573  
       442        443        454        453        563        564        575        574  
       443        444        455        454        564        565        576        575  
       444        445        456        455        565        566        577        576  
       445        446        457        456        566        567        578        577  
       446        447        458        457        567        568        579        578  
       447        448        459        458        568        569        580        579  
       448        449        460        459        569        570        581        580  
       449        450        461        460        570        571        582        581  
       450        451        462        461        571        572        583        582  
       452        453        464        463        573        574        585        584  
       453        454        465        464        574        575        586        585  
       454        455        466        465        575        576        587        586  
       455        456        467        466        576        577        588        587  
       456        457        468        467        577        578        589        588  
       457        458        469        468        578        579        590        589  
       458        459        470        469        579        580        591        590  
       459        460        471        470        580        581        592        591  
       460        461        472        471        581        582        593        592  
       461        462        473        472        582        583        594        593  
       463        464        475        474        584        585        596        595  
       464        465        476        475        585        586        597        596  
       465        466        477        476        586        587        598        597  
       466        467        478        477        587        588        599        598  
       467        468        479        478        588        589        600        599  
       468        469        480        479        589        590        601        600  
       469        470        481        480        590        591        602        601  
       470        471        482        481        591        592        603        602  
       471        472        483        482        592        593        604        603  
       472        473        484        483        593        594        605        604  
       485        486        497        496        606        607        618        617  
       486        487        498        497        607        608        619        618  
       487        488        499        498        608        609        620        619  
       488        489        500        499        609        610        621        620  
       489        490        501        500        610        611        622        621  
       490        491        502        501        611        612        623        622  
       491        492        503        502        612        613        624        623  
       492        493        504        503        613        614        625        624  
       493        494        505        504        614        615        626        625  
       494        495        506        505        615        616        627        626  
       496        497        508        507        617        618        629        628  
       497        498        509        508        618        619        630        629  
       498        499        510        509        619        620        631        630  
       499        500        511        510        620        621        632        631  
       500        501        512        511        621        622        633        632  
       501        502        513        512        622        623        634        633  
       502        503        514        513        623        624        635        634  
       503        504        515        514        624        625        636        635  
       504        505        516        515        625        626        637        636  
       505        506        517        516        626        627        638        637  
       507        508        519        518        628        629        640        639  
       508        509        520        519        629        630        641        640  
       509        510        521        520        630        631        642        641  
       510        511        522        521        631        632        643        642  
       511        512        523        522        632        633        644        643  
       512        513        524        523        633        634        645        644  
       513        514        525        524        634        635        646        645  
       514        515        526        525        635        636        647        646  
       515        516        527        526        636        637        648        647  
       516        517        528        527        637        638        649        648  
       518        519        530        529        639        640        651        650  
       519        520        531        530        640        641        652        651  
       520        521        532        531        641        642        653        652  
       521        522        533        532        642        643        654        653  
       522        523        534        533        643        644        655        654  
       523        524        535        534        644        645        656        655  
       524        525        536        535        645        646        657        656  
       525        526        537        536        646        647        658        657  
       526        527        538        537        647        648        659        658  
       527        528        539        538        648        649        660        659  
       529        530        541        540        650        651        662        661  
       530        531        542        541        651        652        663        662  
       531        532        543        542        652        653        664        663  
       532        533        544        543        653        654        665        664  
       533        534        545        544        654        655        666        665  
       534        535        546        545        655        656        667        666  
       535        536        547        546        656        657        668        667  
       536        537        548        547        657        658        669        668  
       537        538        549        548        658        659        670        669  
       538        539        550        549        659        660        671        670  
       540        541        552        551        661        662        673        672  
       541        542        553        552        662        663        674        673  
       542        543        554        553        663        664        675        674  
       543        544        555        554        664        665        676        675  
       544        545        556        555        665        666        677        676  
       545        546        557        556        666        667        678        677  
       546        547        558        557        667        668        679        678  
       547        548        559        558        668        669        680        679  
       548        549        560        559        669        670        681        680  
       549        550        561        560        670        671        682        681  
       551        552        563        562        672        673        684        683  
       552        553        564        563        673        674        685        684  
       553        554        565        564        674        675        686        685  
       554        555        566        565        675        676        687        686  
       555        556        567        566        676        677        688        687  
       556        557        568        567        677        678        689        688  
       557        558        569        568        678        679        690        689  
       558        559        570        569        679        680        691        690  
       559        560        571        570        680        681        692        691  
       560        561        572        571        681        682        693        692  
       562        563        574        573        683        684        695        694  
       563        564        575        574        684        685        696        695  
       564        565        576        575        685        686        697        696  
       565        566        577        576        686        687        698        697  
       566        567        578        577        687        688        699        698  
       567        568        579        578        688        689        700        699  
       568        569        580        579        689        690        701        700  
       569        570        581        580        690        691        702        701  
       570        571        582        581        691        692        703        702  
       571        572        583        582        692        693        704        703  
       573        574        585        584        694        695        706        705  
       574        575        586        585        695        696        707        706  
       575        576        587        586        696        697        708        707  
       576        577        588        587        697        698        709        708  
       577        578        589        588        698        699        710        709  
       578        579        590        589        699        700        711        710  
       579        580        591        590        700        701        712        711  
       580        581        592        591        701        702        713        712  
       581        582        593        592        702        703        714        713  
       582        583        594        593        703        704        715        714  
       584        585        596        595        705        706        717        716  
       585        586        597        596        706        707        718        717  
       586        587        598        597        707        708        719        718  
       587        588        599        598        708        709        720        719  
       588        589        600        599        709        710        721        720  
       589        590        601        600        710        711        722        721  
       590        591        602        601        711        712        723        722  
       591        592        603        602        712        713        724        723  
       592        593        604        603        713        714        725        724  
       593        594        605        604        714        715        726        725  
       606        607        618        617        727        728        739        738  
       607        608        619        618        728        729        740        739  
       608        609        620        619        729        730        741        740  
       609        610        621        620        730        731        742        741  
       610        611        622        621        731        732        743        742  
       611        612        623        622        732        733        744        743  
       612        613        624        623        733        734        745        744  
       613        614        625        624        734        735        746        745  
       614        615        626        625        735        736        747        746  
       615        616        627        626        736        737        748        747  
       617        618        629        628        738        739        750        749  
       618        619        630        629        739        740        751        750  
       619        620        631        630        740        741        752        751  
       620        621        632        631        741        742        753        752  
       621        622        633        632        742        743        754        753  
       622        623        634        633        743        744        755        754  
       623        624        635        634        744        745        756        755  
       624        625        636        635        745        746        757        756  
       625        626        637        636        746        747        758        757  
       626        627        638        637        747        748        759        758  
       628        629        640        639        749        750        761        760  
       629        630        641        640        750        751        762        761  
       630        631        642        641        751        752        763        762  
       631        632        643        642        752        753        764        763  
       632        633        644        643        753        754        765        764  
       633        634        645        644        754        755        766        765  
       634        635        646        645        755        756        767        766  
       635        636        647        646        756        757        768        767  
       636        637        648        647        757        758        769        768  
       637        638        649        648        758        759        770        769  
       639        640        651        650        760        761        772        771  
       640        641        652        651        761        762        773        772  
       641        642        653        652        762        763        774        773  
       642        643        654        653        763        764        775        774  
       643        644        655        654        764        765        776        775  
       644        645        656        655        765        766        777        776  
       645        646        657        656        766        767        778        777  
       646        647        658        657        767        768        779        778  
       647        648        659        658        768        769        780        779  
       648        649        660        659        769        770        781        780  
       650        651        662        661        771        772        783        782  
       651        652        663        662        772        773        784        783  
       652        653        664        663        773        774        785        784  
       653        654        665        664        774        775        786        785  
       654        655        666        665        775        776        787        786  
       655        656        667        666        776        777        788        787  
       656        657        668        667        777        778        789        788  
       657        658        669        668        778        779        790        789  
       658        659        670        669        779        780        791        790  
       659        660        671        670        780        781        792        791  
       661        662        673        672        782        783        794        793  
       662        663        674        673        783        784        795        794  
       663        664        675        674        784        785        796        795  
       664        665        676        675        785        786        797        796  
       665        666        677        676        786        787        798        797  
       666        667        678        677        787        788        799        798  
       667        668        679        678        788        789        800        799  
       668        669        680        679        789        790        801        800  
       669        670        681        680        790        791        802        801  
       670        671        682        681        791        792        803        802  
       672        673        684        683        793        794        805        804  
       673        674        685        684        794        795        806        805  
       674        675        686        685        795        796        807        806  
       675        676        687        686        796        797        808        807  
       676        677        688        687        797        798        809        808  
       677        678        689        688        798        799        810        809  
       678        679        690        689        799        800        811        810  
       679        680        691        690        800        801        812        811  
       680        681        692        691        801        802        813        812  
       681        682        693        692        802        803        814        813  
       683        684        695        694        804        805        816        815  
       684        685        696        695        805        806        817        816  
       685        686        697        696        806        807        818        817  
       686        687        698        697        807        808        819        818  
       687        688        699        698        808        809        820        819  
       688        689        700        699        809        810        821        820  
       689        690        701        700        810        811        822        821  
       690        691        702        701        811        812        823        822  
       691        692        703        702        812        813        824        823  
       692        693        704        703        813        814        825        824  
       694        695        706        705        815        816        827        826  
       695        696        707        706        816        817        828        827  
       696        697        708        707        817        818        829        828  
       697        698        709        708        818        819        830        829  
       698        699        710        709        819        820        831        830  
       699        700        711        710        820        821        832        831  
       700        701        712        711        821        822        833        832  
       701        702        713        712        822        823        834        833  
       702        703        714        713        823        824        835        834  
       703        704        715        714        824        825        836        835  
       705        706        717        716        826        827        838        837  
       706        707        718        717        827        828        839        838  
       707        708        719        718        828        829        840        839  
       708        709        720        719        829        830        841        840  
       709        710        721        720        830        831        842        841  
       710        711        722        721        831        832        843        842  
       711        712        723        722        832        833        844        843  
       712        713        724        723        833        834        845        844  
       713        714        725        724        834        835        846        845  
       714        715        726        725        835        836        847        846  
       727        728        739        738        848        849        860        859  
       728        729        740        739        849        850        861        860  
       729        730        741        740        850        851        862        861  
       730        731        742        741        851        852        863        862  
       731        732        743        742        852        853        864        863  
       732        733        744        743        853        854        865        864  
       733        734        745        744        854        855        866        865  
       734        735        746        745        855        856        867        866  
       735        736        747        746        856        857        868        867  
       736        737        748        747        857        858        869        868  
       738        739        750        749        859        860        871        870  
       739        740        751        750        860        861        872        871  
       740        741        752        751        861        862        873        872  
       741        742        753        752        862        863        874        873  
       742        743        754        753        863        864        875        874  
       743        744        755        754        864        865        876        875  
       744        745        756        755        865        866        877        876  
       745        746        757        756        866        867        878        877  
       746        747        758        757        867        868        879        878  
       747        748        759        758        868        869        880        879  
       749        750        761        760        870        871        882        881  
       750        751        762        761        871        872        883        882  
       751        752        763        762        872        873        884        883  
       752        753        764        763        873        874        885        884  
       753        754        765        764        874        875        886        885  
       754        755        766        765        875        876        887        886  
       755        756        767        766        876        877        888        887  
       756        757        768        767        877        878        889        888  
       757        758        769        768        878        879        890        889  
       758        759        770        769        879        880        891        890  
       760        761        772        771        881        882        893        892  
       761        762        773        772        882        883        894        893  
       762        763        774        773        883        884        895        894  
       763        764        775        774        884        885        896        895  
       764        765        776        775        885        886        897        896  
       765        766        777        776        886        887        898        897  
       766        767        778        777        887        888        899        898  
       767        768        779        778        888        889        900        899  
       768        769        780        779        889        890        901        900  
       769        770        781        780        890        891        902        901  
       771        772        783        782        892        893        904        903  
       772        773        784        783        893        894        905        904  
       773        774        785        784        894        895        906        905  
       774        775        786        785        895        896        907        906  
       775        776        787        786        896        897        908        907  
       776        777        788        787        897        898        909        908  
       777        778        789        788        898        899        910        909  
       778        779        790        789        899        900        911        910  
       779        780        791        790        900        901        912        911  
       780        781        792        791        901        902        913        912  
       782        783        794        793        903        904        915        914  
       783        784        795        794        904        905        916        915  
       784        785        796        795        905        906        917        916  
       785        786        797        796        906        907        918        917  
       786        787        798        797        907        908        919        918  
       787        788        799        798        908        909        920        919  
       788        789        800        799        909        910        921        920  
       789        790        801        800        910        911        922        921  
       790        791        802        801        911        912        923        922  
       791        792        803        802        912        913        924        923  
       793        794        805        804        914        915        926        925  
       794        795        806        805        915        916        927        926  
       795        796        807        806        916        917        928        927  
       796        797        808        807        917        918        929        928  
       797        798        809        808        918        919        930        929  
       798        799        810        809        919        920        931        930  
       799        800        811        810        920        921        932        931  
       800        801        812        811        921        922        933        932  
       801        802        813        812        922        923        934        933  
       802        803        814        813        923        924        935        934  
       804        805        816        815        925        926        937        936  
       805        806        817        816        926        927        938        937  
       806        807        818        817        927        928        939        938  
       807        808        819        818        928        929        940        939  
       808        809        820        819        929        930        941        940  
       809        810        821        820        930        931        942        941  
       810        811        822        821        931        932        943        942  
       811        812        823        822        932        933        944        943  
       812        813        824        823        933        934        945        944  
       813        814        825        824        934        935        946        945  
       815        816        827        826        936        937        948        947  
       816        817        828        827        937        938        949        948  
       817        818        829        828        938        939        950        949  
       818        819        830        829        939        940        951        950  
       819        820        831        830        940        941        952        951  
       820        821        832        831        941        942        953        952  
       821        822        833        832        942        943        954        953  
       822        823        834        833        943        944        955        954  
       823        824        835        834        944        945        956        955  
       824        825        836        835        945        946        957        956  
       826        827        838        837        947        948        959        958  
       827        828        839        838        948        949        960        959  
       828        829        840        839        949        950        961        960  
       829        830        841        840        950        951        962        961  
       830        831        842        841        951        952        963        962  
       831        832        843        842        952        953        964        963  
       832        833        844        843        953        954        965        964  
       833        834        845        844        954        955        966        965  
       834        835        846        845        955        956        967        966  
       835        836        847        846        956        957        968        967  
       848        849        860        859        969        970        981        980  
       849        850        861        860        970        971        982        981  
       850        851        862        861        971        972        983        982  
       851        852        863        862        972        973        984        983  
       852        853        864        863        973        974        985        984  
       853        854        865        864        974        975        986        985  
       854        855        866        865        975        976        987        986  
       855        856        867        866        976        977        988        987  
       856        857        868        867        977        978        989        988  
       857        858        869        868        978        979        990        989  
       859        860        871        870        980        981        992        991  
       860        861        872        871        981        982        993        992  
       861        862        873        872        982        983        994        993  
       862        863        874        873        983        984        995        994  
       863        864        875        874        984        985        996        995  
       864        865        876        875        985        986        997        996  
       865        866        877        876        986        987        998        997  
       866        867        878        877        987        988        999        998  
       867        868        879        878        988        989       1000        999  
       868        869        880        879        989        990       1001       1000  
       870        871        882        881        991        992       1003       1002  
       871        872        883        882        992        993       1004       1003  
       872        873        884        883        993        994       1005       1004  
       873        874        885        884        994        995       1006       1005  
       874        875        886        885        995        996       1007       1006  
       875        876        887        886        996        997       1008       1007  
       876        877        888        887        997        998       1009       1008  
       877        878        889        888        998        999       1010       1009  
       878        879        890        889        999       1000       1011       1010  
       879        880        891        890       1000       1001       1012       1011  
       881        882        893        892       1002       1003       1014       1013  
       882        883        894        893       1003       1004       1015       1014  
       883        884        895        894       1004       1005       1016       1015  
       884        885        896        895       1005       1006       1017       1016  
       885        886        897        896       1006       1007       1018       1017  
       886        887        898        897       1007       1008       1019       1018  
       887        888        899        898       1008       1009       1020       1019  
       888        889        900        899       1009       1010       1021       1020  
       889        890        901        900       1010       1011       1022       1021  
       890        891        902        901       1011       1012       1023       1022  
       892        893        904        903       1013       1014       1025       1024  
       893        894        905        904       1014       1015       1026       1025  
       894        895        906        905       1015       1016       1027       1026  
       895        896        907        906       1016       1017       1028       1027  
       896        897        908        907       1017       1018       1029       1028  
       897        898        909        908       1018       1019       1030       1029  
       898        899        910        909       1019       1020       1031       1030  
       899        900        911        910       1020       1021       1032       1031  
       900        901        912        911       1021       1022       1033       1032  
       901        902        913        912       1022       1023       1034       1033  
       903        904        915        914       1024       1025       1036       1035  
       904        905        916        915       1025       1026       1037       1036  
       905        906        917        916       1026       1027       1038       1037  
       906        907        918        917       1027       1028       1039       1038  
       907        908        919        918       1028       1029       1040       1039  
       908        909        920        919       1029       1030       1041       1040  
       909        910        921        920       1030       1031       1042       1041  
       910        911        922        921       1031       1032       1043       1042  
       911        912        923        922       1032       1033       1044       1043  
       912        913        924        923       1033       1034       1045       1044  
       914        915        926        925       1035       1036       1047       1046  
       915        916        927        926       1036       1037       1048       1047  
       916        917        928        927       1037       1038       1049       1048  
       917        918        929        928       1038       1039       1050       1049  
       918        919        930        929       1039       1040       1051       1050  
       919        920        931        930       1040       1041       1052       1051  
       920        921        932        931       1041       1042       1053       1052  
       921        922        933        932       1042       1043       1054       1053  
       922        923        934        933       1043       1044       1055       1054  
       923        924        935        934       1044       1045       1056       1055  
       925        926        937        936       1046       1047       1058       1057  
       926        927        938        937       1047       1048       1059       1058  
       927        928        939        938       1048       1049       1060       1059  
       928        929        940        939       1049       1050       1061       1060  
       929        930        941        940       1050       1051       1062       1061  
       930        931        942        941       1051       1052       1063       1062  
       931        932        943        942       1052       1053       1064       1063  
       932        933        944        943       1053       1054       1065       1064  
       933        934        945        944       1054       1055       1066       1065  
       934        935        946        945       1055       1056       1067       1066  
       936        937        948        947       1057       1058       1069       1068  
       937        938        949        948       1058       1059       1070       1069  
       938        939        950        949       1059       1060       1071       1070  
       939        940        951        950       1060       1061       1072       1071  
       940        941        952        951       1061       1062       1073       1072  
       941        942        953        952       1062       1063       1074       1073  
       942        943        954        953       1063       1064       1075       1074  
       943        944        955        954       1064       1065       1076       1075  
       944        945        956        955       1065       1066       1077       1076  
       945        946        957        956       1066       1067       1078       1077  
       947        948        959        958       1068       1069       1080       1079  
       948        949        960        959       1069       1070       1081       1080  
       949        950        961        960       1070       1071       1082       1081  
       950        951        962        961       1071       1072       1083       1082  
       951        952        963        962       1072       1073       1084       1083  
       952        953        964        963       1073       1074       1085       1084  
       953        954        965        964       1074       1075       1086       1085  
       954        955        966        965       1075       1076       1087       1086  
       955        956        967        966       1076       1077       1088       1087  
       956        957        968        967       1077       1078       1089       1088  
       969        970        981        980       1090       1091       1102       1101  
       970        971        982        981       1091       1092       1103       1102  
       971        972        983        982       1092       1093       1104       1103  
       972        973        984        983       1093       1094       1105       1104  
       973        974        985        984       1094       1095       1106       1105  
       974        975        986        985       1095       1096       1107       1106  
       975        976        987        986       1096       1097       1108       1107  
       976        977        988        987       1097       1098       1109       1108  
       977        978        989        988       1098       1099       1110       1109  
       978        979        990        989       1099       1100       1111       1110  
       980        981        992        991       1101       1102       1113       1112  
       981        982        993        992       1102       1103       1114       1113  
       982        983        994        993       1103       1104       1115       1114  
       983        984        995        994       1104       1105       1116       1115  
       984        985        996        995       1105       1106       1117       1116  
       985        986        997        996       1106       1107       1118       1117  
       986        987        998        997       1107       1108       1119       1118  
       987        988        999        998       1108       1109       1120       1119  
       988        989       1000        999       1109       1110       1121       1120  
       989        990       1001       1000       1110       1111       1122       1121  
       991        992       1003       1002       1112       1113       1124       1123  
       992        993       1004       1003       1113       1114       1125       1124  
       993        994       1005       1004       1114       1115       1126       1125  
       994        995       1006       1005       1115       1116       1127       1126  
       995        996       1007       1006       1116       1117       1128       1127  
       996        997       1008       1007       1117       1118       1129       1128  
       997        998       1009       1008       1118       1119       1130       1129  
       998        999       1010       1009       1119       1120       1131       1130  
       999       1000       1011       1010       1120       1121       1132       1131  
      1000       1001       1012       1011       1121       1122       1133       1132  
      1002       1003       1014       1013       1123       1124       1135       1134  
      1003       1004       1015       1014       1124       1125       1136       1135  
      1004       1005       1016       1015       1125       1126       1137       1136  
      1005       1006       1017       1016       1126       1127       1138       1137  
      1006       1007       1018       1017       1127       1128       1139       1138  
      1007       1008       1019       1018       1128       1129       1140       1139  
      1008       1009       1020       1019       1129       1130       1141       1140  
      1009       1010       1021       1020       1130       1131       1142       1141  
      1010       1011       1022       1021       1131       1132       1143       1142  
      1011       1012       1023       1022       1132       1133       1144       1143  
      1013       1014       1025       1024       1134       1135       1146       1145  
      1014       1015       1026       1025       1135       1136       1147       1146  
      1015       1016       1027       1026       1136       1137       1148       1147  
      1016       1017       1028       1027       1137       1138       1149       1148  
      1017       1018       1029       1028       1138       1139       1150       1149  
      1018       1019       1030       1029       1139       1140       1151       1150  
      1019       1020       1031       1030       1140       1141       1152       1151  
      1020       1021       1032       1031       1141       1142       1153       1152  
      1021       1022       1033       1032       1142       1143       1154       1153  
      1022       1023       1034       1033       1143       1144       1155       1154  
      1024       1025       1036       1035       1145       1146       1157       1156  
      1025       1026       1037       1036       1146       1147       1158       1157  
      1026       1027       1038       1037       1147       1148       1159       1158  
      1027       1028       1039       1038       1148       1149       1160       1159  
      1028       1029       1040       1039       1149       1150       1161       1160  
      1029       1030       1041       1040       1150       1151       1162       1161  
      1030       1031       1042       1041       1151       1152       1163       1162  
      1031       1032       1043       1042       1152       1153       1164       1163  
      1032       1033       1044       1043       1153       1154       1165       1164  
      1033       1034       1045       1044       1154       1155       1166       1165  
      1035       1036       1047       1046       1156       1157       1168       1167  
      1036       1037       1048       1047       1157       1158       1169       1168  
      1037       1038       1049       1048       1158       1159       1170       1169  
      1038       1039       1050       1049       1159       1160       1171       1170  
      1039       1040       1051       1050       1160       1161       1172       1171  
      1040       1041       1052       1051       1161       1162       1173       1172  
      1041       1042       1053       1052       1162       1163       1174       1173  
      1042       1043       1054       1053       1163       1164       1175       1174  
      1043       1044       1055       1054       1164       1165       1176       1175  
      1044       1045       1056       1055       1165       1166       1177       1176  
      1046       1047       1058       1057       1167       1168       1179       1178  
      1047       1048       1059       1058       1168       1169       1180       1179  
      1048       1049       1060       1059       1169       1170       1181       1180  
      1049       1050       1061       1060       1170       1171       1182       1181  
      1050       1051       1062       1061       1171       1172       1183       1182  
      1051       1052       1063       1062       1172       1173       1184       1183  
      1052       1053       1064       1063       1173       1174       1185       1184  
      1053       1054       1065       1064       1174       1175       1186       1185  
      1054       1055       1066       1065       1175       1176       1187       1186  
      1055       1056       1067       1066       1176       1177       1188       1187  
      1057       1058       1069       1068       1178       1179       1190       1189  
      1058       1059       1070       1069       1179       1180       1191       1190  
      1059       1060       1071       1070       1180       1181       1192       1191  
      1060       1061       1072       1071       1181       1182       1193       1192  
      1061       1062       1073       1072       1182       1183       1194       1193  
      1062       1063       1074       1073       1183       1184       1195       1194  
      1063       1064       1075       1074       1184       1185       1196       1195  
      1064       1065       1076       1075       1185       1186       1197       1196  
      1065       1066       1077       1076       1186       1187       1198       1197  
      1066       1067       1078       1077       1187       1188       1199       1198  
      1068       1069       1080       1079       1189       1190       1201       1200  
      1069       1070       1081       1080       1190       1191       1202       1201  
      1070       1071       1082       1081       1191       1192       1203       1202  
      1071       1072       1083       1082       1192       1193       1204       1203  
      1072       1073       1084       1083       1193       1194       1205       1204  
      1073       1074       1085       1084       1194       1195       1206       1205  
      1074       1075       1086       1085       1195       1196       1207       1206  
      1075       1076       1087       1086       1196       1197       1208       1207  
      1076       1077       1088       1087       1197       1198       1209       1208  
      1077       1078       1089       1088       1198       1199       1210       1209  
      1090       1091       1102       1101       1211       1212       1223       1222  
      1091       1092       1103       1102       1212       1213       1224       1223  
      1092       1093       1104       1103       1213       1214       1225       1224  
      1093       1094       1105       1104       1214       1215       1226       1225  
      1094       1095       1106       1105       1215       1216       1227       1226  
      1095       1096       1107       1106       1216       1217       1228       1227  
      1096       1097       1108       1107       1217       1218       1229       1228  
      1097       1098       1109       1108       1218       1219       1230       1229  
      1098       1099       1110       1109       1219       1220       1231       1230  
      1099       1100       1111       1110       1220       1221       1232       1231  
      1101       1102       1113       1112       1222       1223       1234       1233  
      1102       1103       1114       1113       1223       1224       1235       1234  
      1103       1104       1115       1114       1224       1225       1236       1235  
      1104       1105       1116       1115       1225       1226       1237       1236  
      1105       1106       1117       1116       1226       1227       1238       1237  
      1106       1107       1118       1117       1227       1228       1239       1238  
      1107       1108       1119       1118       1228       1229       1240       1239  
      1108       1109       1120       1119       1229       1230       1241       1240  
      1109       1110       1121       1120       1230       1231       1242       1241  
      1110       1111       1122       1121       1231       1232       1243       1242  
      1112       1113       1124       1123       1233       1234       1245       1244  
      1113       1114       1125       1124       1234       1235       1246       1245  
      1114       1115       1126       1125       1235       1236       1247       1246  
      1115       1116       1127       1126       1236       1237       1248       1247  
      1116       1117       1128       1127       1237       1238       1249       1248  
      1117       1118       1129       1128       1238       1239       1250       1249  
      1118       1119       1130       1129       1239       1240       1251       1250  
      1119       1120       1131       1130       1240       1241       1252       1251  
      1120       1121       1132       1131       1241       1242       1253       1252  
      1121       1122       1133       1132       1242       1243       1254       1253  
      1123       1124       1135       1134       1244       1245       1256       1255  
      1124       1125       1136       1135       1245       1246       1257       1256  
      1125       1126       1137       1136       1246       1247       1258       1257  
      1126       1127       1138       1137       1247       1248       1259       1258  
      1127       1128       1139       1138       1248       1249       1260       1259  
      1128       1129       1140       1139       1249       1250       1261       1260  
      1129       1130       1141       1140       1250       1251       1262       1261  
      1130       1131       1142       1141       1251       1252       1263       1262  
      1131       1132       1143       1142       1252       1253       1264       1263  
      1132       1133       1144       1143       1253       1254       1265       1264  
      1134       1135       1146       1145       1255       1256       1267       1266  
      1135       1136       1147       1146       1256       1257       1268       1267  
      1136       1137       1148       1147       1257       1258       1269       1268  
      1137       1138       1149       1148       1258       1259       1270       1269  
      1138       1139       1150       1149       1259       1260       1271       1270  
      1139       1140       1151       1150       1260       1261       1272       1271  
      1140       1141       1152       1151       1261       1262       1273       1272  
      1141       1142       1153       1152       1262       1263       1274       1273  
      1142       1143       1154       1153       1263       1264       1275       1274  
      1143       1144       1155       1154       1264       1265       1276       1275  
      1145       1146       1157       1156       1266       1267       1278       1277  
      1146       1147       1158       1157       1267       1268       1279       1278  
      1147       1148       1159       1158       1268       1269       1280       1279  
      1148       1149       1160       1159       1269       1270       1281       1280  
      1149       1150       1161       1160       1270       1271       1282       1281  
      1150       1151       1162       1161       1271       1272       1283       1282  
      1151       1152       1163       1162       1272       1273       1284       1283  
      1152       1153       1164       1163       1273       1274       1285       1284  
      1153       1154       1165       1164       1274       1275       1286       1285  
      1154       1155       1166       1165       1275       1276       1287       1286  
      1156       1157       1168       1167       1277       1278       1289       1288  
      1157       1158       1169       1168       1278       1279       1290       1289  
      1158       1159       1170       1169       1279       1280       1291       1290  
      1159       1160       1171       1170       1280       1281       1292       1291  
      1160       1161       1172       1171       1281       1282       1293       1292  
      1161       1162       1173       1172       1282       1283       1294       1293  
      1162       1163       1174       1173       1283       1284       1295       1294  
      1163       1164       1175       1174       1284       1285       1296       1295  
      1164       1165       1176       1175       1285       1286       1297       1296  
      1165       1166       1177       1176       1286       1287       1298       1297  
      1167       1168       1179       1178       1288       1289       1300       1299  
      1168       1169       1180       1179       1289       1290       1301       1300  
      1169       1170       1181       1180       1290       1291       1302       1301  
      1170       1171       1182       1181       1291       1292       1303       1302  
      1171       1172       1183       1182       1292       1293       1304       1303  
      1172       1173       1184       1183       1293       1294       1305       1304  
      1173       1174       1185       1184       1294       1295       1306       1305  
      1174       1175       1186       1185       1295       1296       1307       1306  
      1175       1176       1187       1186       1296       1297       1308       1307  
      1176       1177       1188       1187       1297       1298       1309       1308  
      1178       1179       1190       1189       1299       1300       1311       1310  
      1179       1180       1191       1190       1300       1301       1312       1311  
      1180       1181       1192       1191       1301       1302       1313       1312  
      1181       1182       1193       1192       1302       1303       1314       1313  
      1182       1183       1194       1193       1303       1304       1315       1314  
      1183       1184       1195       1194       1304       1305       1316       1315  
      1184       1185       1196       1195       1305       1306       1317       1316  
      1185       1186       1197       1196       1306       1307       1318       1317  
      1186       1187       1198       1197       1307       1308       1319       1318  
      1187       1188       1199       1198       1308       1309       1320       1319  
      1189       1190       1201       1200       1310       1311       1322       1321  
      1190       1191       1202       1201       1311       1312       1323       1322  
      1191       1192       1203       1202       1312       1313       1324       1323  
      1192       1193       1204       1203       1313       1314       1325       1324  
      1193       1194       1205       1204       1314       1315       1326       1325  
      1194       1195       1206       1205       1315       1316       1327       1326  
      1195       1196       1207       1206       1316       1317       1328       1327  
      1196       1197       1208       1207       1317       1318       1329       1328  
      1197       1198       1209       1208       1318       1319       1330       1329  
      1198       1199       1210       1209       1319       1320       1331       1330  
      1211       1212       1223       1222       1332       1333       1344       1343  
      1212       1213       1224       1223       1333       1334       1345       1344  
      1213       1214       1225       1224       1334       1335       1346       1345  
      1214       1215       1226       1225       1335       1336       1347       1346  
      1215       1216       1227       1226       1336       1337       1348       1347  
      1216       1217       1228       1227       1337       1338       1349       1348  
      1217       1218       1229       1228       1338       1339       1350       1349  
      1218       1219       1230       1229       1339       1340       1351       1350  
      1219       1220       1231       1230       1340       1341       1352       1351  
      1220       1221       1232       1231       1341       1342       1353       1352  
      1222       1223       1234       1233       1343       1344       1355       1354  
      1223       1224       1235       1234       1344       1345       1356       1355  
      1224       1225       1236       1235       1345       1346       1357       1356  
      1225       1226       1237       1236       1346       1347       1358       1357  
      1226       1227       1238       1237       1347       1348       1359       1358  
      1227       1228       1239       1238       1348       1349       1360       1359  
      1228       1229       1240       1239       1349       1350       1361       1360  
      1229       1230       1241       1240       1350       1351       1362       1361  
      1230       1231       1242       1241       1351       1352       1363       1362  
      1231       1232       1243       1242       1352       1353       1364       1363  
      1233       1234       1245       1244       1354       1355       1366       1365  
      1234       1235       1246       1245       1355       1356       1367       1366  
      1235       1236       1247       1246       1356       1357       1368       1367  
      1236       1237       1248       1247       1357       1358       1369       1368  
      1237       1238       1249       1248       1358       1359       1370       1369  
      1238       1239       1250       1249       1359       1360       1371       1370  
      1239       1240       1251       1250       1360       1361       1372       1371  
      1240       1241       1252       1251       1361       1362       1373       1372  
      1241       1242       1253       1252       1362       1363       1374       1373  
      1242       1243       1254       1253       1363       1364       1375       1374  
      1244       1245       1256       1255       1365       1366       1377       1376  
      1245       1246       1257       1256       1366       1367       1378       1377  
      1246       1247       1258       1257       1367       1368       1379       1378  
      1247       1248       1259       1258       1368       1369       1380       1379  
      1248       1249       1260       1259       1369       1370       1381       1380  
      1249       1250       1261       1260       1370       1371       1382       1381  
      1250       1251       1262       1261       1371       1372       1383       1382  
      1251       1252       1263       1262       1372       1373       1384       1383  
      1252       1253       1264       1263       1373       1374       1385       1384  
      1253       1254       1265       1264       1374       1375       1386       1385  
      1255       1256       1267       1266       1376       1377       1388       1387  
      1256       1257       1268       1267       1377       1378       1389       1388  
      1257       1258       1269       1268       1378       1379       1390       1389  
      1258       1259       1270       1269       1379       1380       1391       1390  
      1259       1260       1271       1270       1380       1381       1392       1391  
      1260       1261       1272       1271       1381       1382       1393       1392  
      1261       1262       1273       1272       1382       1383       1394       1393  
      1262       1263       1274       1273       1383       1384       1395       1394  
      1263       1264       1275       1274       1384       1385       1396       1395  
      1264       1265       1276       1275       1385       1386       1397       1396  
      1266       1267       1278       1277       1387       1388       1399       1398  
      1267       1268       1279       1278       1388       1389       1400       1399  
      1268       1269       1280       1279       1389       1390       1401       1400  
      1269       1270       1281       1280       1390       1391       1402       1401  
      1270       1271       1282       1281       1391       1392       1403       1402  
      1271       1272       1283       1282       1392       1393       1404       1403  
      1272       1273       1284       1283       1393       1394       1405       1404  
      1273       1274       1285       1284       1394       1395       1406       1405  
      1274       1275       1286       1285       1395       1396       1407       1406  
      1275       1276       1287       1286       1396       1397       1408       1407  
      1277       1278       1289       1288       1398       1399       1410       1409  
      1278       1279       1290       1289       1399       1400       1411       1410  
      1279       1280       1291       1290       1400       1401       1412       1411  
      1280       1281       1292       1291       1401       1402       1413       1412  
      1281       1282       1293       1292       1402       1403       1414       1413  
      1282       1283       1294       1293       1403       1404       1415       1414  
      1283       1284       1295       1294       1404       1405       1416       1415  
      1284       1285       1296       1295       1405       1406       1417       1416  
      1285       1286       1297       1296       1406       1407       1418       1417  
      1286       1287       1298       1297       1407       1408       1419       1418  
      1288       1289       1300       1299       1409       1410       1421       1420  
      1289       1290       1301       1300       1410       1411       1422       1421  
      1290       1291       1302       1301       1411       1412       1423       1422  
      1291       1292       1303       1302       1412       1413       1424       1423  
      1292       1293       1304       1303       1413       1414       1425       1424  
      1293       1294       1305       1304       1414       1415       1426       1425  
      1294       1295       1306       1305       1415       1416       1427       1426  
      1295       1296       1307       1306       1416       1417       1428       1427  
      1296       1297       1308       1307       1417       1418       1429       1428  
      1297       1298       1309       1308       1418       1419       1430       1429  
      1299       1300       1311       1310       1420       1421       1432       1431  
      1300       1301       1312       1311       1421       1422       1433       1432  
      1301       1302       1313       1312       1422       1423       1434       1433  
      1302       1303       1314       1313       1423       1424       1435       1434  
      1303       1304       1315       1314       1424       1425       1436       1435  
      1304       1305       1316       1315       1425       1426       1437       1436  
      1305       1306       1317       1316       1426       1427       1438       1437  
      1306       1307       1318       1317       1427       1428       1439       1438  
      1307       1308       1319       1318       1428       1429       1440       1439  
      1308       1309       1320       1319       1429       1430       1441       1440  
      1310       1311       1322       1321       1431       1432       1443       1442  
      1311       1312       1323       1322       1432       1433       1444       1443  
      1312       1313       1324       1323       1433       1434       1445       1444  
      1313       1314       1325       1324       1434       1435       1446       1445  
      1314       1315       1326       1325       1435       1436       1447       1446  
      1315       1316       1327       1326       1436       1437       1448       1447  
      1316       1317       1328       1327       1437       1438       1449       1448  
      1317       1318       1329       1328       1438       1439       1450       1449  
      1318       1319       1330       1329       1439       1440       1451       1450  
      1319       1320       1331       1330       1440       1441       1452       1451  
      1332       1333       1344       1343       1453       1454       1465       1464  
      1333       1334       1345       1344       1454       1455       1466       1465  
      1334       1335       1346       1345       1455       1456       1467       1466  
      1335       1336       1347       1346       1456       1457       1468       1467  
      1336       1337       1348       1347       1457       1458       1469       1468  
      1337       1338       1349       1348       1458       1459       1470       1469  
      1338       1339       1350       1349       1459       1460       1471       1470  
      1339       1340       1351       1350       1460       1461       1472       1471  
      1340       1341       1352       1351       1461       1462       1473       1472  
      1341       1342       1353       1352       1462       1463       1474       1473  
      1343       1344       1355       1354       1464       1465       1476       1475  
      1344       1345       1356       1355       1465       1466       1477       1476  
      1345       1346       1357       1356       1466       1467       1478       1477  
      1346       1347       1358       1357       1467       1468       1479       1478  
      1347       1348       1359       1358       1468       1469       1480       1479  
      1348       1349       1360       1359       1469       1470       1481       1480  
      1349       1350       1361       1360       1470       1471       1482       1481  
      1350       1351       1362       1361       1471       1472       1483       1482  
      1351       1352       1363       1362       1472       1473       1484       1483  
      1352       1353       1364       1363       1473       1474       1485       1484  
      1354       1355       1366       1365       1475       1476       1487       1486  
      1355       1356       1367       1366       1476       1477       1488       1487  
      1356       1357       1368       1367       1477       1478       1489       1488  
      1357       1358       1369       1368       1478       1479       1490       1489  
      1358       1359       1370       1369       1479       1480       1491       1490  
      1359       1360       1371       1370       1480       1481       1492       1491  
      1360       1361       1372       1371       1481       1482       1493       1492  
      1361       1362       1373       1372       1482       1483       1494       1493  
      1362       1363       1374       1373       1483       1484       1495       1494  
      1363       1364       1375       1374       1484       1485       1496       1495  
      1365       1366       1377       1376       1486       1487       1498       1497  
      1366       1367       1378       1377       1487       1488       1499       1498  
      1367       1368       1379       1378       1488       1489       1500       1499  
      1368       1369       1380       1379       1489       1490       1501       1500  
      1369       1370       1381       1380       1490       1491       1502       1501  
      1370       1371       1382       1381       1491       1492       1503       1502  
      1371       1372       1383       1382       1492       1493       1504       1503  
      1372       1373       1384       1383       1493       1494       1505       1504  
      1373       1374       1385       1384       1494       1495       1506       1505  
      1374       1375       1386       1385       1495       1496       1507       1506  
      1376       1377       1388       1387       1497       1498       1509       1508  
      1377       1378       1389       1388       1498       1499       1510       1509  
      1378       1379       1390       1389       1499       1500       1511       1510  
      1379       1380       1391       1390       1500       1501       1512       1511  
      1380       1381       1392       1391       1501       1502       1513       1512  
      1381       1382       1393       1392       1502       1503       1514       1513  
      1382       1383       1394       1393       1503       1504       1515       1514  
      1383       1384       1395       1394       1504       1505       1516       1515  
      1384       1385       1396       1395       1505       1506       1517       1516  
      1385       1386       1397       1396       1506       1507       1518       1517  
      1387       1388       1399       1398       1508       1509       1520       1519  
      1388       1389       1400       1399       1509       1510       1521       1520  
      1389       1390       1401       1400       1510       1511       1522       1521  
      1390       1391       1402       1401       1511       1512       1523       1522  
      1391       1392       1403       1402       1512       1513       1524       1523  
      1392       1393       1404       1403       1513       1514       1525       1524  
      1393       1394       1405       1404       1514       1515       1526       1525  
      1394       1395       1406       1405       1515       1516       1527       1526  
      1395       1396       1407       1406       1516       1517       1528       1527  
      1396       1397       1408       1407       1517       1518       1529       1528  
      1398       1399       1410       1409       1519       1520       1531       1530  
      1399       1400       1411       1410       1520       1521       1532       1531  
      1400       1401       1412       1411       1521       1522       1533       1532  
      1401       1402       1413       1412       1522       1523       1534       1533  
      1402       1403       1414       1413       1523       1524       1535       1534  
      1403       1404       1415       1414       1524       1525       1536       1535  
      1404       1405       1416       1415       1525       1526       1537       1536  
      1405       1406       1417       1416       1526       1527       1538       1537  
      1406       1407       1418       1417       1527       1528       1539       1538  
      1407       1408       1419       1418       1528       1529       1540       1539  
      1409       1410       1421       1420       1530       1531       1542       1541  
      1410       1411       1422       1421       1531       1532       1543       1542  
      1411       1412       1423       1422       1532       1533       1544       1543  
      1412       1413       1424       1423       1533       1534       1545       1544  
      1413       1414       1425       1424       1534       1535       1546       1545  
      1414       1415       1426       1425       1535       1536       1547       1546  
      1415       1416       1427       1426       1536       1537       1548       1547  
      1416       1417       1428       1427       1537       1538       1549       1548  
      1417       1418       1429       1428       1538       1539       1550       1549  
      1418       1419       1430       1429       1539       1540       1551       1550  
      1420       1421       1432       1431       1541       1542       1553       1552  
      1421       1422       1433       1432       1542       1543       1554       1553  
      1422       1423       1434       1433       1543       1544       1555       1554  
      1423       1424       1435       1434       1544       1545       1556       1555  
      1424       1425       1436       1435       1545       1546       1557       1556  
      1425       1426       1437       1436       1546       1547       1558       1557  
      1426       1427       1438       1437       1547       1548       1559       1558  
      1427       1428       1439       1438       1548       1549       1560       1559  
      1428       1429       1440       1439       1549       1550       1561       1560  
      1429       1430       1441       1440       1550       1551       1562       1561  
      1431       1432       1443       1442       1552       1553       1564       1563  
      1432       1433       1444       1443       1553       1554       1565       1564  
      1433       1434       1445       1444       1554       1555       1566       1565  
      1434       1435       1446       1445       1555       1556       1567       1566  
      1435       1436       1447       1446       1556       1557       1568       1567  
      1436       1437       1448       1447       1557       1558       1569       1568  
      1437       1438       1449       1448       1558       1559       1570       1569  
      1438       1439       1450       1449       1559       1560       1571       1570  
      1439       1440       1451       1450       1560       1561       1572       1571  
      1440       1441       1452       1451       1561       1562       1573       1572  
      1453       1454       1465       1464       1574       1575       1586       1585  
      1454       1455       1466       1465       1575       1576       1587       1586  
      1455       1456       1467       1466       1576       1577       1588       1587  
      1456       1457       1468       1467       1577       1578       1589       1588  
      1457       1458       1469       1468       1578       1579       1590       1589  
      1458       1459       1470       1469       1579       1580       1591       1590  
      1459       1460       1471       1470       1580       1581       1592       1591  
      1460       1461       1472       1471       1581       1582       1593       1592  
      1461       1462       1473       1472       1582       1583       1594       1593  
      1462       1463       1474       1473       1583       1584       1595       1594  
      1464       1465       1476       1475       1585       1586       1597       1596  
      1465       1466       1477       1476       1586       1587       1598       1597  
      1466       1467       1478       1477       1587       1588       1599       1598  
      1467       1468       1479       1478       1588       1589       1600       1599  
      1468       1469       1480       1479       1589       1590       1601       1600  
      1469       1470       1481       1480       1590       1591       1602       1601  
      1470       1471       1482       1481       1591       1592       1603       1602  
      1471       1472       1483       1482       1592       1593       1604       1603  
      1472       1473       1484       1483       1593       1594       1605       1604  
      1473       1474       1485       1484       1594       1595       1606       1605  
      1475       1476       1487       1486       1596       1597       1608       1607  
      1476       1477       1488       1487       1597       1598       1609       1608  
      1477       1478       1489       1488       1598       1599       1610       1609  
      1478       1479       1490       1489       1599       1600       1611       1610  
      1479       1480       1491       1490       1600       1601       1612       1611  
      1480       1481       1492       1491       1601       1602       1613       1612  
      1481       1482       1493       1492       1602       1603       1614       1613  
      1482       1483       1494       1493       1603       1604       1615       1614  
      1483       1484       1495       1494       1604       1605       1616       1615  
      1484       1485       1496       1495       1605       1606       1617       1616  
      1486       1487       1498       1497       1607       1608       1619       1618  
      1487       1488       1499       1498       1608       1609       1620       1619  
      1488       1489       1500       1499       1609       1610       1621       1620  
      1489       1490       1501       1500       1610       1611       1622       1621  
      1490       1491       1502       1501       1611       1612       1623       1622  
      1491       1492       1503       1502       1612       1613       1624       1623  
      1492       1493       1504       1503       1613       1614       1625       1624  
      1493       1494       1505       1504       1614       1615       1626       1625  
      1494       1495       1506       1505       1615       1616       1627       1626  
      1495       1496       1507       1506       1616       1617       1628       1627  
      1497       1498       1509       1508       1618       1619       1630       1629  
      1498       1499       1510       1509       1619       1620       1631       1630  
      1499       1500       1511       1510       1620       1621       1632       1631  
      1500       1501       1512       1511       1621       1622       1633       1632  
      1501       1502       1513       1512       1622       1623       1634       1633  
      1502       1503       1514       1513       1623       1624       1635       1634  
      1503       1504       1515       1514       1624       1625       1636       1635  
      1504       1505       1516       1515       1625       1626       1637       1636  
      1505       1506       1517       1516       1626       1627       1638       1637  
      1506       1507       1518       1517       1627       1628       1639       1638  
      1508       1509       1520       1519       1629       1630       1641       1640  
      1509       1510       1521       1520       1630       1631       1642       1641  
      1510       1511       1522       1521       1631       1632       1643       1642  
      1511       1512       1523       1522       1632       1633       1644       1643  
      1512       1513       1524       1523       1633       1634       1645       1644  
      1513       1514       1525       1524       1634       1635       1646       1645  
      1514       1515       1526       1525       1635       1636       1647       1646  
      1515       1516       1527       1526       1636       1637       1648       1647  
      1516       1517       1528       1527       1637       1638       1649       1648  
      1517       1518       1529       1528       1638       1639       1650       1649  
      1519       1520       1531       1530       1640       1641       1652       1651  
      1520       1521       1532       1531       1641       1642       1653       1652  
      1521       1522       1533       1532       1642       1643       1654       1653  
      1522       1523       1534       1533       1643       1644       1655       1654  
      1523       1524       1535       1534       1644       1645       1656       1655  
      1524       1525       1536       1535       1645       1646       1657       1656  
      1525       1526       1537       1536       1646       1647       1658       1657  
      1526       1527       1538       1537       1647       1648       1659       1658  
      1527       1528       1539       1538       1648       1649       1660       1659  
      1528       1529       1540       1539       1649       1650       1661       1660  
      1530       1531       1542       1541       1651       1652       1663       1662  
      1531       1532       1543       1542       1652       1653       1664       1663  
      1532       1533       1544       1543       1653       1654       1665       1664  
      1533       1534       1545       1544       1654       1655       1666       1665  
      1534       1535       1546       1545       1655       1656       1667       1666  
      1535       1536       1547       1546       1656       1657       1668       1667  
      1536       1537       1548       1547       1657       1658       1669       1668  
      1537       1538       1549       1548       1658       1659       1670       1669  
      1538       1539       1550       1549       1659       1660       1671       1670  
      1539       1540       1551       1550       1660       1661       1672       1671  
      1541       1542       1553       1552       1662       1663       1674       1673  
      1542       1543       1554       1553       1663       1664       1675       1674  
      1543       1544       1555       1554       1664       1665       1676       1675  
      1544       1545       1556       1555       1665       1666       1677       1676  
      1545       1546       1557       1556       1666       1667       1678       1677  
      1546       1547       1558       1557       1667       1668       1679       1678  
      1547       1548       1559       1558       1668       1669       1680       1679  
      1548       1549       1560       1559       1669       1670       1681       1680  
      1549       1550       1561       1560       1670       1671       1682       1681  
      1550       1551       1562       1561       1671       1672       1683       1682  
      1552       1553       1564       1563       1673       1674       1685       1684  
      1553       1554       1565       1564       1674       1675       1686       1685  
      1554       1555       1566       1565       1675       1676       1687       1686  
      1555       1556       1567       1566       1676       1677       1688       1687  
      1556       1557       1568       1567       1677       1678       1689       1688  
      1557       1558       1569       1568       1678       1679       1690       1689  
      1558       1559       1570       1569       1679       1680       1691       1690  
      1559       1560       1571       1570       1680       1681       1692       1691  
      1560       1561       1572       1571       1681       1682       1693       1692  
      1561       1562       1573       1572       1682       1683       1694       1693  
      1574       1575       1586       1585       1695       1696       1707       1706  
      1575       1576       1587       1586       1696       1697       1708       1707  
      1576       1577       1588       1587       1697       1698       1709       1708  
      1577       1578       1589       1588       1698       1699       1710       1709  
      1578       1579       1590       1589       1699       1700       1711       1710  
      1579       1580       1591       1590       1700       1701       1712       1711  
      1580       1581       1592       1591       1701       1702       1713       1712  
      1581       1582       1593       1592       1702       1703       1714       1713  
      1582       1583       1594       1593       1703       1704       1715       1714  
      1583       1584       1595       1594       1704       1705       1716       1715  
      1585       1586       1597       1596       1706       1707       1718       1717  
      1586       1587       1598       1597       1707       1708       1719       1718  
      1587       1588       1599       1598       1708       1709       1720       1719  
      1588       1589       1600       1599       1709       1710       1721       1720  
      1589       1590       1601       1600       1710       1711       1722       1721  
      1590       1591       1602       1601       1711       1712       1723       1722  
      1591       1592       1603       1602       1712       1713       1724       1723  
      1592       1593       1604       1603       1713       1714       1725       1724  
      1593       1594       1605       1604       1714       1715       1726       1725  
      1594       1595       1606       1605       1715       1716       1727       1726  
      1596       1597       1608       1607       1717       1718       1729       1728  
      1597       1598       1609       1608       1718       1719       1730       1729  
      1598       1599       1610       1609       1719       1720       1731       1730  
      1599       1600       1611       1610       1720       1721       1732       1731  
      1600       1601       1612       1611       1721       1722       1733       1732  
      1601       1602       1613       1612       1722       1723       1734       1733  
      1602       1603       1614       1613       1723       1724       1735       1734  
      1603       1604       1615       1614       1724       1725       1736       1735  
      1604       1605       1616       1615       1725       1726       1737       1736  
      1605       1606       1617       1616       1726       1727       1738       1737  
      1607       1608       1619       1618       1728       1729       1740       1739  
      1608       1609       1620       1619       1729       1730       1741       1740  
      1609       1610       1621       1620       1730       1731       1742       1741  
      1610       1611       1622       1621       1731       1732       1743       1742  
      1611       1612       1623       1622       1732       1733       1744       1743  
      1612       1613       1624       1623       1733       1734       1745       1744  
      1613       1614       1625       1624       1734       1735       1746       1745  
      1614       1615       1626       1625       1735       1736       1747       1746  
      1615       1616       1627       1626       1736       1737       1748       1747  
      1616       1617       1628       1627       1737       1738       1749       1748  
      1618       1619       1630       1629       1739       1740       1751       1750  
      1619       1620       1631       1630       1740       1741       1752       1751  
      1620       1621       1632       1631       1741       1742       1753       1752  
      1621       1622       1633       1632       1742       1743       1754       1753  
      1622       1623       1634       1633       1743       1744       1755       1754  
      1623       1624       1635       1634       1744       1745       1756       1755  
      1624       1625       1636       1635       1745       1746       1757       1756  
      1625       1626       1637       1636       1746       1747       1758       1757  
      1626       1627       1638       1637       1747       1748       1759       1758  
      1627       1628       1639       1638       1748       1749       1760       1759  
      1629       1630       1641       1640       1750       1751       1762       1761  
      1630       1631       1642       1641       1751       1752       1763       1762  
      1631       1632       1643       1642       1752       1753       1764       1763  
      1632       1633       1644       1643       1753       1754       1765       1764  
      1633       1634       1645       1644       1754       1755       1766       1765  
      1634       1635       1646       1645       1755       1756       1767       1766  
      1635       1636       1647       1646       1756       1757       1768       1767  
      1636       1637       1648       1647       1757       1758       1769       1768  
      1637       1638       1649       1648       1758       1759       1770       1769  
      1638       1639       1650       1649       1759       1760       1771       1770  
      1640       1641       1652       1651       1761       1762       1773       1772  
      1641       1642       1653       1652       1762       1763       1774       1773  
      1642       1643       1654       1653       1763       1764       1775       1774  
      1643       1644       1655       1654       1764       1765       1776       1775  
      1644       1645       1656       1655       1765       1766       1777       1776  
      1645       1646       1657       1656       1766       1767       1778       1777  
      1646       1647       1658       1657       1767       1768       1779       1778  
      1647       1648       1659       1658       1768       1769       1780       1779  
      1648       1649       1660       1659       1769       1770       1781       1780  
      1649       1650       1661       1660       1770       1771       1782       1781  
      1651       1652       1663       1662       1772       1773       1784       1783  
      1652       1653       1664       1663       1773       1774       1785       1784  
      1653       1654       1665       1664       1774       1775       1786       1785  
      1654       1655       1666       1665       1775       1776       1787       1786  
      1655       1656       1667       1666       1776       1777       1788       1787  
      1656       1657       1668       1667       1777       1778       1789       1788  
      1657       1658       1669       1668       1778       1779       1790       1789  
      1658       1659       1670       1669       1779       1780       1791       1790  
      1659       1660       1671       1670       1780       1781       1792       1791  
      1660       1661       1672       1671       1781       1782       1793       1792  
      1662       1663       1674       1673       1783       1784       1795       1794  
      1663       1664       1675       1674       1784       1785       1796       1795  
      1664       1665       1676       1675       1785       1786       1797       1796  
      1665       1666       1677       1676       1786       1787       1798       1797  
      1666       1667       1678       1677       1787       1788       1799       1798  
      1667       1668       1679       1678       1788       1789       1800       1799  
      1668       1669       1680       1679       1789       1790       1801       1800  
      1669       1670       1681       1680       1790       1791       1802       1801  
      1670       1671       1682       1681       1791       1792       1803       1802  
      1671       1672       1683       1682       1792       1793       1804       1803  
      1673       1674       1685       1684       1794       1795       1806       1805  
      1674       1675       1686       1685       1795       1796       1807       1806  
      1675       1676       1687       1686       1796       1797       1808       1807  
      1676       1677       1688       1687       1797       1798       1809       1808  
      1677       1678       1689       1688       1798       1799       1810       1809  
      1678       1679       1690       1689       1799       1800       1811       1810  
      1679       1680       1691       1690       1800       1801       1812       1811  
      1680       1681       1692       1691       1801       1802       1813       1812  
      1681       1682       1693       1692       1802       1803       1814       1813  
      1682       1683       1694       1693       1803       1804       1815       1814  
      1695       1696       1707       1706       1816       1817       1828       1827  
      1696       1697       1708       1707       1817       1818       1829       1828  
      1697       1698       1709       1708       1818       1819       1830       1829  
      1698       1699       1710       1709       1819       1820       1831       1830  
      1699       1700       1711       1710       1820       1821       1832       1831  
      1700       1701       1712       1711       1821       1822       1833       1832  
      1701       1702       1713       1712       1822       1823       1834       1833  
      1702       1703       1714       1713       1823       1824       1835       1834  
      1703       1704       1715       1714       1824       1825       1836       1835  
      1704       1705       1716       1715       1825       1826       1837       1836  
      1706       1707       1718       1717       1827       1828       1839       1838  
      1707       1708       1719       1718       1828       1829       1840       1839  
      1708       1709       1720       1719       1829       1830       1841       1840  
      1709       1710       1721       1720       1830       1831       1842       1841  
      1710       1711       1722       1721       1831       1832       1843       1842  
      1711       1712       1723       1722       1832       1833       1844       1843  
      1712       1713       1724       1723       1833       1834       1845       1844  
      1713       1714       1725       1724       1834       1835       1846       1845  
      1714       1715       1726       1725       1835       1836       1847       1846  
      1715       1716       1727       1726       1836       1837       1848       1847  
      1717       1718       1729       1728       1838       1839       1850       1849  
      1718       1719       1730       1729       1839       1840       1851       1850  
      1719       1720       1731       1730       1840       1841       1852       1851  
      1720       1721       1732       1731       1841       1842       1853       1852  
      1721       1722       1733       1732       1842       1843       1854       1853  
      1722       1723       1734       1733       1843       1844       1855       1854  
      1723       1724       1735       1734       1844       1845       1856       1855  
      1724       1725       1736       1735       1845       1846       1857       1856  
      1725       1726       1737       1736       1846       1847       1858       1857  
      1726       1727       1738       1737       1847       1848       1859       1858  
      1728       1729       1740       1739       1849       1850       1861       1860  
      1729       1730       1741       1740       1850       1851       1862       1861  
      1730       1731       1742       1741       1851       1852       1863       1862  
      1731       1732       1743       1742       1852       1853       1864       1863  
      1732       1733       1744       1743       1853       1854       1865       1864  
      1733       1734       1745       1744       1854       1855       1866       1865  
      1734       1735       1746       1745       1855       1856       1867       1866  
      1735       1736       1747       1746       1856       1857       1868       1867  
      1736       1737       1748       1747       1857       1858       1869       1868  
      1737       1738       1749       1748       1858       1859       1870       1869  
      1739       1740       1751       1750       1860       1861       1872       1871  
      1740       1741       1752       1751       1861       1862       1873       1872  
      1741       1742       1753       1752       1862       1863       1874       1873  
      1742       1743       1754       1753       1863       1864       1875       1874  
      1743       1744       1755       1754       1864       1865       1876       1875  
      1744       1745       1756       1755       1865       1866       1877       1876  
      1745       1746       1757       1756       1866       1867       1878       1877  
      1746       1747       1758       1757       1867       1868       1879       1878  
      1747       1748       1759       1758       1868       1869       1880       1879  
      1748       1749       1760       1759       1869       1870       1881       1880  
      1750       1751       1762       1761       1871       1872       1883       1882  
      1751       1752       1763       1762       1872       1873       1884       1883  
      1752       1753       1764       1763       1873       1874       1885       1884  
      1753       1754       1765       1764       1874       1875       1886       1885  
      1754       1755       1766       1765       1875       1876       1887       1886  
      1755       1756       1767       1766       1876       1877       1888       1887  
      1756       1757       1768       1767       1877       1878       1889       1888  
      1757       1758       1769       1768       1878       1879       1890       1889  
      1758       1759       1770       1769       1879       1880       1891       1890  
      1759       1760       1771       1770       1880       1881       1892       1891  
      1761       1762       1773       1772       1882       1883       1894       1893  
      1762       1763       1774       1773       1883       1884       1895       1894  
      1763       1764       1775       1774       1884       1885       1896       1895  
      1764       1765       1776       1775       1885       1886       1897       1896  
      1765       1766       1777       1776       1886       1887       1898       1897  
      1766       1767       1778       1777       1887       1888       1899       1898  
      1767       1768       1779       1778       1888       1889       1900       1899  
      1768       1769       1780       1779       1889       1890       1901       1900  
      1769       1770       1781       1780       1890       1891       1902       1901  
      1770       1771       1782       1781       1891       1892       1903       1902  
      1772       1773       1784       1783       1893       1894       1905       1904  
      1773       1774       1785       1784       1894       1895       1906       1905  
      1774       1775       1786       1785       1895       1896       1907       1906  
      1775       1776       1787       1786       1896       1897       1908       1907  
      1776       1777       1788       1787       1897       1898       1909       1908  
      1777       1778       1789       1788       1898       1899       1910       1909  
      1778       1779       1790       1789       1899       1900       1911       1910  
      1779       1780       1791       1790       1900       1901       1912       1911  
      1780       1781       1792       1791       1901       1902       1913       1912  
      1781       1782       1793       1792       1902       1903       1914       1913  
      1783       1784       1795       1794       1904       1905       1916       1915  
      1784       1785       1796       1795       1905       1906       1917       1916  
      1785       1786       1797       1796       1906       1907       1918       1917  
      1786       1787       1798       1797       1907       1908       1919       1918  
      1787       1788       1799       1798       1908       1909       1920       1919  
      1788       1789       1800       1799       1909       1910       1921       1920  
      1789       1790       1801       1800       1910       1911       1922       1921  
      1790       1791       1802       1801       1911       1912       1923       1922  
      1791       1792       1803       1802       1912       1913       1924       1923  
      1792       1793       1804       1803       1913       1914       1925       1924  
      1794       1795       1806       1805       1915       1916       1927       1926  
      1795       1796       1807       1806       1916       1917       1928       1927  
      1796       1797       1808       1807       1917       1918       1929       1928  
      1797       1798       1809       1808       1918       1919       1930       1929  
      1798       1799       1810       1809       1919       1920       1931       1930  
      1799       1800       1811       1810       1920       1921       1932       1931  
      1800       1801       1812       1811       1921       1922       1933       1932  
      1801       1802       1813       1812       1922       1923       1934       1933  
      1802       1803       1814       1813       1923       1924       1935       1934  
      1803       1804       1815       1814       1924       1925       1936       1935  
      1816       1817       1828       1827       1937       1938       1949       1948  
      1817       1818       1829       1828       1938       1939       1950       1949  
      1818       1819       1830       1829       1939       1940       1951       1950  
      1819       1820       1831       1830       1940       1941       1952       1951  
      1820       1821       1832       1831       1941       1942       1953       1952  
      1821       1822       1833       1832       1942       1943       1954       1953  
      1822       1823       1834       1833       1943       1944       1955       1954  
      1823       1824       1835       1834       1944       1945       1956       1955  
      1824       1825       1836       1835       1945       1946       1957       1956  
      1825       1826       1837       1836       1946       1947       1958       1957  
      1827       1828       1839       1838       1948       1949       1960       1959  
      1828       1829       1840       1839       1949       1950       1961       1960  
      1829       1830       1841       1840       1950       1951       1962       1961  
      1830       1831       1842       1841       1951       1952       1963       1962  
      1831       1832       1843       1842       1952       1953       1964       1963  
      1832       1833       1844       1843       1953       1954       1965       1964  
      1833       1834       1845       1844       1954       1955       1966       1965  
      1834       1835       1846       1845       1955       1956       1967       1966  
      1835       1836       1847       1846       1956       1957       1968       1967  
      1836       1837       1848       1847       1957       1958       1969       1968  
      1838       1839       1850       1849       1959       1960       1971       1970  
      1839       1840       1851       1850       1960       1961       1972       1971  
      1840       1841       1852       1851       1961       1962       1973       1972  
      1841       1842       1853       1852       1962       1963       1974       1973  
      1842       1843       1854       1853       1963       1964       1975       1974  
      1843       1844       1855       1854       1964       1965       1976       1975  
      1844       1845       1856       1855       1965       1966       1977       1976  
      1845       1846       1857       1856       1966       1967       1978       1977  
      1846       1847       1858       1857       1967       1968       1979       1978  
      1847       1848       1859       1858       1968       1969       1980       1979  
      1849       1850       1861       1860       1970       1971       1982       1981  
      1850       1851       1862       1861       1971       1972       1983       1982  
      1851       1852       1863       1862       1972       1973       1984       1983  
      1852       1853       1864       1863       1973       1974       1985       1984  
      1853       1854       1865       1864       1974       1975       1986       1985  
      1854       1855       1866       1865       1975       1976       1987       1986  
      1855       1856       1867       1866       1976       1977       1988       1987  
      1856       1857       1868       1867       1977       1978       1989       1988  
      1857       1858       1869       1868       1978       1979       1990       1989  
      1858       1859       1870       1869       1979       1980       1991       1990  
      1860       1861       1872       1871       1981       1982       1993       1992  
      1861       1862       1873       1872       1982       1983       1994       1993  
      1862       1863       1874       1873       1983       1984       1995       1994  
      1863       1864       1875       1874       1984       1985       1996       1995  
      1864       1865       1876       1875       1985       1986       1997       1996  
      1865       1866       1877       1876       1986       1987       1998       1997  
      1866       1867       1878       1877       1987       1988       1999       1998  
      1867       1868       1879       1878       1988       1989       2000       1999  
      1868       1869       1880       1879       1989       1990       2001       2000  
      1869       1870       1881       1880       1990       1991       2002       2001  
      1871       1872       1883       1882       1992       1993       2004       2003  
      1872       1873       1884       1883       1993       1994       2005       2004  
      1873       1874       1885       1884       1994       1995       2006       2005  
      1874       1875       1886       1885       1995       1996       2007       2006  
      1875       1876       1887       1886       1996       1997       2008       2007  
      1876       1877       1888       1887       1997       1998       2009       2008  
      1877       1878       1889       1888       1998       1999       2010       2009  
      1878       1879       1890       1889       1999       2000       2011       2010  
      1879       1880       1891       1890       2000       2001       2012       2011  
      1880       1881       1892       1891       2001       2002       2013       2012  
      1882       1883       1894       1893       2003       2004       2015       2014  
      1883       1884       1895       1894       2004       2005       2016       2015  
      1884       1885       1896       1895       2005       2006       2017       2016  
      1885       1886       1897       1896       2006       2007       2018       2017  
      1886       1887       1898       1897       2007       2008       2019       2018  
      1887       1888       1899       1898       2008       2009       2020       2019  
      1888       1889       1900       1899       2009       2010       2021       2020  
      1889       1890       1901       1900       2010       2011       2022       2021  
      1890       1891       1902       1901       2011       2012       2023       2022  
      1891       1892       1903       1902       2012       2013       2024       2023  
      1893       1894       1905       1904       2014       2015       2026       2025  
      1894       1895       1906       1905       2015       2016       2027       2026  
      1895       1896       1907       1906       2016       2017       2028       2027  
      1896       1897       1908       1907       2017       2018       2029       2028  
      1897       1898       1909       1908       2018       2019       2030       2029  
      1898       1899       1910       1909       2019       2020       2031       2030  
      1899       1900       1911       1910       2020       2021       2032       2031  
      1900       1901       1912       1911       2021       2022       2033       2032  
      1901       1902       1913       1912       2022       2023       2034       2033  
      1902       1903       1914       1913       2023       2024       2035       2034  
      1904       1905       1916       1915       2025       2026       2037       2036  
      1905       1906       1917       1916       2026       2027       2038       2037  
      1906       1907       1918       1917       2027       2028       2039       2038  
      1907       1908       1919       1918       2028       2029       2040       2039  
      1908       1909       1920       1919       2029       2030       2041       2040  
      1909       1910       1921       1920       2030       2031       2042       2041  
      1910       1911       1922       1921       2031       2032       2043       2042  
      1911       1912       1923       1922       2032       2033       2044       2043  
      1912       1913       1924       1923       2033       2034       2045       2044  
      1913       1914       1925       1924       2034       2035       2046       2045  
      1915       1916       1927       1926       2036       2037       2048       2047  
      1916       1917       1928       1927       2037       2038       2049       2048  
      1917       1918       1929       1928       2038       2039       2050       2049  
      1918       1919       1930       1929       2039       2040       2051       2050  
      1919       1920       1931       1930       2040       2041       2052       2051  
      1920       1921       1932       1931       2041       2042       2053       2052  
      1921       1922       1933       1932       2042       2043       2054       2053  
      1922       1923       1934       1933       2043       2044       2055       2054  
      1923       1924       1935       1934       2044       2045       2056       2055  
      1924       1925       1936       1935       2045       2046       2057       2056  
      1937       1938       1949       1948       2058       2059       2070       2069  
      1938       1939       1950       1949       2059       2060       2071       2070  
      1939       1940       1951       1950       2060       2061       2072       2071  
      1940       1941       1952       1951       2061       2062       2073       2072  
      1941       1942       1953       1952       2062       2063       2074       2073  
      1942       1943       1954       1953       2063       2064       2075       2074  
      1943       1944       1955       1954       2064       2065       2076       2075  
      1944       1945       1956       1955       2065       2066       2077       2076  
      1945       1946       1957       1956       2066       2067       2078       2077  
      1946       1947       1958       1957       2067       2068       2079       2078  
      1948       1949       1960       1959       2069       2070       2081       2080  
      1949       1950       1961       1960       2070       2071       2082       2081  
      1950       1951       1962       1961       2071       2072       2083       2082  
      1951       1952       1963       1962       2072       2073       2084       2083  
      1952       1953       1964       1963       2073       2074       2085       2084  
      1953       1954       1965       1964       2074       2075       2086       2085  
      1954       1955       1966       1965       2075       2076       2087       2086  
      1955       1956       1967       1966       2076       2077       2088       2087  
      1956       1957       1968       1967       2077       2078       2089       2088  
      1957       1958       1969       1968       2078       2079       2090       2089  
      1959       1960       1971       1970       2080       2081       2092       2091  
      1960       1961       1972       1971       2081       2082       2093       2092  
      1961       1962       1973       1972       2082       2083       2094       2093  
      1962       1963       1974       1973       2083       2084       2095       2094  
      1963       1964       1975       1974       2084       2085       2096       2095  
      1964       1965       1976       1975       2085       2086       2097       2096  
      1965       1966       1977       1976       2086       2087       2098       2097  
      1966       1967       1978       1977       2087       2088       2099       2098  
      1967       1968       1979       1978       2088       2089       2100       2099  
      1968       1969       1980       1979       2089       2090       2101       2100  
      1970       1971       1982       1981       2091       2092       2103       2102  
      1971       1972       1983       1982       2092       2093       2104       2103  
      1972       1973       1984       1983       2093       2094       2105       2104  
      1973       1974       1985       1984       2094       2095       2106       2105  
      1974       1975       1986       1985       2095       2096       2107       2106  
      1975       1976       1987       1986       2096       2097       2108       2107  
      1976       1977       1988       1987       2097       2098       2109       2108  
      1977       1978       1989       1988       2098       2099       2110       2109  
      1978       1979       1990       1989       2099       2100       2111       2110  
      1979       1980       1991       1990       2100       2101       2112       2111  
      1981       1982       1993       1992       2102       2103       2114       2113  
      1982       1983       1994       1993       2103       2104       2115       2114  
      1983       1984       1995       1994       2104       2105       2116       2115  
      1984       1985       1996       1995       2105       2106       2117       2116  
      1985       1986       1997       1996       2106       2107       2118       2117  
      1986       1987       1998       1997       2107       2108       2119       2118  
      1987       1988       1999       1998       2108       2109       2120       2119  
      1988       1989       2000       1999       2109       2110       2121       2120  
      1989       1990       2001       2000       2110       2111       2122       2121  
      1990       1991       2002       2001       2111       2112       2123       2122  
      1992       1993       2004       2003       2113       2114       2125       2124  
      1993       1994       2005       2004       2114       2115       2126       2125  
      1994       1995       2006       2005       2115       2116       2127       2126  
      1995       1996       2007       2006       2116       2117       2128       2127  
      1996       1997       2008       2007       2117       2118       2129       2128  
      1997       1998       2009       2008       2118       2119       2130       2129  
      1998       1999       2010       2009       2119       2120       2131       2130  
      1999       2000       2011       2010       2120       2121       2132       2131  
      2000       2001       2012       2011       2121       2122       2133       2132  
      2001       2002       2013       2012       2122       2123       2134       2133  
      2003       2004       2015       2014       2124       2125       2136       2135  
      2004       2005       2016       2015       2125       2126       2137       2136  
      2005       2006       2017       2016       2126       2127       2138       2137  
      2006       2007       2018       2017       2127       2128       2139       2138  
      2007       2008       2019       2018       2128       2129       2140       2139  
      2008       2009       2020       2019       2129       2130       2141       2140  
      2009       2010       2021       2020       2130       2131       2142       2141  
      2010       2011       2022       2021       2131       2132       2143       2142  
      2011       2012       2023       2022       2132       2133       2144       2143  
      2012       2013       2024       2023       2133       2134       2145       2144  
      2014       2015       2026       2025       2135       2136       2147       2146  
      2015       2016       2027       2026       2136       2137       2148       2147  
      2016       2017       2028       2027       2137       2138       2149       2148  
      2017       2018       2029       2028       2138       2139       2150       2149  
      2018       2019       2030       2029       2139       2140       2151       2150  
      2019       2020       2031       2030       2140       2141       2152       2151  
      2020       2021       2032       2031       2141       2142       2153       2152  
      2021       2022       2033       2032       2142       2143       2154       2153  
      2022       2023       2034       2033       2143       2144       2155       2154  
      2023       2024       2035       2034       2144       2145       2156       2155  
      2025       2026       2037       2036       2146       2147       2158       2157  
      2026       2027       2038       2037       2147       2148       2159       2158  
      2027       2028       2039       2038       2148       2149       2160       2159  
      2028       2029       2040       2039       2149       2150       2161       2160  
      2029       2030       2041       2040       2150       2151       2162       2161  
      2030       2031       2042       2041       2151       2152       2163       2162  
      2031       2032       2043       2042       2152       2153       2164       2163  
      2032       2033       2044       2043       2153       2154       2165       2164  
      2033       2034       2045       2044       2154       2155       2166       2165  
      2034       2035       2046       2045       2155       2156       2167       2166  
      2036       2037       2048       2047       2157       2158       2169       2168  
      2037       2038       2049       2048       2158       2159       2170       2169  
      2038       2039       2050       2049       2159       2160       2171       2170  
      2039       2040       2051       2050       2160       2161       2172       2171  
      2040       2041       2052       2051       2161       2162       2173       2172  
      2041       2042       2053       2052       2162       2163       2174       2173  
      2042       2043       2054       2053       2163       2164       2175       2174  
      2043       2044       2055       2054       2164       2165       2176       2175  
      2044       2045       2056       2055       2165       2166       2177       2176  
      2045       2046       2057       2056       2166       2167       2178       2177  
      2058       2059       2070       2069       2179       2180       2191       2190  
      2059       2060       2071       2070       2180       2181       2192       2191  
      2060       2061       2072       2071       2181       2182       2193       2192  
      2061       2062       2073       2072       2182       2183       2194       2193  
      2062       2063       2074       2073       2183       2184       2195       2194  
      2063       2064       2075       2074       2184       2185       2196       2195  
      2064       2065       2076       2075       2185       2186       2197       2196  
      2065       2066       2077       2076       2186       2187       2198       2197  
      2066       2067       2078       2077       2187       2188       2199       2198  
      2067       2068       2079       2078       2188       2189       2200       2199  
      2069       2070       2081       2080       2190       2191       2202       2201  
      2070       2071       2082       2081       2191       2192       2203       2202  
      2071       2072       2083       2082       2192       2193       2204       2203  
      2072       2073       2084       2083       2193       2194       2205       2204  
      2073       2074       2085       2084       2194       2195       2206       2205  
      2074       2075       2086       2085       2195       2196       2207       2206  
      2075       2076       2087       2086       2196       2197       2208       2207  
      2076       2077       2088       2087       2197       2198       2209       2208  
      2077       2078       2089       2088       2198       2199       2210       2209  
      2078       2079       2090       2089       2199       2200       2211       2210  
      2080       2081       2092       2091       2201       2202       2213       2212  
      2081       2082       2093       2092       2202       2203       2214       2213  
      2082       2083       2094       2093       2203       2204       2215       2214  
      2083       2084       2095       2094       2204       2205       2216       2215  
      2084       2085       2096       2095       2205       2206       2217       2216  
      2085       2086       2097       2096       2206       2207       2218       2217  
      2086       2087       2098       2097       2207       2208       2219       2218  
      2087       2088       2099       2098       2208       2209       2220       2219  
      2088       2089       2100       2099       2209       2210       2221       2220  
      2089       2090       2101       2100       2210       2211       2222       2221  
      2091       2092       2103       2102       2212       2213       2224       2223  
      2092       2093       2104       2103       2213       2214       2225       2224  
      2093       2094       2105       2104       2214       2215       2226       2225  
      2094       2095       2106       2105       2215       2216       2227       2226  
      2095       2096       2107       2106       2216       2217       2228       2227  
      2096       2097       2108       2107       2217       2218       2229       2228  
      2097       2098       2109       2108       2218       2219       2230       2229  
      2098       2099       2110       2109       2219       2220       2231       2230  
      2099       2100       2111       2110       2220       2221       2232       2231  
      2100       2101       2112       2111       2221       2222       2233       2232  
      2102       2103       2114       2113       2223       2224       2235       2234  
      2103       2104       2115       2114       2224       2225       2236       2235  
      2104       2105       2116       2115       2225       2226       2237       2236  
      2105       2106       2117       2116       2226       2227       2238       2237  
      2106       2107       2118       2117       2227       2228       2239       2238  
      2107       2108       2119       2118       2228       2229       2240       2239  
      2108       2109       2120       2119       2229       2230       2241       2240  
      2109       2110       2121       2120       2230       2231       2242       2241  
      2110       2111       2122       2121       2231       2232       2243       2242  
      2111       2112       2123       2122       2232       2233       2244       2243  
      2113       2114       2125       2124       2234       2235       2246       2245  
      2114       2115       2126       2125       2235       2236       2247       2246  
      2115       2116       2127       2126       2236       2237       2248       2247  
      2116       2117       2128       2127       2237       2238       2249       2248  
      2117       2118       2129       2128       2238       2239       2250       2249  
      2118       2119       2130       2129       2239       2240       2251       2250  
      2119       2120       2131       2130       2240       2241       2252       2251  
      2120       2121       2132       2131       2241       2242       2253       2252  
      2121       2122       2133       2132       2242       2243       2254       2253  
      2122       2123       2134       2133       2243       2244       2255       2254  
      2124       2125       2136       2135       2245       2246       2257       2256  
      2125       2126       2137       2136       2246       2247       2258       2257  
      2126       2127       2138       2137       2247       2248       2259       2258  
      2127       2128       2139       2138       2248       2249       2260       2259  
      2128       2129       2140       2139       2249       2250       2261       2260  
      2129       2130       2141       2140       2250       2251       2262       2261  
      2130       2131       2142       2141       2251       2252       2263       2262  
      2131       2132       2143       2142       2252       2253       2264       2263  
      2132       2133       2144       2143       2253       2254       2265       2264  
      2133       2134       2145       2144       2254       2255       2266       2265  
      2135       2136       2147       2146       2256       2257       2268       2267  
      2136       2137       2148       2147       2257       2258       2269       2268  
      2137       2138       2149       2148       2258       2259       2270       2269  
      2138       2139       2150       2149       2259       2260       2271       2270  
      2139       2140       2151       2150       2260       2261       2272       2271  
      2140       2141       2152       2151       2261       2262       2273       2272  
      2141       2142       2153       2152       2262       2263       2274       2273  
      2142       2143       2154       2153       2263       2264       2275       2274  
      2143       2144       2155       2154       2264       2265       2276       2275  
      2144       2145       2156       2155       2265       2266       2277       2276  
      2146       2147       2158       2157       2267       2268       2279       2278  
      2147       2148       2159       2158       2268       2269       2280       2279  
      2148       2149       2160       2159       2269       2270       2281       2280  
      2149       2150       2161       2160       2270       2271       2282       2281  
      2150       2151       2162       2161       2271       2272       2283       2282  
      2151       2152       2163       2162       2272       2273       2284       2283  
      2152       2153       2164       2163       2273       2274       2285       2284  
      2153       2154       2165       2164       2274       2275       2286       2285  
      2154       2155       2166       2165       2275       2276       2287       2286  
      2155       2156       2167       2166       2276       2277       2288       2287  
      2157       2158       2169       2168       2278       2279       2290       2289  
      2158       2159       2170       2169       2279       2280       2291       2290  
      2159       2160       2171       2170       2280       2281       2292       2291  
      2160       2161       2172       2171       2281       2282       2293       2292  
      2161       2162       2173       2172       2282       2283       2294       2293  
      2162       2163       2174       2173       2283       2284       2295       2294  
      2163       2164       2175       2174       2284       2285       2296       2295  
      2164       2165       2176       2175       2285       2286       2297       2296  
      2165       2166       2177       2176       2286       2287       2298       2297  
      2166       2167       2178       2177       2287       2288       2299       2298  
      2179       2180       2191       2190       2300       2301       2312       2311  
      2180       2181       2192       2191       2301       2302       2313       2312  
      2181       2182       2193       2192       2302       2303       2314       2313  
      2182       2183       2194       2193       2303       2304       2315       2314  
      2183       2184       2195       2194       2304       2305       2316       2315  
      2184       2185       2196       2195       2305       2306       2317       2316  
      2185       2186       2197       2196       2306       2307       2318       2317  
      2186       2187       2198       2197       2307       2308       2319       2318  
      2187       2188       2199       2198       2308       2309       2320       2319  
      2188       2189       2200       2199       2309       2310       2321       2320  
      2190       2191       2202       2201       2311       2312       2323       2322  
      2191       2192       2203       2202       2312       2313       2324       2323  
      2192       2193       2204       2203       2313       2314       2325       2324  
      2193       2194       2205       2204       2314       2315       2326       2325  
      2194       2195       2206       2205       2315       2316       2327       2326  
      2195       2196       2207       2206       2316       2317       2328       2327  
      2196       2197       2208       2207       2317       2318       2329       2328  
      2197       2198       2209       2208       2318       2319       2330       2329  
      2198       2199       2210       2209       2319       2320       2331       2330  
      2199       2200       2211       2210       2320       2321       2332       2331  
      2201       2202       2213       2212       2322       2323       2334       2333  
      2202       2203       2214       2213       2323       2324       2335       2334  
      2203       2204       2215       2214       2324       2325       2336       2335  
      2204       2205       2216       2215       2325       2326       2337       2336  
      2205       2206       2217       2216       2326       2327       2338       2337  
      2206       2207       2218       2217       2327       2328       2339       2338  
      2207       2208       2219       2218       2328       2329       2340       2339  
      2208       2209       2220       2219       2329       2330       2341       2340  
      2209       2210       2221       2220       2330       2331       2342       2341  
      2210       2211       2222       2221       2331       2332       2343       2342  
      2212       2213       2224       2223       2333       2334       2345       2344  
      2213       2214       2225       2224       2334       2335       2346       2345  
      2214       2215       2226       2225       2335       2336       2347       2346  
      2215       2216       2227       2226       2336       2337       2348       2347  
      2216       2217       2228       2227       2337       2338       2349       2348  
      2217       2218       2229       2228       2338       2339       2350       2349  
      2218       2219       2230       2229       2339       2340       2351       2350  
      2219       2220       2231       2230       2340       2341       2352       2351  
      2220       2221       2232       2231       2341       2342       2353       2352  
      2221       2222       2233       2232       2342       2343       2354       2353  
      2223       2224       2235       2234       2344       2345       2356       2355  
      2224       2225       2236       2235       2345       2346       2357       2356  
      2225       2226       2237       2236       2346       2347       2358       2357  
      2226       2227       2238       2237       2347       2348       2359       2358  
      2227       2228       2239       2238       2348       2349       2360       2359  
      2228       2229       2240       2239       2349       2350       2361       2360  
      2229       2230       2241       2240       2350       2351       2362       2361  
      2230       2231       2242       2241       2351       2352       2363       2362  
      2231       2232       2243       2242       2352       2353       2364       2363  
      2232       2233       2244       2243       2353       2354       2365       2364  
      2234       2235       2246       2245       2355       2356       2367       2366  
      2235       2236       2247       2246       2356       2357       2368       2367  
      2236       2237       2248       2247       2357       2358       2369       2368  
      2237       2238       2249       2248       2358       2359       2370       2369  
      2238       2239       2250       2249       2359       2360       2371       2370  
      2239       2240       2251       2250       2360       2361       2372       2371  
      2240       2241       2252       2251       2361       2362       2373       2372  
      2241       2242       2253       2252       2362       2363       2374       2373  
      2242       2243       2254       2253       2363       2364       2375       2374  
      2243       2244       2255       2254       2364       2365       2376       2375  
      2245       2246       2257       2256       2366       2367       2378       2377  
      2246       2247       2258       2257       2367       2368       2379       2378  
      2247       2248       2259       2258       2368       2369       2380       2379  
      2248       2249       2260       2259       2369       2370       2381       2380  
      2249       2250       2261       2260       2370       2371       2382       2381  
      2250       2251       2262       2261       2371       2372       2383       2382  
      2251       2252       2263       2262       2372       2373       2384       2383  
      2252       2253       2264       2263       2373       2374       2385       2384  
      2253       2254       2265       2264       2374       2375       2386       2385  
      2254       2255       2266       2265       2375       2376       2387       2386  
      2256       2257       2268       2267       2377       2378       2389       2388  
      2257       2258       2269       2268       2378       2379       2390       2389  
      2258       2259       2270       2269       2379       2380       2391       2390  
      2259       2260       2271       2270       2380       2381       2392       2391  
      2260       2261       2272       2271       2381       2382       2393       2392  
      2261       2262       2273       2272       2382       2383       2394       2393  
      2262       2263       2274       2273       2383       2384       2395       2394  
      2263       2264       2275       2274       2384       2385       2396       2395  
      2264       2265       2276       2275       2385       2386       2397       2396  
      2265       2266       2277       2276       2386       2387       2398       2397  
      2267       2268       2279       2278       2388       2389       2400       2399  
      2268       2269       2280       2279       2389       2390       2401       2400  
      2269       2270       2281       2280       2390       2391       2402       2401  
      2270       2271       2282       2281       2391       2392       2403       2402  
      2271       2272       2283       2282       2392       2393       2404       2403  
      2272       2273       2284       2283       2393       2394       2405       2404  
      2273       2274       2285       2284       2394       2395       2406       2405  
      2274       2275       2286       2285       2395       2396       2407       2406  
      2275       2276       2287       2286       2396       2397       2408       2407  
      2276       2277       2288       2287       2397       2398       2409       2408  
      2278       2279       2290       2289       2399       2400       2411       2410  
      2279       2280       2291       2290       2400       2401       2412       2411  
      2280       2281       2292       2291       2401       2402       2413       2412  
      2281       2282       2293       2292       2402       2403       2414       2413  
      2282       2283       2294       2293       2403       2404       2415       2414  
      2283       2284       2295       2294       2404       2405       2416       2415  
      2284       2285       2296       2295       2405       2406       2417       2416  
      2285       2286       2297       2296       2406       2407       2418       2417  
      2286       2287       2298       2297       2407       2408       2419       2418  
      2287       2288       2299       2298       2408       2409       2420       2419  
      2300       2301       2312       2311       2421       2422       2433       2432  
      2301       2302       2313       2312       2422       2423       2434       2433  
      2302       2303       2314       2313       2423       2424       2435       2434  
      2303       2304       2315       2314       2424       2425       2436       2435  
      2304       2305       2316       2315       2425       2426       2437       2436  
      2305       2306       2317       2316       2426       2427       2438       2437  
      2306       2307       2318       2317       2427       2428       2439       2438  
      2307       2308       2319       2318       2428       2429       2440       2439  
      2308       2309       2320       2319       2429       2430       2441       2440  
      2309       2310       2321       2320       2430       2431       2442       2441  
      2311       2312       2323       2322       2432       2433       2444       2443  
      2312       2313       2324       2323       2433       2434       2445       2444  
      2313       2314       2325       2324       2434       2435       2446       2445  
      2314       2315       2326       2325       2435       2436       2447       2446  
      2315       2316       2327       2326       2436       2437       2448       2447  
      2316       2317       2328       2327       2437       2438       2449       2448  
      2317       2318       2329       2328       2438       2439       2450       2449  
      2318       2319       2330       2329       2439       2440       2451       2450  
      2319       2320       2331       2330       2440       2441       2452       2451  
      2320       2321       2332       2331       2441       2442       2453       2452  
      2322       2323       2334       2333       2443       2444       2455       2454  
      2323       2324       2335       2334       2444       2445       2456       2455  
      2324       2325       2336       2335       2445       2446       2457       2456  
      2325       2326       2337       2336       2446       2447       2458       2457  
      2326       2327       2338       2337       2447       2448       2459       2458  
      2327       2328       2339       2338       2448       2449       2460       2459  
      2328       2329       2340       2339       2449       2450       2461       2460  
      2329       2330       2341       2340       2450       2451       2462       2461  
      2330       2331       2342       2341       2451       2452       2463       2462  
      2331       2332       2343       2342       2452       2453       2464       2463  
      2333       2334       2345       2344       2454       2455       2466       2465  
      2334       2335       2346       2345       2455       2456       2467       2466  
      2335       2336       2347       2346       2456       2457       2468       2467  
      2336       2337       2348       2347       2457       2458       2469       2468  
      2337       2338       2349       2348       2458       2459       2470       2469  
      2338       2339       2350       2349       2459       2460       2471       2470  
      2339       2340       2351       2350       2460       2461       2472       2471  
      2340       2341       2352       2351       2461       2462       2473       2472  
      2341       2342       2353       2352       2462       2463       2474       2473  
      2342       2343       2354       2353       2463       2464       2475       2474  
      2344       2345       2356       2355       2465       2466       2477       2476  
      2345       2346       2357       2356       2466       2467       2478       2477  
      2346       2347       2358       2357       2467       2468       2479       2478  
      2347       2348       2359       2358       2468       2469       2480       2479  
      2348       2349       2360       2359       2469       2470       2481       2480  
      2349       2350       2361       2360       2470       2471       2482       2481  
      2350       2351       2362       2361       2471       2472       2483       2482  
      2351       2352       2363       2362       2472       2473       2484       2483  
      2352       2353       2364       2363       2473       2474       2485       2484  
      2353       2354       2365       2364       2474       2475       2486       2485  
      2355       2356       2367       2366       2476       2477       2488       2487  
      2356       2357       2368       2367       2477       2478       2489       2488  
      2357       2358       2369       2368       2478       2479       2490       2489  
      2358       2359       2370       2369       2479       2480       2491       2490  
      2359       2360       2371       2370       2480       2481       2492       2491  
      2360       2361       2372       2371       2481       2482       2493       2492  
      2361       2362       2373       2372       2482       2483       2494       2493  
      2362       2363       2374       2373       2483       2484       2495       2494  
      2363       2364       2375       2374       2484       2485       2496       2495  
      2364       2365       2376       2375       2485       2486       2497       2496  
      2366       2367       2378       2377       2487       2488       2499       2498  
      2367       2368       2379       2378       2488       2489       2500       2499  
      2368       2369       2380       2379       2489       2490       2501       2500  
      2369       2370       2381       2380       2490       2491       2502       2501  
      2370       2371       2382       2381       2491       2492       2503       2502  
      2371       2372       2383       2382       2492       2493       2504       2503  
      2372       2373       2384       2383       2493       2494       2505       2504  
      2373       2374       2385       2384       2494       2495       2506       2505  
      2374       2375       2386       2385       2495       2496       2507       2506  
      2375       2376       2387       2386       2496       2497       2508       2507  
      2377       2378       2389       2388       2498       2499       2510       2509  
      2378       2379       2390       2389       2499       2500       2511       2510  
      2379       2380       2391       2390       2500       2501       2512       2511  
      2380       2381       2392       2391       2501       2502       2513       2512  
      2381       2382       2393       2392       2502       2503       2514       2513  
      2382       2383       2394       2393       2503       2504       2515       2514  
      2383       2384       2395       2394       2504       2505       2516       2515  
      2384       2385       2396       2395       2505       2506       2517       2516  
      2385       2386       2397       2396       2506       2507       2518       2517  
      2386       2387       2398       2397       2507       2508       2519       2518  
      2388       2389       2400       2399       2509       2510       2521       2520  
      2389       2390       2401       2400       2510       2511       2522       2521  
      2390       2391       2402       2401       2511       2512       2523       2522  
      2391       2392       2403       2402       2512       2513       2524       2523  
      2392       2393       2404       2403       2513       2514       2525       2524  
      2393       2394       2405       2404       2514       2515       2526       2525  
      2394       2395       2406       2405       2515       2516       2527       2526  
      2395       2396       2407       2406       2516       2517       2528       2527  
      2396       2397       2408       2407       2517       2518       2529       2528  
      2397       2398       2409       2408       2518       2519       2530       2529  
      2399       2400       2411       2410       2520       2521       2532       2531  
      2400       2401       2412       2411       2521       2522       2533       2532  
      2401       2402       2413       2412       2522       2523       2534       2533  
      2402       2403       2414       2413       2523       2524       2535       2534  
      2403       2404       2415       2414       2524       2525       2536       2535  
      2404       2405       2416       2415       2525       2526       2537       2536  
      2405       2406       2417       2416       2526       2527       2538       2537  
      2406       2407       2418       2417       2527       2528       2539       2538  
      2407       2408       2419       2418       2528       2529       2540       2539  
      2408       2409       2420       2419       2529       2530       2541       2540  
      2421       2422       2433       2432       2542       2543       2554       2553  
      2422       2423       2434       2433       2543       2544       2555       2554  
      2423       2424       2435       2434       2544       2545       2556       2555  
      2424       2425       2436       2435       2545       2546       2557       2556  
      2425       2426       2437       2436       2546       2547       2558       2557  
      2426       2427       2438       2437       2547       2548       2559       2558  
      2427       2428       2439       2438       2548       2549       2560       2559  
      2428       2429       2440       2439       2549       2550       2561       2560  
      2429       2430       2441       2440       2550       2551       2562       2561  
      2430       2431       2442       2441       2551       2552       2563       2562  
      2432       2433       2444       2443       2553       2554       2565       2564  
      2433       2434       2445       2444       2554       2555       2566       2565  
      2434       2435       2446       2445       2555       2556       2567       2566  
      2435       2436       2447       2446       2556       2557       2568       2567  
      2436       2437       2448       2447       2557       2558       2569       2568  
      2437       2438       2449       2448       2558       2559       2570       2569  
      2438       2439       2450       2449       2559       2560       2571       2570  
      2439       2440       2451       2450       2560       2561       2572       2571  
      2440       2441       2452       2451       2561       2562       2573       2572  
      2441       2442       2453       2452       2562       2563       2574       2573  
      2443       2444       2455       2454       2564       2565       2576       2575  
      2444       2445       2456       2455       2565       2566       2577       2576  
      2445       2446       2457       2456       2566       2567       2578       2577  
      2446       2447       2458       2457       2567       2568       2579       2578  
      2447       2448       2459       2458       2568       2569       2580       2579  
      2448       2449       2460       2459       2569       2570       2581       2580  
      2449       2450       2461       2460       2570       2571       2582       2581  
      2450       2451       2462       2461       2571       2572       2583       2582  
      2451       2452       2463       2462       2572       2573       2584       2583  
      2452       2453       2464       2463       2573       2574       2585       2584  
      2454       2455       2466       2465       2575       2576       2587       2586  
      2455       2456       2467       2466       2576       2577       2588       2587  
      2456       2457       2468       2467       2577       2578       2589       2588  
      2457       2458       2469       2468       2578       2579       2590       2589  
      2458       2459       2470       2469       2579       2580       2591       2590  
      2459       2460       2471       2470       2580       2581       2592       2591  
      2460       2461       2472       2471       2581       2582       2593       2592  
      2461       2462       2473       2472       2582       2583       2594       2593  
      2462       2463       2474       2473       2583       2584       2595       2594  
      2463       2464       2475       2474       2584       2585       2596       2595  
      2465       2466       2477       2476       2586       2587       2598       2597  
      2466       2467       2478       2477       2587       2588       2599       2598  
      2467       2468       2479       2478       2588       2589       2600       2599  
      2468       2469       2480       2479       2589       2590       2601       2600  
      2469       2470       2481       2480       2590       2591       2602       2601  
      2470       2471       2482       2481       2591       2592       2603       2602  
      2471       2472       2483       2482       2592       2593       2604       2603  
      2472       2473       2484       2483       2593       2594       2605       2604  
      2473       2474       2485       2484       2594       2595       2606       2605  
      2474       2475       2486       2485       2595       2596       2607       2606  
      2476       2477       2488       2487       2597       2598       2609       2608  
      2477       2478       2489       2488       2598       2599       2610       2609  
      2478       2479       2490       2489       2599       2600       2611       2610  
      2479       2480       2491       2490       2600       2601       2612       2611  
      2480       2481       2492       2491       2601       2602       2613       2612  
      2481       2482       2493       2492       2602       2603       2614       2613  
      2482       2483       2494       2493       2603       2604       2615       2614  
      2483       2484       2495       2494       2604       2605       2616       2615  
      2484       2485       2496       2495       2605       2606       2617       2616  
      2485       2486       2497       2496       2606       2607       2618       2617  
      2487       2488       2499       2498       2608       2609       2620       2619  
      2488       2489       2500       2499       2609       2610       2621       2620  
      2489       2490       2501       2500       2610       2611       2622       2621  
      2490       2491       2502       2501       2611       2612       2623       2622  
      2491       2492       2503       2502       2612       2613       2624       2623  
      2492       2493       2504       2503       2613       2614       2625       2624  
      2493       2494       2505       2504       2614       2615       2626       2625  
      2494       2495       2506       2505       2615       2616       2627       2626  
      2495       2496       2507       2506       2616       2617       2628       2627  
      2496       2497       2508       2507       2617       2618       2629       2628  
      2498       2499       2510       2509       2619       2620       2631       2630  
      2499       2500       2511       2510       2620       2621       2632       2631  
      2500       2501       2512       2511       2621       2622       2633       2632  
      2501       2502       2513       2512       2622       2623       2634       2633  
      2502       2503       2514       2513       2623       2624       2635       2634  
      2503       2504       2515       2514       2624       2625       2636       2635  
      2504       2505       2516       2515       2625       2626       2637       2636  
      2505       2506       2517       2516       2626       2627       2638       2637  
      2506       2507       2518       2517       2627       2628       2639       2638  
      2507       2508       2519       2518       2628       2629       2640       2639  
      2509       2510       2521       2520       2630       2631       2642       2641  
      2510       2511       2522       2521       2631       2632       2643       2642  
      2511       2512       2523       2522       2632       2633       2644       2643  
      2512       2513       2524       2523       2633       2634       2645       2644  
      2513       2514       2525       2524       2634       2635       2646       2645  
      2514       2515       2526       2525       2635       2636       2647       2646  
      2515       2516       2527       2526       2636       2637       2648       2647  
      2516       2517       2528       2527       2637       2638       2649       2648  
      2517       2518       2529       2528       2638       2639       2650       2649  
      2518       2519       2530       2529       2639       2640       2651       2650  
      2520       2521       2532       2531       2641       2642       2653       2652  
      2521       2522       2533       2532       2642       2643       2654       2653  
      2522       2523       2534       2533       2643       2644       2655       2654  
      2523       2524       2535       2534       2644       2645       2656       2655  
      2524       2525       2536       2535       2645       2646       2657       2656  
      2525       2526       2537       2536       2646       2647       2658       2657  
      2526       2527       2538       2537       2647       2648       2659       2658  
      2527       2528       2539       2538       2648       2649       2660       2659  
      2528       2529       2540       2539       2649       2650       2661       2660  
      2529       2530       2541       2540       2650       2651       2662       2661  
      2542       2543       2554       2553       2663       2664       2675       2674  
      2543       2544       2555       2554       2664       2665       2676       2675  
      2544       2545       2556       2555       2665       2666       2677       2676  
      2545       2546       2557       2556       2666       2667       2678       2677  
      2546       2547       2558       2557       2667       2668       2679       2678  
      2547       2548       2559       2558       2668       2669       2680       2679  
      2548       2549       2560       2559       2669       2670       2681       2680  
      2549       2550       2561       2560       2670       2671       2682       2681  
      2550       2551       2562       2561       2671       2672       2683       2682  
      2551       2552       2563       2562       2672       2673       2684       2683  
      2553       2554       2565       2564       2674       2675       2686       2685  
      2554       2555       2566       2565       2675       2676       2687       2686  
      2555       2556       2567       2566       2676       2677       2688       2687  
      2556       2557       2568       2567       2677       2678       2689       2688  
      2557       2558       2569       2568       2678       2679       2690       2689  
      2558       2559       2570       2569       2679       2680       2691       2690  
      2559       2560       2571       2570       2680       2681       2692       2691  
      2560       2561       2572       2571       2681       2682       2693       2692  
      2561       2562       2573       2572       2682       2683       2694       2693  
      2562       2563       2574       2573       2683       2684       2695       2694  
      2564       2565       2576       2575       2685       2686       2697       2696  
      2565       2566       2577       2576       2686       2687       2698       2697  
      2566       2567       2578       2577       2687       2688       2699       2698  
      2567       2568       2579       2578       2688       2689       2700       2699  
      2568       2569       2580       2579       2689       2690       2701       2700  
      2569       2570       2581       2580       2690       2691       2702       2701  
      2570       2571       2582       2581       2691       2692       2703       2702  
      2571       2572       2583       2582       2692       2693       2704       2703  
      2572       2573       2584       2583       2693       2694       2705       2704  
      2573       2574       2585       2584       2694       2695       2706       2705  
      2575       2576       2587       2586       2696       2697       2708       2707  
      2576       2577       2588       2587       2697       2698       2709       2708  
      2577       2578       2589       2588       2698       2699       2710       2709  
      2578       2579       2590       2589       2699       2700       2711       2710  
      2579       2580       2591       2590       2700       2701       2712       2711  
      2580       2581       2592       2591       2701       2702       2713       2712  
      2581       2582       2593       2592       2702       2703       2714       2713  
      2582       2583       2594       2593       2703       2704       2715       2714  
      2583       2584       2595       2594       2704       2705       2716       2715  
      2584       2585       2596       2595       2705       2706       2717       2716  
      2586       2587       2598       2597       2707       2708       2719       2718  
      2587       2588       2599       2598       2708       2709       2720       2719  
      2588       2589       2600       2599       2709       2710       2721       2720  
      2589       2590       2601       2600       2710       2711       2722       2721  
      2590       2591       2602       2601       2711       2712       2723       2722  
      2591       2592       2603       2602       2712       2713       2724       2723  
      2592       2593       2604       2603       2713       2714       2725       2724  
      2593       2594       2605       2604       2714       2715       2726       2725  
      2594       2595       2606       2605       2715       2716       2727       2726  
      2595       2596       2607       2606       2716       2717       2728       2727  
      2597       2598       2609       2608       2718       2719       2730       2729  
      2598       2599       2610       2609       2719       2720       2731       2730  
      2599       2600       2611       2610       2720       2721       2732       2731  
      2600       2601       2612       2611       2721       2722       2733       2732  
      2601       2602       2613       2612       2722       2723       2734       2733  
      2602       2603       2614       2613       2723       2724       2735       2734  
      2603       2604       2615       2614       2724       2725       2736       2735  
      2604       2605       2616       2615       2725       2726       2737       2736  
      2605       2606       2617       2616       2726       2727       2738       2737  
      2606       2607       2618       2617       2727       2728       2739       2738  
      2608       2609       2620       2619       2729       2730       2741       2740  
      2609       2610       2621       2620       2730       2731       2742       2741  
      2610       2611       2622       2621       2731       2732       2743       2742  
      2611       2612       2623       2622       2732       2733       2744       2743  
      2612       2613       2624       2623       2733       2734       2745       2744  
      2613       2614       2625       2624       2734       2735       2746       2745  
      2614       2615       2626       2625       2735       2736       2747       2746  
      2615       2616       2627       2626       2736       2737       2748       2747  
      2616       2617       2628       2627       2737       2738       2749       2748  
      2617       2618       2629       2628       2738       2739       2750       2749  
      2619       2620       2631       2630       2740       2741       2752       2751  
      2620       2621       2632       2631       2741       2742       2753       2752  
      2621       2622       2633       2632       2742       2743       2754       2753  
      2622       2623       2634       2633       2743       2744       2755       2754  
      2623       2624       2635       2634       2744       2745       2756       2755  
      2624       2625       2636       2635       2745       2746       2757       2756  
      2625       2626       2637       2636       2746       2747       2758       2757  
      2626       2627       2638       2637       2747       2748       2759       2758  
      2627       2628       2639       2638       2748       2749       2760       2759  
      2628       2629       2640       2639       2749       2750       2761       2760  
      2630       2631       2642       2641       2751       2752       2763       2762  
      2631       2632       2643       2642       2752       2753       2764       2763  
      2632       2633       2644       2643       2753       2754       2765       2764  
      2633       2634       2645       2644       2754       2755       2766       2765  
      2634       2635       2646       2645       2755       2756       2767       2766  
      2635       2636       2647       2646       2756       2757       2768       2767  
      2636       2637       2648       2647       2757       2758       2769       2768  
      2637       2638       2649       2648       2758       2759       2770       2769  
      2638       2639       2650       2649       2759       2760       2771       2770  
      2639       2640       2651       2650       2760       2761       2772       2771  
      2641       2642       2653       2652       2762       2763       2774       2773  
      2642       2643       2654       2653       2763       2764       2775       2774  
      2643       2644       2655       2654       2764       2765       2776       2775  
      2644       2645       2656       2655       2765       2766       2777       2776  
      2645       2646       2657       2656       2766       2767       2778       2777  
      2646       2647       2658       2657       2767       2768       2779       2778  
      2647       2648       2659       2658       2768       2769       2780       2779  
      2648       2649       2660       2659       2769       2770       2781       2780  
      2649       2650       2661       2660       2770       2771       2782       2781  
      2650       2651       2662       2661       2771       2772       2783       2782  
      2663       2664       2675       2674       2784       2785       2796       2795  
      2664       2665       2676       2675       2785       2786       2797       2796  
      2665       2666       2677       2676       2786       2787       2798       2797  
      2666       2667       2678       2677       2787       2788       2799       2798  
      2667       2668       2679       2678       2788       2789       2800       2799  
      2668       2669       2680       2679       2789       2790       2801       2800  
      2669       2670       2681       2680       2790       2791       2802       2801  
      2670       2671       2682       2681       2791       2792       2803       2802  
      2671       2672       2683       2682       2792       2793       2804       2803  
      2672       2673       2684       2683       2793       2794       2805       2804  
      2674       2675       2686       2685       2795       2796       2807       2806  
      2675       2676       2687       2686       2796       2797       2808       2807  
      2676       2677       2688       2687       2797       2798       2809       2808  
      2677       2678       2689       2688       2798       2799       2810       2809  
      2678       2679       2690       2689       2799       2800       2811       2810  
      2679       2680       2691       2690       2800       2801       2812       2811  
      2680       2681       2692       2691       2801       2802       2813       2812  
      2681       2682       2693       2692       2802       2803       2814       2813  
      2682       2683       2694       2693       2803       2804       2815       2814  
      2683       2684       2695       2694       2804       2805       2816       2815  
      2685       2686       2697       2696       2806       2807       2818       2817  
      2686       2687       2698       2697       2807       2808       2819       2818  
      2687       2688       2699       2698       2808       2809       2820       2819  
      2688       2689       2700       2699       2809       2810       2821       2820  
      2689       2690       2701       2700       2810       2811       2822       2821  
      2690       2691       2702       2701       2811       2812       2823       2822  
      2691       2692       2703       2702       2812       2813       2824       2823  
      2692       2693       2704       2703       2813       2814       2825       2824  
      2693       2694       2705       2704       2814       2815       2826       2825  
      2694       2695       2706       2705       2815       2816       2827       2826  
      2696       2697       2708       2707       2817       2818       2829       2828  
      2697       2698       2709       2708       2818       2819       2830       2829  
      2698       2699       2710       2709       2819       2820       2831       2830  
      2699       2700       2711       2710       2820       2821       2832       2831  
      2700       2701       2712       2711       2821       2822       2833       2832  
      2701       2702       2713       2712       2822       2823       2834       2833  
      2702       2703       2714       2713       2823       2824       2835       2834  
      2703       2704       2715       2714       2824       2825       2836       2835  
      2704       2705       2716       2715       2825       2826       2837       2836  
      2705       2706       2717       2716       2826       2827       2838       2837  
      2707       2708       2719       2718       2828       2829       2840       2839  
      2708       2709       2720       2719       2829       2830       2841       2840  
      2709       2710       2721       2720       2830       2831       2842       2841  
      2710       2711       2722       2721       2831       2832       2843       2842  
      2711       2712       2723       2722       2832       2833       2844       2843  
      2712       2713       2724       2723       2833       2834       2845       2844  
      2713       2714       2725       2724       2834       2835       2846       2845  
      2714       2715       2726       2725       2835       2836       2847       2846  
      2715       2716       2727       2726       2836       2837       2848       2847  
      2716       2717       2728       2727       2837       2838       2849       2848  
      2718       2719       2730       2729       2839       2840       2851       2850  
      2719       2720       2731       2730       2840       2841       2852       2851  
      2720       2721       2732       2731       2841       2842       2853       2852  
      2721       2722       2733       2732       2842       2843       2854       2853  
      2722       2723       2734       2733       2843       2844       2855       2854  
      2723       2724       2735       2734       2844       2845       2856       2855  
      2724       2725       2736       2735       2845       2846       2857       2856  
      2725       2726       2737       2736       2846       2847       2858       2857  
      2726       2727       2738       2737       2847       2848       2859       2858  
      2727       2728       2739       2738       2848       2849       2860       2859  
      2729       2730       2741       2740       2850       2851       2862       2861  
      2730       2731       2742       2741       2851       2852       2863       2862  
      2731       2732       2743       2742       2852       2853       2864       2863  
      2732       2733       2744       2743       2853       2854       2865       2864  
      2733       2734       2745       2744       2854       2855       2866       2865  
      2734       2735       2746       2745       2855       2856       2867       2866  
      2735       2736       2747       2746       2856       2857       2868       2867  
      2736       2737       2748       2747       2857       2858       2869       2868  
      2737       2738       2749       2748       2858       2859       2870       2869  
      2738       2739       2750       2749       2859       2860       2871       2870  
      2740       2741       2752       2751       2861       2862       2873       2872  
      2741       2742       2753       2752       2862       2863       2874       2873  
      2742       2743       2754       2753       2863       2864       2875       2874  
      2743       2744       2755       2754       2864       2865       2876       2875  
      2744       2745       2756       2755       2865       2866       2877       2876  
      2745       2746       2757       2756       2866       2867       2878       2877  
      2746       2747       2758       2757       2867       2868       2879       2878  
      2747       2748       2759       2758       2868       2869       2880       2879  
      2748       2749       2760       2759       2869       2870       2881       2880  
      2749       2750       2761       2760       2870       2871       2882       2881  
      2751       2752       2763       2762       2872       2873       2884       2883  
      2752       2753       2764       2763       2873       2874       2885       2884  
      2753       2754       2765       2764       2874       2875       2886       2885  
      2754       2755       2766       2765       2875       2876       2887       2886  
      2755       2756       2767       2766       2876       2877       2888       2887  
      2756       2757       2768       2767       2877       2878       2889       2888  
      2757       2758       2769       2768       2878       2879       2890       2889  
      2758       2759       2770       2769       2879       2880       2891       2890  
      2759       2760       2771       2770       2880       2881       2892       2891  
      2760       2761       2772       2771       2881       2882       2893       2892  
      2762       2763       2774       2773       2883       2884       2895       2894  
      2763       2764       2775       2774       2884       2885       2896       2895  
      2764       2765       2776       2775       2885       2886       2897       2896  
      2765       2766       2777       2776       2886       2887       2898       2897  
      2766       2767       2778       2777       2887       2888       2899       2898  
      2767       2768       2779       2778       2888       2889       2900       2899  
      2768       2769       2780       2779       2889       2890       2901       2900  
      2769       2770       2781       2780       2890       2891       2902       2901  
      2770       2771       2782       2781       2891       2892       2903       2902  
      2771       2772       2783       2782       2892       2893       2904       2903  
      2784       2785       2796       2795       2905       2906       2917       2916  
      2785       2786       2797       2796       2906       2907       2918       2917  
      2786       2787       2798       2797       2907       2908       2919       2918  
      2787       2788       2799       2798       2908       2909       2920       2919  
      2788       2789       2800       2799       2909       2910       2921       2920  
      2789       2790       2801       2800       2910       2911       2922       2921  
      2790       2791       2802       2801       2911       2912       2923       2922  
      2791       2792       2803       2802       2912       2913       2924       2923  
      2792       2793       2804       2803       2913       2914       2925       2924  
      2793       2794       2805       2804       2914       2915       2926       2925  
      2795       2796       2807       2806       2916       2917       2928       2927  
      2796       2797       2808       2807       2917       2918       2929       2928  
      2797       2798       2809       2808       2918       2919       2930       2929  
      2798       2799       2810       2809       2919       2920       2931       2930  
      2799       2800       2811       2810       2920       2921       2932       2931  
      2800       2801       2812       2811       2921       2922       2933       2932  
      2801       2802       2813       2812       2922       2923       2934       2933  
      2802       2803       2814       2813       2923       2924       2935       2934  
      2803       2804       2815       2814       2924       2925       2936       2935  
      2804       2805       2816       2815       2925       2926       2937       2936  
      2806       2807       2818       2817       2927       2928       2939       2938  
      2807       2808       2819       2818       2928       2929       2940       2939  
      2808       2809       2820       2819       2929       2930       2941       2940  
      2809       2810       2821       2820       2930       2931       2942       2941  
      2810       2811       2822       2821       2931       2932       2943       2942  
      2811       2812       2823       2822       2932       2933       2944       2943  
      2812       2813       2824       2823       2933       2934       2945       2944  
      2813       2814       2825       2824       2934       2935       2946       2945  
      2814       2815       2826       2825       2935       2936       2947       2946  
      2815       2816       2827       2826       2936       2937       2948       2947  
      2817       2818       2829       2828       2938       2939       2950       2949  
      2818       2819       2830       2829       2939       2940       2951       2950  
      2819       2820       2831       2830       2940       2941       2952       2951  
      2820       2821       2832       2831       2941       2942       2953       2952  
      2821       2822       2833       2832       2942       2943       2954       2953  
      2822       2823       2834       2833       2943       2944       2955       2954  
      2823       2824       2835       2834       2944       2945       2956       2955  
      2824       2825       2836       2835       2945       2946       2957       2956  
      2825       2826       2837       2836       2946       2947       2958       2957  
      2826       2827       2838       2837       2947       2948       2959       2958  
      2828       2829       2840       2839       2949       2950       2961       2960  
      2829       2830       2841       2840       2950       2951       2962       2961  
      2830       2831       2842       2841       2951       2952       2963       2962  
      2831       2832       2843       2842       2952       2953       2964       2963  
      2832       2833       2844       2843       2953       2954       2965       2964  
      2833       2834       2845       2844       2954       2955       2966       2965  
      2834       2835       2846       2845       2955       2956       2967       2966  
      2835       2836       2847       2846       2956       2957       2968       2967  
      2836       2837       2848       2847       2957       2958       2969       2968  
      2837       2838       2849       2848       2958       2959       2970       2969  
      2839       2840       2851       2850       2960       2961       2972       2971  
      2840       2841       2852       2851       2961       2962       2973       2972  
      2841       2842       2853       2852       2962       2963       2974       2973  
      2842       2843       2854       2853       2963       2964       2975       2974  
      2843       2844       2855       2854       2964       2965       2976       2975  
      2844       2845       2856       2855       2965       2966       2977       2976  
      2845       2846       2857       2856       2966       2967       2978       2977  
      2846       2847       2858       2857       2967       2968       2979       2978  
      2847       2848       2859       2858       2968       2969       2980       2979  
      2848       2849       2860       2859       2969       2970       2981       2980  
      2850       2851       2862       2861       2971       2972       2983       2982  
      2851       2852       2863       2862       2972       2973       2984       2983  
      2852       2853       2864       2863       2973       2974       2985       2984  
      2853       2854       2865       2864       2974       2975       2986       2985  
      2854       2855       2866       2865       2975       2976       2987       2986  
      2855       2856       2867       2866       2976       2977       2988       2987  
      2856       2857       2868       2867       2977       2978       2989       2988  
      2857       2858       2869       2868       2978       2979       2990       2989  
      2858       2859       2870       2869       2979       2980       2991       2990  
      2859       2860       2871       2870       2980       2981       2992       2991  
      2861       2862       2873       2872       2982       2983       2994       2993  
      2862       2863       2874       2873       2983       2984       2995       2994  
      2863       2864       2875       2874       2984       2985       2996       2995  
      2864       2865       2876       2875       2985       2986       2997       2996  
      2865       2866       2877       2876       2986       2987       2998       2997  
      2866       2867       2878       2877       2987       2988       2999       2998  
      2867       2868       2879       2878       2988       2989       3000       2999  
      2868       2869       2880       2879       2989       2990       3001       3000  
      2869       2870       2881       2880       2990       2991       3002       3001  
      2870       2871       2882       2881       2991       2992       3003       3002  
      2872       2873       2884       2883       2993       2994       3005       3004  
      2873       2874       2885       2884       2994       2995       3006       3005  
      2874       2875       2886       2885       2995       2996       3007       3006  
      2875       2876       2887       2886       2996       2997       3008       3007  
      2876       2877       2888       2887       2997       2998       3009       3008  
      2877       2878       2889       2888       2998       2999       3010       3009  
      2878       2879       2890       2889       2999       3000       3011       3010  
      2879       2880       2891       2890       3000       3001       3012       3011  
      2880       2881       2892       2891       3001       3002       3013       3012  
      2881       2882       2893       2892       3002       3003       3014       3013  
      2883       2884       2895       2894       3004       3005       3016       3015  
      2884       2885       2896       2895       3005       3006       3017       3016  
      2885       2886       2897       2896       3006       3007       3018       3017  
      2886       2887       2898       2897       3007       3008       3019       3018  
      2887       2888       2899       2898       3008       3009       3020       3019  
      2888       2889       2900       2899       3009       3010       3021       3020  
      2889       2890       2901       2900       3010       3011       3022       3021  
      2890       2891       2902       2901       3011       3012       3023       3022  
      2891       2892       2903       2902       3012       3013       3024       3023  
      2892       2893       2904       2903       3013       3014       3025       3024  
      2905       2906       2917       2916       3026       3027       3038       3037  
      2906       2907       2918       2917       3027       3028       3039       3038  
      2907       2908       2919       2918       3028       3029       3040       3039  
      2908       2909       2920       2919       3029       3030       3041       3040  
      2909       2910       2921       2920       3030       3031       3042       3041  
      2910       2911       2922       2921       3031       3032       3043       3042  
      2911       2912       2923       2922       3032       3033       3044       3043  
      2912       2913       2924       2923       3033       3034       3045       3044  
      2913       2914       2925       2924       3034       3035       3046       3045  
      2914       2915       2926       2925       3035       3036       3047       3046  
      2916       2917       2928       2927       3037       3038       3049       3048  
      2917       2918       2929       2928       3038       3039       3050       3049  
      2918       2919       2930       2929       3039       3040       3051       3050  
      2919       2920       2931       2930       3040       3041       3052       3051  
      2920       2921       2932       2931       3041       3042       3053       3052  
      2921       2922       2933       2932       3042       3043       3054       3053  
      2922       2923       2934       2933       3043       3044       3055       3054  
      2923       2924       2935       2934       3044       3045       3056       3055  
      2924       2925       2936       2935       3045       3046       3057       3056  
      2925       2926       2937       2936       3046       3047       3058       3057  
      2927       2928       2939       2938       3048       3049       3060       3059  
      2928       2929       2940       2939       3049       3050       3061       3060  
      2929       2930       2941       2940       3050       3051       3062       3061  
      2930       2931       2942       2941       3051       3052       3063       3062  
      2931       2932       2943       2942       3052       3053       3064       3063  
      2932       2933       2944       2943       3053       3054       3065       3064  
      2933       2934       2945       2944       3054       3055       3066       3065  
      2934       2935       2946       2945       3055       3056       3067       3066  
      2935       2936       2947       2946       3056       3057       3068       3067  
      2936       2937       2948       2947       3057       3058       3069       3068  
      2938       2939       2950       2949       3059       3060       3071       3070  
      2939       2940       2951       2950       3060       3061       3072       3071  
      2940       2941       2952       2951       3061       3062       3073       3072  
      2941       2942       2953       2952       3062       3063       3074       3073  
      2942       2943       2954       2953       3063       3064       3075       3074  
      2943       2944       2955       2954       3064       3065       3076       3075  
      2944       2945       2956       2955       3065       3066       3077       3076  
      2945       2946       2957       2956       3066       3067       3078       3077  
      2946       2947       2958       2957       3067       3068       3079       3078  
      2947       2948       2959       2958       3068       3069       3080       3079  
      2949       2950       2961       2960       3070       3071       3082       3081  
      2950       2951       2962       2961       3071       3072       3083       3082  
      2951       2952       2963       2962       3072       3073       3084       3083  
      2952       2953       2964       2963       3073       3074       3085       3084  
      2953       2954       2965       2964       3074       3075       3086       3085  
      2954       2955       2966       2965       3075       3076       3087       3086  
      2955       2956       2967       2966       3076       3077       3088       3087  
      2956       2957       2968       2967       3077       3078       3089       3088  
      2957       2958       2969       2968       3078       3079       3090       3089  
      2958       2959       2970       2969       3079       3080       3091       3090  
      2960       2961       2972       2971       3081       3082       3093       3092  
      2961       2962       2973       2972       3082       3083       3094       3093  
      2962       2963       2974       2973       3083       3084       3095       3094  
      2963       2964       2975       2974       3084       3085       3096       3095  
      2964       2965       2976       2975       3085       3086       3097       3096  
      2965       2966       2977       2976       3086       3087       3098       3097  
      2966       2967       2978       2977       3087       3088       3099       3098  
      2967       2968       2979       2978       3088       3089       3100       3099  
      2968       2969       2980       2979       3089       3090       3101       3100  
      2969       2970       2981       2980       3090       3091       3102       3101  
      2971       2972       2983       2982       3092       3093       3104       3103  
      2972       2973       2984       2983       3093       3094       3105       3104  
      2973       2974       2985       2984       3094       3095       3106       3105  
      2974       2975       2986       2985       3095       3096       3107       3106  
      2975       2976       2987       2986       3096       3097       3108       3107  
      2976       2977       2988       2987       3097       3098       3109       3108  
      2977       2978       2989       2988       3098       3099       3110       3109  
      2978       2979       2990       2989       3099       3100       3111       3110  
      2979       2980       2991       2990       3100       3101       3112       3111  
      2980       2981       2992       2991       3101       3102       3113       3112  
      2982       2983       2994       2993       3103       3104       3115       3114  
      2983       2984       2995       2994       3104       3105       3116       3115  
      2984       2985       2996       2995       3105       3106       3117       3116  
      2985       2986       2997       2996       3106       3107       3118       3117  
      2986       2987       2998       2997       3107       3108       3119       3118  
      2987       2988       2999       2998       3108       3109       3120       3119  
      2988       2989       3000       2999       3109       3110       3121       3120  
      2989       2990       3001       3000       3110       3111       3122       3121  
      2990       2991       3002       3001       3111       3112       3123       3122  
      2991       2992       3003       3002       3112       3113       3124       3123  
      2993       2994       3005       3004       3114       3115       3126       3125  
      2994       2995       3006       3005       3115       3116       3127       3126  
      2995       2996       3007       3006       3116       3117       3128       3127  
      2996       2997       3008       3007       3117       3118       3129       3128  
      2997       2998       3009       3008       3118       3119       3130       3129  
      2998       2999       3010       3009       3119       3120       3131       3130  
      2999       3000       3011       3010       3120       3121       3132       3131  
      3000       3001       3012       3011       3121       3122       3133       3132  
      3001       3002       3013       3012       3122       3123       3134       3133  
      3002       3003       3014       3013       3123       3124       3135       3134  
      3004       3005       3016       3015       3125       3126       3137       3136  
      3005       3006       3017       3016       3126       3127       3138       3137  
      3006       3007       3018       3017       3127       3128       3139       3138  
      3007       3008       3019       3018       3128       3129       3140       3139  
      3008       3009       3020       3019       3129       3130       3141       3140  
      3009       3010       3021       3020       3130       3131       3142       3141  
      3010       3011       3022       3021       3131       3132       3143       3142  
      3011       3012       3023       3022       3132       3133       3144       3143  
      3012       3013       3024       3023       3133       3134       3145       3144  
      3013       3014       3025       3024       3134       3135       3146       3145  
      3026       3027       3038       3037       3147       3148       3159       3158  
      3027       3028       3039       3038       3148       3149       3160       3159  
      3028       3029       3040       3039       3149       3150       3161       3160  
      3029       3030       3041       3040       3150       3151       3162       3161  
      3030       3031       3042       3041       3151       3152       3163       3162  
      3031       3032       3043       3042       3152       3153       3164       3163  
      3032       3033       3044       3043       3153       3154       3165       3164  
      3033       3034       3045       3044       3154       3155       3166       3165  
      3034       3035       3046       3045       3155       3156       3167       3166  
      3035       3036       3047       3046       3156       3157       3168       3167  
      3037       3038       3049       3048       3158       3159       3170       3169  
      3038       3039       3050       3049       3159       3160       3171       3170  
      3039       3040       3051       3050       3160       3161       3172       3171  
      3040       3041       3052       3051       3161       3162       3173       3172  
      3041       3042       3053       3052       3162       3163       3174       3173  
      3042       3043       3054       3053       3163       3164       3175       3174  
      3043       3044       3055       3054       3164       3165       3176       3175  
      3044       3045       3056       3055       3165       3166       3177       3176  
      3045       3046       3057       3056       3166       3167       3178       3177  
      3046       3047       3058       3057       3167       3168       3179       3178  
      3048       3049       3060       3059       3169       3170       3181       3180  
      3049       3050       3061       3060       3170       3171       3182       3181  
      3050       3051       3062       3061       3171       3172       3183       3182  
      3051       3052       3063       3062       3172       3173       3184       3183  
      3052       3053       3064       3063       3173       3174       3185       3184  
      3053       3054       3065       3064       3174       3175       3186       3185  
      3054       3055       3066       3065       3175       3176       3187       3186  
      3055       3056       3067       3066       3176       3177       3188       3187  
      3056       3057       3068       3067       3177       3178       3189       3188  
      3057       3058       3069       3068       3178       3179       3190       3189  
      3059       3060       3071       3070       3180       3181       3192       3191  
      3060       3061       3072       3071       3181       3182       3193       3192  
      3061       3062       3073       3072       3182       3183       3194       3193  
      3062       3063       3074       3073       3183       3184       3195       3194  
      3063       3064       3075       3074       3184       3185       3196       3195  
      3064       3065       3076       3075       3185       3186       3197       3196  
      3065       3066       3077       3076       3186       3187       3198       3197  
      3066       3067       3078       3077       3187       3188       3199       3198  
      3067       3068       3079       3078       3188       3189       3200       3199  
      3068       3069       3080       3079       3189       3190       3201       3200  
      3070       3071       3082       3081       3191       3192       3203       3202  
      3071       3072       3083       3082       3192       3193       3204       3203  
      3072       3073       3084       3083       3193       3194       3205       3204  
      3073       3074       3085       3084       3194       3195       3206       3205  
      3074       3075       3086       3085       3195       3196       3207       3206  
      3075       3076       3087       3086       3196       3197       3208       3207  
      3076       3077       3088       3087       3197       3198       3209       3208  
      3077       3078       3089       3088       3198       3199       3210       3209  
      3078       3079       3090       3089       3199       3200       3211       3210  
      3079       3080       3091       3090       3200       3201       3212       3211  
      3081       3082       3093       3092       3202       3203       3214       3213  
      3082       3083       3094       3093       3203       3204       3215       3214  
      3083       3084       3095       3094       3204       3205       3216       3215  
      3084       3085       3096       3095       3205       3206       3217       3216  
      3085       3086       3097       3096       3206       3207       3218       3217  
      3086       3087       3098       3097       3207       3208       3219       3218  
      3087       3088       3099       3098       3208       3209       3220       3219  
      3088       3089       3100       3099       3209       3210       3221       3220  
      3089       3090       3101       3100       3210       3211       3222       3221  
      3090       3091       3102       3101       3211       3212       3223       3222  
      3092       3093       3104       3103       3213       3214       3225       3224  
      3093       3094       3105       3104       3214       3215       3226       3225  
      3094       3095       3106       3105       3215       3216       3227       3226  
      3095       3096       3107       3106       3216       3217       3228       3227  
      3096       3097       3108       3107       3217       3218       3229       3228  
      3097       3098       3109       3108       3218       3219       3230       3229  
      3098       3099       3110       3109       3219       3220       3231       3230  
      3099       3100       3111       3110       3220       3221       3232       3231  
      3100       3101       3112       3111       3221       3222       3233       3232  
      3101       3102       3113       3112       3222       3223       3234       3233  
      3103       3104       3115       3114       3224       3225       3236       3235  
      3104       3105       3116       3115       3225       3226       3237       3236  
      3105       3106       3117       3116       3226       3227       3238       3237  
      3106       3107       3118       3117       3227       3228       3239       3238  
      3107       3108       3119       3118       3228       3229       3240       3239  
      3108       3109       3120       3119       3229       3230       3241       3240  
      3109       3110       3121       3120       3230       3231       3242       3241  
      3110       3111       3122       3121       3231       3232       3243       3242  
      3111       3112       3123       3122       3232       3233       3244       3243  
      3112       3113       3124       3123       3233       3234       3245       3244  
      3114       3115       3126       3125       3235       3236       3247       3246  
      3115       3116       3127       3126       3236       3237       3248       3247  
      3116       3117       3128       3127       3237       3238       3249       3248  
      3117       3118       3129       3128       3238       3239       3250       3249  
      3118       3119       3130       3129       3239       3240       3251       3250  
      3119       3120       3131       3130       3240       3241       3252       3251  
      3120       3121       3132       3131       3241       3242       3253       3252  
      3121       3122       3133       3132       3242       3243       3254       3253  
      3122       3123       3134       3133       3243       3244       3255       3254  
      3123       3124       3135       3134       3244       3245       3256       3255  
      3125       3126       3137       3136       3246       3247       3258       3257  
      3126       3127       3138       3137       3247       3248       3259       3258  
      3127       3128       3139       3138       3248       3249       3260       3259  
      3128       3129       3140       3139       3249       3250       3261       3260  
      3129       3130       3141       3140       3250       3251       3262       3261  
      3130       3131       3142       3141       3251       3252       3263       3262  
      3131       3132       3143       3142       3252       3253       3264       3263  
      3132       3133       3144       3143       3253       3254       3265       3264  
      3133       3134       3145       3144       3254       3255       3266       3265  
      3134       3135       3146       3145       3255       3256       3267       3266  
      3147       3148       3159       3158       3268       3269       3280       3279  
      3148       3149       3160       3159       3269       3270       3281       3280  
      3149       3150       3161       3160       3270       3271       3282       3281  
      3150       3151       3162       3161       3271       3272       3283       3282  
      3151       3152       3163       3162       3272       3273       3284       3283  
      3152       3153       3164       3163       3273       3274       3285       3284  
      3153       3154       3165       3164       3274       3275       3286       3285  
      3154       3155       3166       3165       3275       3276       3287       3286  
      3155       3156       3167       3166       3276       3277       3288       3287  
      3156       3157       3168       3167       3277       3278       3289       3288  
      3158       3159       3170       3169       3279       3280       3291       3290  
      3159       3160       3171       3170       3280       3281       3292       3291  
      3160       3161       3172       3171       3281       3282       3293       3292  
      3161       3162       3173       3172       3282       3283       3294       3293  
      3162       3163       3174       3173       3283       3284       3295       3294  
      3163       3164       3175       3174       3284       3285       3296       3295  
      3164       3165       3176       3175       3285       3286       3297       3296  
      3165       3166       3177       3176       3286       3287       3298       3297  
      3166       3167       3178       3177       3287       3288       3299       3298  
      3167       3168       3179       3178       3288       3289       3300       3299  
      3169       3170       3181       3180       3290       3291       3302       3301  
      3170       3171       3182       3181       3291       3292       3303       3302  
      3171       3172       3183       3182       3292       3293       3304       3303  
      3172       3173       3184       3183       3293       3294       3305       3304  
      3173       3174       3185       3184       3294       3295       3306       3305  
      3174       3175       3186       3185       3295       3296       3307       3306  
      3175       3176       3187       3186       3296       3297       3308       3307  
      3176       3177       3188       3187       3297       3298       3309       3308  
      3177       3178       3189       3188       3298       3299       3310       3309  
      3178       3179       3190       3189       3299       3300       3311       3310  
      3180       3181       3192       3191       3301       3302       3313       3312  
      3181       3182       3193       3192       3302       3303       3314       3313  
      3182       3183       3194       3193       3303       3304       3315       3314  
      3183       3184       3195       3194       3304       3305       3316       3315  
      3184       3185       3196       3195       3305       3306       3317       3316  
      3185       3186       3197       3196       3306       3307       3318       3317  
      3186       3187       3198       3197       3307       3308       3319       3318  
      3187       3188       3199       3198       3308       3309       3320       3319  
      3188       3189       3200       3199       3309       3310       3321       3320  
      3189       3190       3201       3200       3310       3311       3322       3321  
      3191       3192       3203       3202       3312       3313       3324       3323  
      3192       3193       3204       3203       3313       3314       3325       3324  
      3193       3194       3205       3204       3314       3315       3326       3325  
      3194       3195       3206       3205       3315       3316       3327       3326  
      3195       3196       3207       3206       3316       3317       3328       3327  
      3196       3197       3208       3207       3317       3318       3329       3328  
      3197       3198       3209       3208       3318       3319       3330       3329  
      3198       3199       3210       3209       3319       3320       3331       3330  
      3199       3200       3211       3210       3320       3321       3332       3331  
      3200       3201       3212       3211       3321       3322       3333       3332  
      3202       3203       3214       3213       3323       3324       3335       3334  
      3203       3204       3215       3214       3324       3325       3336       3335  
      3204       3205       3216       3215       3325       3326       3337       3336  
      3205       3206       3217       3216       3326       3327       3338       3337  
      3206       3207       3218       3217       3327       3328       3339       3338  
      3207       3208       3219       3218       3328       3329       3340       3339  
      3208       3209       3220       3219       3329       3330       3341       3340  
      3209       3210       3221       3220       3330       3331       3342       3341  
      3210       3211       3222       3221       3331       3332       3343       3342  
      3211       3212       3223       3222       3332       3333       3344       3343  
      3213       3214       3225       3224       3334       3335       3346       3345  
      3214       3215       3226       3225       3335       3336       3347       3346  
      3215       3216       3227       3226       3336       3337       3348       3347  
      3216       3217       3228       3227       3337       3338       3349       3348  
      3217       3218       3229       3228       3338       3339       3350       3349  
      3218       3219       3230       3229       3339       3340       3351       3350  
      3219       3220       3231       3230       3340       3341       3352       3351  
      3220       3221       3232       3231       3341       3342       3353       3352  
      3221       3222       3233       3232       3342       3343       3354       3353  
      3222       3223       3234       3233       3343       3344       3355       3354  
      3224       3225       3236       3235       3345       3346       3357       3356  
      3225       3226       3237       3236       3346       3347       3358       3357  
      3226       3227       3238       3237       3347       3348       3359       3358  
      3227       3228       3239       3238       3348       3349       3360       3359  
      3228       3229       3240       3239       3349       3350       3361       3360  
      3229       3230       3241       3240       3350       3351       3362       3361  
      3230       3231       3242       3241       3351       3352       3363       3362  
      3231       3232       3243       3242       3352       3353       3364       3363  
      3232       3233       3244       3243       3353       3354       3365       3364  
      3233       3234       3245       3244       3354       3355       3366       3365  
      3235       3236       3247       3246       3356       3357       3368       3367  
      3236       3237       3248       3247       3357       3358       3369       3368  
      3237       3238       3249       3248       3358       3359       3370       3369  
      3238       3239       3250       3249       3359       3360       3371       3370  
      3239       3240       3251       3250       3360       3361       3372       3371  
      3240       3241       3252       3251       3361       3362       3373       3372  
      3241       3242       3253       3252       3362       3363       3374       3373  
      3242       3243       3254       3253       3363       3364       3375       3374  
      3243       3244       3255       3254       3364       3365       3376       3375  
      3244       3245       3256       3255       3365       3366       3377       3376  
      3246       3247       3258       3257       3367       3368       3379       3378  
      3247       3248       3259       3258       3368       3369       3380       3379  
      3248       3249       3260       3259       3369       3370       3381       3380  
      3249       3250       3261       3260       3370       3371       3382       3381  
      3250       3251       3262       3261       3371       3372       3383       3382  
      3251       3252       3263       3262       3372       3373       3384       3383  
      3252       3253       3264       3263       3373       3374       3385       3384  
      3253       3254       3265       3264       3374       3375       3386       3385  
      3254       3255       3266       3265       3375       3376       3387       3386  
      3255       3256       3267       3266       3376       3377       3388       3387  
      3268       3269       3280       3279       3389       3390       3401       3400  
      3269       3270       3281       3280       3390       3391       3402       3401  
      3270       3271       3282       3281       3391       3392       3403       3402  
      3271       3272       3283       3282       3392       3393       3404       3403  
      3272       3273       3284       3283       3393       3394       3405       3404  
      3273       3274       3285       3284       3394       3395       3406       3405  
      3274       3275       3286       3285       3395       3396       3407       3406  
      3275       3276       3287       3286       3396       3397       3408       3407  
      3276       3277       3288       3287       3397       3398       3409       3408  
      3277       3278       3289       3288       3398       3399       3410       3409  
      3279       3280       3291       3290       3400       3401       3412       3411  
      3280       3281       3292       3291       3401       3402       3413       3412  
      3281       3282       3293       3292       3402       3403       3414       3413  
      3282       3283       3294       3293       3403       3404       3415       3414  
      3283       3284       3295       3294       3404       3405       3416       3415  
      3284       3285       3296       3295       3405       3406       3417       3416  
      3285       3286       3297       3296       3406       3407       3418       3417  
      3286       3287       3298       3297       3407       3408       3419       3418  
      3287       3288       3299       3298       3408       3409       3420       3419  
      3288       3289       3300       3299       3409       3410       3421       3420  
      3290       3291       3302       3301       3411       3412       3423       3422  
      3291       3292       3303       3302       3412       3413       3424       3423  
      3292       3293       3304       3303       3413       3414       3425       3424  
      3293       3294       3305       3304       3414       3415       3426       3425  
      3294       3295       3306       3305       3415       3416       3427       3426  
      3295       3296       3307       3306       3416       3417       3428       3427  
      3296       3297       3308       3307       3417       3418       3429       3428  
      3297       3298       3309       3308       3418       3419       3430       3429  
      3298       3299       3310       3309       3419       3420       3431       3430  
      3299       3300       3311       3310       3420       3421       3432       3431  
      3301       3302       3313       3312       3422       3423       3434       3433  
      3302       3303       3314       3313       3423       3424       3435       3434  
      3303       3304       3315       3314       3424       3425       3436       3435  
      3304       3305       3316       3315       3425       3426       3437       3436  
      3305       3306       3317       3316       3426       3427       3438       3437  
      3306       3307       3318       3317       3427       3428       3439       3438  
      3307       3308       3319       3318       3428       3429       3440       3439  
      3308       3309       3320       3319       3429       3430       3441       3440  
      3309       3310       3321       3320       3430       3431       3442       3441  
      3310       3311       3322       3321       3431       3432       3443       3442  
      3312       3313       3324       3323       3433       3434       3445       3444  
      3313       3314       3325       3324       3434       3435       3446       3445  
      3314       3315       3326       3325       3435       3436       3447       3446  
      3315       3316       3327       3326       3436       3437       3448       3447  
      3316       3317       3328       3327       3437       3438       3449       3448  
      3317       3318       3329       3328       3438       3439       3450       3449  
      3318       3319       3330       3329       3439       3440       3451       3450  
      3319       3320       3331       3330       3440       3441       3452       3451  
      3320       3321       3332       3331       3441       3442       3453       3452  
      3321       3322       3333       3332       3442       3443       3454       3453  
      3323       3324       3335       3334       3444       3445       3456       3455  
      3324       3325       3336       3335       3445       3446       3457       3456  
      3325       3326       3337       3336       3446       3447       3458       3457  
      3326       3327       3338       3337       3447       3448       3459       3458  
      3327       3328       3339       3338       3448       3449       3460       3459  
      3328       3329       3340       3339       3449       3450       3461       3460  
      3329       3330       3341       3340       3450       3451       3462       3461  
      3330       3331       3342       3341       3451       3452       3463       3462  
      3331       3332       3343       3342       3452       3453       3464       3463  
      3332       3333       3344       3343       3453       3454       3465       3464  
      3334       3335       3346       3345       3455       3456       3467       3466  
      3335       3336       3347       3346       3456       3457       3468       3467  
      3336       3337       3348       3347       3457       3458       3469       3468  
      3337       3338       3349       3348       3458       3459       3470       3469  
      3338       3339       3350       3349       3459       3460       3471       3470  
      3339       3340       3351       3350       3460       3461       3472       3471  
      3340       3341       3352       3351       3461       3462       3473       3472  
      3341       3342       3353       3352       3462       3463       3474       3473  
      3342       3343       3354       3353       3463       3464       3475       3474  
      3343       3344       3355       3354       3464       3465       3476       3475  
      3345       3346       3357       3356       3466       3467       3478       3477  
      3346       3347       3358       3357       3467       3468       3479       3478  
      3347       3348       3359       3358       3468       3469       3480       3479  
      3348       3349       3360       3359       3469       3470       3481       3480  
      3349       3350       3361       3360       3470       3471       3482       3481  
      3350       3351       3362       3361       3471       3472       3483       3482  
      3351       3352       3363       3362       3472       3473       3484       3483  
      3352       3353       3364       3363       3473       3474       3485       3484  
      3353       3354       3365       3364       3474       3475       3486       3485  
      3354       3355       3366       3365       3475       3476       3487       3486  
      3356       3357       3368       3367       3477       3478       3489       3488  
      3357       3358       3369       3368       3478       3479       3490       3489  
      3358       3359       3370       3369       3479       3480       3491       3490  
      3359       3360       3371       3370       3480       3481       3492       3491  
      3360       3361       3372       3371       3481       3482       3493       3492  
      3361       3362       3373       3372       3482       3483       3494       3493  
      3362       3363       3374       3373       3483       3484       3495       3494  
      3363       3364       3375       3374       3484       3485       3496       3495  
      3364       3365       3376       3375       3485       3486       3497       3496  
      3365       3366       3377       3376       3486       3487       3498       3497  
      3367       3368       3379       3378       3488       3489       3500       3499  
      3368       3369       3380       3379       3489       3490       3501       3500  
      3369       3370       3381       3380       3490       3491       3502       3501  
      3370       3371       3382       3381       3491       3492       3503       3502  
      3371       3372       3383       3382       3492       3493       3504       3503  
      3372       3373       3384       3383       3493       3494       3505       3504  
      3373       3374       3385       3384       3494       3495       3506       3505  
      3374       3375       3386       3385       3495       3496       3507       3506  
      3375       3376       3387       3386       3496       3497       3508       3507  
      3376       3377       3388       3387       3497       3498       3509       3508  
      3389       3390       3401       3400       3510       3511       3522       3521  
      3390       3391       3402       3401       3511       3512       3523       3522  
      3391       3392       3403       3402       3512       3513       3524       3523  
      3392       3393       3404       3403       3513       3514       3525       3524  
      3393       3394       3405       3404       3514       3515       3526       3525  
      3394       3395       3406       3405       3515       3516       3527       3526  
      3395       3396       3407       3406       3516       3517       3528       3527  
      3396       3397       3408       3407       3517       3518       3529       3528  
      3397       3398       3409       3408       3518       3519       3530       3529  
      3398       3399       3410       3409       3519       3520       3531       3530  
      3400       3401       3412       3411       3521       3522       3533       3532  
      3401       3402       3413       3412       3522       3523       3534       3533  
      3402       3403       3414       3413       3523       3524       3535       3534  
      3403       3404       3415       3414       3524       3525       3536       3535  
      3404       3405       3416       3415       3525       3526       3537       3536  
      3405       3406       3417       3416       3526       3527       3538       3537  
      3406       3407       3418       3417       3527       3528       3539       3538  
      3407       3408       3419       3418       3528       3529       3540       3539  
      3408       3409       3420       3419       3529       3530       3541       3540  
      3409       3410       3421       3420       3530       3531       3542       3541  
      3411       3412       3423       3422       3532       3533       3544       3543  
      3412       3413       3424       3423       3533       3534       3545       3544  
      3413       3414       3425       3424       3534       3535       3546       3545  
      3414       3415       3426       3425       3535       3536       3547       3546  
      3415       3416       3427       3426       3536       3537       3548       3547  
      3416       3417       3428       3427       3537       3538       3549       3548  
      3417       3418       3429       3428       3538       3539       3550       3549  
      3418       3419       3430       3429       3539       3540       3551       3550  
      3419       3420       3431       3430       3540       3541       3552       3551  
      3420       3421       3432       3431       3541       3542       3553       3552  
      3422       3423       3434       3433       3543       3544       3555       3554  
      3423       3424       3435       3434       3544       3545       3556       3555  
      3424       3425       3436       3435       3545       3546       3557       3556  
      3425       3426       3437       3436       3546       3547       3558       3557  
      3426       3427       3438       3437       3547       3548       3559       3558  
      3427       3428       3439       3438       3548       3549       3560       3559  
      3428       3429       3440       3439       3549       3550       3561       3560  
      3429       3430       3441       3440       3550       3551       3562       3561  
      3430       3431       3442       3441       3551       3552       3563       3562  
      3431       3432       3443       3442       3552       3553       3564       3563  
      3433       3434       3445       3444       3554       3555       3566       3565  
      3434       3435       3446       3445       3555       3556       3567       3566  
      3435       3436       3447       3446       3556       3557       3568       3567  
      3436       3437       3448       3447       3557       3558       3569       3568  
      3437       3438       3449       3448       3558       3559       3570       3569  
      3438       3439       3450       3449       3559       3560       3571       3570  
      3439       3440       3451       3450       3560       3561       3572       3571  
      3440       3441       3452       3451       3561       3562       3573       3572  
      3441       3442       3453       3452       3562       3563       3574       3573  
      3442       3443       3454       3453       3563       3564       3575       3574  
      3444       3445       3456       3455       3565       3566       3577       3576  
      3445       3446       3457       3456       3566       3567       3578       3577  
      3446       3447       3458       3457       3567       3568       3579       3578  
      3447       3448       3459       3458       3568       3569       3580       3579  
      3448       3449       3460       3459       3569       3570       3581       3580  
      3449       3450       3461       3460       3570       3571       3582       3581  
      3450       3451       3462       3461       3571       3572       3583       3582  
      3451       3452       3463       3462       3572       3573       3584       3583  
      3452       3453       3464       3463       3573       3574       3585       3584  
      3453       3454       3465       3464       3574       3575       3586       3585  
      3455       3456       3467       3466       3576       3577       3588       3587  
      3456       3457       3468       3467       3577       3578       3589       3588  
      3457       3458       3469       3468       3578       3579       3590       3589  
      3458       3459       3470       3469       3579       3580       3591       3590  
      3459       3460       3471       3470       3580       3581       3592       3591  
      3460       3461       3472       3471       3581       3582       3593       3592  
      3461       3462       3473       3472       3582       3583       3594       3593  
      3462       3463       3474       3473       3583       3584       3595       3594  
      3463       3464       3475       3474       3584       3585       3596       3595  
      3464       3465       3476       3475       3585       3586       3597       3596  
      3466       3467       3478       3477       3587       3588       3599       3598  
      3467       3468       3479       3478       3588       3589       3600       3599  
      3468       3469       3480       3479       3589       3590       3601       3600  
      3469       3470       3481       3480       3590       3591       3602       3601  
      3470       3471       3482       3481       3591       3592       3603       3602  
      3471       3472       3483       3482       3592       3593       3604       3603  
      3472       3473       3484       3483       3593       3594       3605       3604  
      3473       3474       3485       3484       3594       3595       3606       3605  
      3474       3475       3486       3485       3595       3596       3607       3606  
      3475       3476       3487       3486       3596       3597       3608       3607  
      3477       3478       3489       3488       3598       3599       3610       3609  
      3478       3479       3490       3489       3599       3600       3611       3610  
      3479       3480       3491       3490       3600       3601       3612       3611  
      3480       3481       3492       3491       3601       3602       3613       3612  
      3481       3482       3493       3492       3602       3603       3614       3613  
      3482       3483       3494       3493       3603       3604       3615       3614  
      3483       3484       3495       3494       3604       3605       3616       3615  
      3484       3485       3496       3495       3605       3606       3617       3616  
      3485       3486       3497       3496       3606       3607       3618       3617  
      3486       3487       3498       3497       3607       3608       3619       3618  
      3488       3489       3500       3499       3609       3610       3621       3620  
      3489       3490       3501       3500       3610       3611       3622       3621  
      3490       3491       3502       3501       3611       3612       3623       3622  
      3491       3492       3503       3502       3612       3613       3624       3623  
      3492       3493       3504       3503       3613       3614       3625       3624  
      3493       3494       3505       3504       3614       3615       3626       3625  
      3494       3495       3506       3505       3615       3616       3627       3626  
      3495       3496       3507       3506       3616       3617       3628       3627  
      3496       3497       3508       3507       3617       3618       3629       3628  
      3497       3498       3509       3508       3618       3619       3630       3629  
      3510       3511       3522       3521       3631       3632       3643       3642  
      3511       3512       3523       3522       3632       3633       3644       3643  
      3512       3513       3524       3523       3633       3634       3645       3644  
      3513       3514       3525       3524       3634       3635       3646       3645  
      3514       3515       3526       3525       3635       3636       3647       3646  
      3515       3516       3527       3526       3636       3637       3648       3647  
      3516       3517       3528       3527       3637       3638       3649       3648  
      3517       3518       3529       3528       3638       3639       3650       3649  
      3518       3519       3530       3529       3639       3640       3651       3650  
      3519       3520       3531       3530       3640       3641       3652       3651  
      3521       3522       3533       3532       3642       3643       3654       3653  
      3522       3523       3534       3533       3643       3644       3655       3654  
      3523       3524       3535       3534       3644       3645       3656       3655  
      3524       3525       3536       3535       3645       3646       3657       3656  
      3525       3526       3537       3536       3646       3647       3658       3657  
      3526       3527       3538       3537       3647       3648       3659       3658  
      3527       3528       3539       3538       3648       3649       3660       3659  
      3528       3529       3540       3539       3649       3650       3661       3660  
      3529       3530       3541       3540       3650       3651       3662       3661  
      3530       3531       3542       3541       3651       3652       3663       3662  
      3532       3533       3544       3543       3653       3654       3665       3664  
      3533       3534       3545       3544       3654       3655       3666       3665  
      3534       3535       3546       3545       3655       3656       3667       3666  
      3535       3536       3547       3546       3656       3657       3668       3667  
      3536       3537       3548       3547       3657       3658       3669       3668  
      3537       3538       3549       3548       3658       3659       3670       3669  
      3538       3539       3550       3549       3659       3660       3671       3670  
      3539       3540       3551       3550       3660       3661       3672       3671  
      3540       3541       3552       3551       3661       3662       3673       3672  
      3541       3542       3553       3552       3662       3663       3674       3673  
      3543       3544       3555       3554       3664       3665       3676       3675  
      3544       3545       3556       3555       3665       3666       3677       3676  
      3545       3546       3557       3556       3666       3667       3678       3677  
      3546       3547       3558       3557       3667       3668       3679       3678  
      3547       3548       3559       3558       3668       3669       3680       3679  
      3548       3549       3560       3559       3669       3670       3681       3680  
      3549       3550       3561       3560       3670       3671       3682       3681  
      3550       3551       3562       3561       3671       3672       3683       3682  
      3551       3552       3563       3562       3672       3673       3684       3683  
      3552       3553       3564       3563       3673       3674       3685       3684  
      3554       3555       3566       3565       3675       3676       3687       3686  
      3555       3556       3567       3566       3676       3677       3688       3687  
      3556       3557       3568       3567       3677       3678       3689       3688  
      3557       3558       3569       3568       3678       3679       3690       3689  
      3558       3559       3570       3569       3679       3680       3691       3690  
      3559       3560       3571       3570       3680       3681       3692       3691  
      3560       3561       3572       3571       3681       3682       3693       3692  
      3561       3562       3573       3572       3682       3683       3694       3693  
      3562       3563       3574       3573       3683       3684       3695       3694  
      3563       3564       3575       3574       3684       3685       3696       3695  
      3565       3566       3577       3576       3686       3687       3698       3697  
      3566       3567       3578       3577       3687       3688       3699       3698  
      3567       3568       3579       3578       3688       3689       3700       3699  
      3568       3569       3580       3579       3689       3690       3701       3700  
      3569       3570       3581       3580       3690       3691       3702       3701  
      3570       3571       3582       3581       3691       3692       3703       3702  
      3571       3572       3583       3582       3692       3693       3704       3703  
      3572       3573       3584       3583       3693       3694       3705       3704  
      3573       3574       3585       3584       3694       3695       3706       3705  
      3574       3575       3586       3585       3695       3696       3707       3706  
      3576       3577       3588       3587       3697       3698       3709       3708  
      3577       3578       3589       3588       3698       3699       3710       3709  
      3578       3579       3590       3589       3699       3700       3711       3710  
      3579       3580       3591       3590       3700       3701       3712       3711  
      3580       3581       3592       3591       3701       3702       3713       3712  
      3581       3582       3593       3592       3702       3703       3714       3713  
      3582       3583       3594       3593       3703       3704       3715       3714  
      3583       3584       3595       3594       3704       3705       3716       3715  
      3584       3585       3596       3595       3705       3706       3717       3716  
      3585       3586       3597       3596       3706       3707       3718       3717  
      3587       3588       3599       3598       3708       3709       3720       3719  
      3588       3589       3600       3599       3709       3710       3721       3720  
      3589       3590       3601       3600       3710       3711       3722       3721  
      3590       3591       3602       3601       3711       3712       3723       3722  
      3591       3592       3603       3602       3712       3713       3724       3723  
      3592       3593       3604       3603       3713       3714       3725       3724  
      3593       3594       3605       3604       3714       3715       3726       3725  
      3594       3595       3606       3605       3715       3716       3727       3726  
      3595       3596       3607       3606       3716       3717       3728       3727  
      3596       3597       3608       3607       3717       3718       3729       3728  
      3598       3599       3610       3609       3719       3720       3731       3730  
      3599       3600       3611       3610       3720       3721       3732       3731  
      3600       3601       3612       3611       3721       3722       3733       3732  
      3601       3602       3613       3612       3722       3723       3734       3733  
      3602       3603       3614       3613       3723       3724       3735       3734  
      3603       3604       3615       3614       3724       3725       3736       3735  
      3604       3605       3616       3615       3725       3726       3737       3736  
      3605       3606       3617       3616       3726       3727       3738       3737  
      3606       3607       3618       3617       3727       3728       3739       3738  
      3607       3608       3619       3618       3728       3729       3740       3739  
      3609       3610       3621       3620       3730       3731       3742       3741  
      3610       3611       3622       3621       3731       3732       3743       3742  
      3611       3612       3623       3622       3732       3733       3744       3743  
      3612       3613       3624       3623       3733       3734       3745       3744  
      3613       3614       3625       3624       3734       3735       3746       3745  
      3614       3615       3626       3625       3735       3736       3747       3746  
      3615       3616       3627       3626       3736       3737       3748       3747  
      3616       3617       3628       3627       3737       3738       3749       3748  
      3617       3618       3629       3628       3738       3739       3750       3749  
      3618       3619       3630       3629       3739       3740       3751       3750  
      3631       3632       3643       3642       3752       3753       3764       3763  
      3632       3633       3644       3643       3753       3754       3765       3764  
      3633       3634       3645       3644       3754       3755       3766       3765  
      3634       3635       3646       3645       3755       3756       3767       3766  
      3635       3636       3647       3646       3756       3757       3768       3767  
      3636       3637       3648       3647       3757       3758       3769       3768  
      3637       3638       3649       3648       3758       3759       3770       3769  
      3638       3639       3650       3649       3759       3760       3771       3770  
      3639       3640       3651       3650       3760       3761       3772       3771  
      3640       3641       3652       3651       3761       3762       3773       3772  
      3642       3643       3654       3653       3763       3764       3775       3774  
      3643       3644       3655       3654       3764       3765       3776       3775  
      3644       3645       3656       3655       3765       3766       3777       3776  
      3645       3646       3657       3656       3766       3767       3778       3777  
      3646       3647       3658       3657       3767       3768       3779       3778  
      3647       3648       3659       3658       3768       3769       3780       3779  
      3648       3649       3660       3659       3769       3770       3781       3780  
      3649       3650       3661       3660       3770       3771       3782       3781  
      3650       3651       3662       3661       3771       3772       3783       3782  
      3651       3652       3663       3662       3772       3773       3784       3783  
      3653       3654       3665       3664       3774       3775       3786       3785  
      3654       3655       3666       3665       3775       3776       3787       3786  
      3655       3656       3667       3666       3776       3777       3788       3787  
      3656       3657       3668       3667       3777       3778       3789       3788  
      3657       3658       3669       3668       3778       3779       3790       3789  
      3658       3659       3670       3669       3779       3780       3791       3790  
      3659       3660       3671       3670       3780       3781       3792       3791  
      3660       3661       3672       3671       3781       3782       3793       3792  
      3661       3662       3673       3672       3782       3783       3794       3793  
      3662       3663       3674       3673       3783       3784       3795       3794  
      3664       3665       3676       3675       3785       3786       3797       3796  
      3665       3666       3677       3676       3786       3787       3798       3797  
      3666       3667       3678       3677       3787       3788       3799       3798  
      3667       3668       3679       3678       3788       3789       3800       3799  
      3668       3669       3680       3679       3789       3790       3801       3800  
      3669       3670       3681       3680       3790       3791       3802       3801  
      3670       3671       3682       3681       3791       3792       3803       3802  
      3671       3672       3683       3682       3792       3793       3804       3803  
      3672       3673       3684       3683       3793       3794       3805       3804  
      3673       3674       3685       3684       3794       3795       3806       3805  
      3675       3676       3687       3686       3796       3797       3808       3807  
      3676       3677       3688       3687       3797       3798       3809       3808  
      3677       3678       3689       3688       3798       3799       3810       3809  
      3678       3679       3690       3689       3799       3800       3811       3810  
      3679       3680       3691       3690       3800       3801       3812       3811  
      3680       3681       3692       3691       3801       3802       3813       3812  
      3681       3682       3693       3692       3802       3803       3814       3813  
      3682       3683       3694       3693       3803       3804       3815       3814  
      3683       3684       3695       3694       3804       3805       3816       3815  
      3684       3685       3696       3695       3805       3806       3817       3816  
      3686       3687       3698       3697       3807       3808       3819       3818  
      3687       3688       3699       3698       3808       3809       3820       3819  
      3688       3689       3700       3699       3809       3810       3821       3820  
      3689       3690       3701       3700       3810       3811       3822       3821  
      3690       3691       3702       3701       3811       3812       3823       3822  
      3691       3692       3703       3702       3812       3813       3824       3823  
      3692       3693       3704       3703       3813       3814       3825       3824  
      3693       3694       3705       3704       3814       3815       3826       3825  
      3694       3695       3706       3705       3815       3816       3827       3826  
      3695       3696       3707       3706       3816       3817       3828       3827  
      3697       3698       3709       3708       3818       3819       3830       3829  
      3698       3699       3710       3709       3819       3820       3831       3830  
      3699       3700       3711       3710       3820       3821       3832       3831  
      3700       3701       3712       3711       3821       3822       3833       3832  
      3701       3702       3713       3712       3822       3823       3834       3833  
      3702       3703       3714       3713       3823       3824       3835       3834  
      3703       3704       3715       3714       3824       3825       3836       3835  
      3704       3705       3716       3715       3825       3826       3837       3836  
      3705       3706       3717       3716       3826       3827       3838       3837  
      3706       3707       3718       3717       3827       3828       3839       3838  
      3708       3709       3720       3719       3829       3830       3841       3840  
      3709       3710       3721       3720       3830       3831       3842       3841  
      3710       3711       3722       3721       3831       3832       3843       3842  
      3711       3712       3723       3722       3832       3833       3844       3843  
      3712       3713       3724       3723       3833       3834       3845       3844  
      3713       3714       3725       3724       3834       3835       3846       3845  
      3714       3715       3726       3725       3835       3836       3847       3846  
      3715       3716       3727       3726       3836       3837       3848       3847  
      3716       3717       3728       3727       3837       3838       3849       3848  
      3717       3718       3729       3728       3838       3839       3850       3849  
      3719       3720       3731       3730       3840       3841       3852       3851  
      3720       3721       3732       3731       3841       3842       3853       3852  
      3721       3722       3733       3732       3842       3843       3854       3853  
      3722       3723       3734       3733       3843       3844       3855       3854  
      3723       3724       3735       3734       3844       3845       3856       3855  
      3724       3725       3736       3735       3845       3846       3857       3856  
      3725       3726       3737       3736       3846       3847       3858       3857  
      3726       3727       3738       3737       3847       3848       3859       3858  
      3727       3728       3739       3738       3848       3849       3860       3859  
      3728       3729       3740       3739       3849       3850       3861       3860  
      3730       3731       3742       3741       3851       3852       3863       3862  
      3731       3732       3743       3742       3852       3853       3864       3863  
      3732       3733       3744       3743       3853       3854       3865       3864  
      3733       3734       3745       3744       3854       3855       3866       3865  
      3734       3735       3746       3745       3855       3856       3867       3866  
      3735       3736       3747       3746       3856       3857       3868       3867  
      3736       3737       3748       3747       3857       3858       3869       3868  
      3737       3738       3749       3748       3858       3859       3870       3869  
      3738       3739       3750       3749       3859       3860       3871       3870  
      3739       3740       3751       3750       3860       3861       3872       3871  
      3752       3753       3764       3763       3873       3874       3885       3884  
      3753       3754       3765       3764       3874       3875       3886       3885  
      3754       3755       3766       3765       3875       3876       3887       3886  
      3755       3756       3767       3766       3876       3877       3888       3887  
      3756       3757       3768       3767       3877       3878       3889       3888  
      3757       3758       3769       3768       3878       3879       3890       3889  
      3758       3759       3770       3769       3879       3880       3891       3890  
      3759       3760       3771       3770       3880       3881       3892       3891  
      3760       3761       3772       3771       3881       3882       3893       3892  
      3761       3762       3773       3772       3882       3883       3894       3893  
      3763       3764       3775       3774       3884       3885       3896       3895  
      3764       3765       3776       3775       3885       3886       3897       3896  
      3765       3766       3777       3776       3886       3887       3898       3897  
      3766       3767       3778       3777       3887       3888       3899       3898  
      3767       3768       3779       3778       3888       3889       3900       3899  
      3768       3769       3780       3779       3889       3890       3901       3900  
      3769       3770       3781       3780       3890       3891       3902       3901  
      3770       3771       3782       3781       3891       3892       3903       3902  
      3771       3772       3783       3782       3892       3893       3904       3903  
      3772       3773       3784       3783       3893       3894       3905       3904  
      3774       3775       3786       3785       3895       3896       3907       3906  
      3775       3776       3787       3786       3896       3897       3908       3907  
      3776       3777       3788       3787       3897       3898       3909       3908  
      3777       3778       3789       3788       3898       3899       3910       3909  
      3778       3779       3790       3789       3899       3900       3911       3910  
      3779       3780       3791       3790       3900       3901       3912       3911  
      3780       3781       3792       3791       3901       3902       3913       3912  
      3781       3782       3793       3792       3902       3903       3914       3913  
      3782       3783       3794       3793       3903       3904       3915       3914  
      3783       3784       3795       3794       3904       3905       3916       3915  
      3785       3786       3797       3796       3906       3907       3918       3917  
      3786       3787       3798       3797       3907       3908       3919       3918  
      3787       3788       3799       3798       3908       3909       3920       3919  
      3788       3789       3800       3799       3909       3910       3921       3920  
      3789       3790       3801       3800       3910       3911       3922       3921  
      3790       3791       3802       3801       3911       3912       3923       3922  
      3791       3792       3803       3802       3912       3913       3924       3923  
      3792       3793       3804       3803       3913       3914       3925       3924  
      3793       3794       3805       3804       3914       3915       3926       3925  
      3794       3795       3806       3805       3915       3916       3927       3926  
      3796       3797       3808       3807       3917       3918       3929       3928  
      3797       3798       3809       3808       3918       3919       3930       3929  
      3798       3799       3810       3809       3919       3920       3931       3930  
      3799       3800       3811       3810       3920       3921       3932       3931  
      3800       3801       3812       3811       3921       3922       3933       3932  
      3801       3802       3813       3812       3922       3923       3934       3933  
      3802       3803       3814       3813       3923       3924       3935       3934  
      3803       3804       3815       3814       3924       3925       3936       3935  
      3804       3805       3816       3815       3925       3926       3937       3936  
      3805       3806       3817       3816       3926       3927       3938       3937  
      3807       3808       3819       3818       3928       3929       3940       3939  
      3808       3809       3820       3819       3929       3930       3941       3940  
      3809       3810       3821       3820       3930       3931       3942       3941  
      3810       3811       3822       3821       3931       3932       3943       3942  
      3811       3812       3823       3822       3932       3933       3944       3943  
      3812       3813       3824       3823       3933       3934       3945       3944  
      3813       3814       3825       3824       3934       3935       3946       3945  
      3814       3815       3826       3825       3935       3936       3947       3946  
      3815       3816       3827       3826       3936       3937       3948       3947  
      3816       3817       3828       3827       3937       3938       3949       3948  
      3818       3819       3830       3829       3939       3940       3951       3950  
      3819       3820       3831       3830       3940       3941       3952       3951  
      3820       3821       3832       3831       3941       3942       3953       3952  
      3821       3822       3833       3832       3942       3943       3954       3953  
      3822       3823       3834       3833       3943       3944       3955       3954  
      3823       3824       3835       3834       3944       3945       3956       3955  
      3824       3825       3836       3835       3945       3946       3957       3956  
      3825       3826       3837       3836       3946       3947       3958       3957  
      3826       3827       3838       3837       3947       3948       3959       3958  
      3827       3828       3839       3838       3948       3949       3960       3959  
      3829       3830       3841       3840       3950       3951       3962       3961  
      3830       3831       3842       3841       3951       3952       3963       3962  
      3831       3832       3843       3842       3952       3953       3964       3963  
      3832       3833       3844       3843       3953       3954       3965       3964  
      3833       3834       3845       3844       3954       3955       3966       3965  
      3834       3835       3846       3845       3955       3956       3967       3966  
      3835       3836       3847       3846       3956       3957       3968       3967  
      3836       3837       3848       3847       3957       3958       3969       3968  
      3837       3838       3849       3848       3958       3959       3970       3969  
      3838       3839       3850       3849       3959       3960       3971       3970  
      3840       3841       3852       3851       3961       3962       3973       3972  
      3841       3842       3853       3852       3962       3963       3974       3973  
      3842       3843       3854       3853       3963       3964       3975       3974  
      3843       3844       3855       3854       3964       3965       3976       3975  
      3844       3845       3856       3855       3965       3966       3977       3976  
      3845       3846       3857       3856       3966       3967       3978       3977  
      3846       3847       3858       3857       3967       3968       3979       3978  
      3847       3848       3859       3858       3968       3969       3980       3979  
      3848       3849       3860       3859       3969       3970       3981       3980  
      3849       3850       3861       3860       3970       3971       3982       3981  
      3851       3852       3863       3862       3972       3973       3984       3983  
      3852       3853       3864       3863       3973       3974       3985       3984  
      3853       3854       3865       3864       3974       3975       3986       3985  
      3854       3855       3866       3865       3975       3976       3987       3986  
      3855       3856       3867       3866       3976       3977       3988       3987  
      3856       3857       3868       3867       3977       3978       3989       3988  
      3857       3858       3869       3868       3978       3979       3990       3989  
      3858       3859       3870       3869       3979       3980       3991       3990  
      3859       3860       3871       3870       3980       3981       3992       3991  
      3860       3861       3872       3871       3981       3982       3993       3992  
      3873       3874       3885       3884       3994       3995       4006       4005  
      3874       3875       3886       3885       3995       3996       4007       4006  
      3875       3876       3887       3886       3996       3997       4008       4007  
      3876       3877       3888       3887       3997       3998       4009       4008  
      3877       3878       3889       3888       3998       3999       4010       4009  
      3878       3879       3890       3889       3999       4000       4011       4010  
      3879       3880       3891       3890       4000       4001       4012       4011  
      3880       3881       3892       3891       4001       4002       4013       4012  
      3881       3882       3893       3892       4002       4003       4014       4013  
      3882       3883       3894       3893       4003       4004       4015       4014  
      3884       3885       3896       3895       4005       4006       4017       4016  
      3885       3886       3897       3896       4006       4007       4018       4017  
      3886       3887       3898       3897       4007       4008       4019       4018  
      3887       3888       3899       3898       4008       4009       4020       4019  
      3888       3889       3900       3899       4009       4010       4021       4020  
      3889       3890       3901       3900       4010       4011       4022       4021  
      3890       3891       3902       3901       4011       4012       4023       4022  
      3891       3892       3903       3902       4012       4013       4024       4023  
      3892       3893       3904       3903       4013       4014       4025       4024  
      3893       3894       3905       3904       4014       4015       4026       4025  
      3895       3896       3907       3906       4016       4017       4028       4027  
      3896       3897       3908       3907       4017       4018       4029       4028  
      3897       3898       3909       3908       4018       4019       4030       4029  
      3898       3899       3910       3909       4019       4020       4031       4030  
      3899       3900       3911       3910       4020       4021       4032       4031  
      3900       3901       3912       3911       4021       4022       4033       4032  
      3901       3902       3913       3912       4022       4023       4034       4033  
      3902       3903       3914       3913       4023       4024       4035       4034  
      3903       3904       3915       3914       4024       4025       4036       4035  
      3904       3905       3916       3915       4025       4026       4037       4036  
      3906       3907       3918       3917       4027       4028       4039       4038  
      3907       3908       3919       3918       4028       4029       4040       4039  
      3908       3909       3920       3919       4029       4030       4041       4040  
      3909       3910       3921       3920       4030       4031       4042       4041  
      3910       3911       3922       3921       4031       4032       4043       4042  
      3911       3912       3923       3922       4032       4033       4044       4043  
      3912       3913       3924       3923       4033       4034       4045       4044  
      3913       3914       3925       3924       4034       4035       4046       4045  
      3914       3915       3926       3925       4035       4036       4047       4046  
      3915       3916       3927       3926       4036       4037       4048       4047  
      3917       3918       3929       3928       4038       4039       4050       4049  
      3918       3919       3930       3929       4039       4040       4051       4050  
      3919       3920       3931       3930       4040       4041       4052       4051  
      3920       3921       3932       3931       4041       4042       4053       4052  
      3921       3922       3933       3932       4042       4043       4054       4053  
      3922       3923       3934       3933       4043       4044       4055       4054  
      3923       3924       3935       3934       4044       4045       4056       4055  
      3924       3925       3936       3935       4045       4046       4057       4056  
      3925       3926       3937       3936       4046       4047       4058       4057  
      3926       3927       3938       3937       4047       4048       4059       4058  
      3928       3929       3940       3939       4049       4050       4061       4060  
      3929       3930       3941       3940       4050       4051       4062       4061  
      3930       3931       3942       3941       4051       4052       4063       4062  
      3931       3932       3943       3942       4052       4053       4064       4063  
      3932       3933       3944       3943       4053       4054       4065       4064  
      3933       3934       3945       3944       4054       4055       4066       4065  
      3934       3935       3946       3945       4055       4056       4067       4066  
      3935       3936       3947       3946       4056       4057       4068       4067  
      3936       3937       3948       3947       4057       4058       4069       4068  
      3937       3938       3949       3948       4058       4059       4070       4069  
      3939       3940       3951       3950       4060       4061       4072       4071  
      3940       3941       3952       3951       4061       4062       4073       4072  
      3941       3942       3953       3952       4062       4063       4074       4073  
      3942       3943       3954       3953       4063       4064       4075       4074  
      3943       3944       3955       3954       4064       4065       4076       4075  
      3944       3945       3956       3955       4065       4066       4077       4076  
      3945       3946       3957       3956       4066       4067       4078       4077  
      3946       3947       3958       3957       4067       4068       4079       4078  
      3947       3948       3959       3958       4068       4069       4080       4079  
      3948       3949       3960       3959       4069       4070       4081       4080  
      3950       3951       3962       3961       4071       4072       4083       4082  
      3951       3952       3963       3962       4072       4073       4084       4083  
      3952       3953       3964       3963       4073       4074       4085       4084  
      3953       3954       3965       3964       4074       4075       4086       4085  
      3954       3955       3966       3965       4075       4076       4087       4086  
      3955       3956       3967       3966       4076       4077       4088       4087  
      3956       3957       3968       3967       4077       4078       4089       4088  
      3957       3958       3969       3968       4078       4079       4090       4089  
      3958       3959       3970       3969       4079       4080       4091       4090  
      3959       3960       3971       3970       4080       4081       4092       4091  
      3961       3962       3973       3972       4082       4083       4094       4093  
      3962       3963       3974       3973       4083       4084       4095       4094  
      3963       3964       3975       3974       4084       4085       4096       4095  
      3964       3965       3976       3975       4085       4086       4097       4096  
      3965       3966       3977       3976       4086       4087       4098       4097  
      3966       3967       3978       3977       4087       4088       4099       4098  
      3967       3968       3979       3978       4088       4089       4100       4099  
      3968       3969       3980       3979       4089       4090       4101       4100  
      3969       3970       3981       3980       4090       4091       4102       4101  
      3970       3971       3982       3981       4091       4092       4103       4102  
      3972       3973       3984       3983       4093       4094       4105       4104  
      3973       3974       3985       3984       4094       4095       4106       4105  
      3974       3975       3986       3985       4095       4096       4107       4106  
      3975       3976       3987       3986       4096       4097       4108       4107  
      3976       3977       3988       3987       4097       4098       4109       4108  
      3977       3978       3989       3988       4098       4099       4110       4109  
      3978       3979       3990       3989       4099       4100       4111       4110  
      3979       3980       3991       3990       4100       4101       4112       4111  
      3980       3981       3992       3991       4101       4102       4113       4112  
      3981       3982       3993       3992       4102       4103       4114       4113  
      3994       3995       4006       4005       4115       4116       4127       4126  
      3995       3996       4007       4006       4116       4117       4128       4127  
      3996       3997       4008       4007       4117       4118       4129       4128  
      3997       3998       4009       4008       4118       4119       4130       4129  
      3998       3999       4010       4009       4119       4120       4131       4130  
      3999       4000       4011       4010       4120       4121       4132       4131  
      4000       4001       4012       4011       4121       4122       4133       4132  
      4001       4002       4013       4012       4122       4123       4134       4133  
      4002       4003       4014       4013       4123       4124       4135       4134  
      4003       4004       4015       4014       4124       4125       4136       4135  
      4005       4006       4017       4016       4126       4127       4138       4137  
      4006       4007       4018       4017       4127       4128       4139       4138  
      4007       4008       4019       4018       4128       4129       4140       4139  
      4008       4009       4020       4019       4129       4130       4141       4140  
      4009       4010       4021       4020       4130       4131       4142       4141  
      4010       4011       4022       4021       4131       4132       4143       4142  
      4011       4012       4023       4022       4132       4133       4144       4143  
      4012       4013       4024       4023       4133       4134       4145       4144  
      4013       4014       4025       4024       4134       4135       4146       4145  
      4014       4015       4026       4025       4135       4136       4147       4146  
      4016       4017       4028       4027       4137       4138       4149       4148  
      4017       4018       4029       4028       4138       4139       4150       4149  
      4018       4019       4030       4029       4139       4140       4151       4150  
      4019       4020       4031       4030       4140       4141       4152       4151  
      4020       4021       4032       4031       4141       4142       4153       4152  
      4021       4022       4033       4032       4142       4143       4154       4153  
      4022       4023       4034       4033       4143       4144       4155       4154  
      4023       4024       4035       4034       4144       4145       4156       4155  
      4024       4025       4036       4035       4145       4146       4157       4156  
      4025       4026       4037       4036       4146       4147       4158       4157  
      4027       4028       4039       4038       4148       4149       4160       4159  
      4028       4029       4040       4039       4149       4150       4161       4160  
      4029       4030       4041       4040       4150       4151       4162       4161  
      4030       4031       4042       4041       4151       4152       4163       4162  
      4031       4032       4043       4042       4152       4153       4164       4163  
      4032       4033       4044       4043       4153       4154       4165       4164  
      4033       4034       4045       4044       4154       4155       4166       4165  
      4034       4035       4046       4045       4155       4156       4167       4166  
      4035       4036       4047       4046       4156       4157       4168       4167  
      4036       4037       4048       4047       4157       4158       4169       4168  
      4038       4039       4050       4049       4159       4160       4171       4170  
      4039       4040       4051       4050       4160       4161       4172       4171  
      4040       4041       4052       4051       4161       4162       4173       4172  
      4041       4042       4053       4052       4162       4163       4174       4173  
      4042       4043       4054       4053       4163       4164       4175       4174  
      4043       4044       4055       4054       4164       4165       4176       4175  
      4044       4045       4056       4055       4165       4166       4177       4176  
      4045       4046       4057       4056       4166       4167       4178       4177  
      4046       4047       4058       4057       4167       4168       4179       4178  
      4047       4048       4059       4058       4168       4169       4180       4179  
      4049       4050       4061       4060       4170       4171       4182       4181  
      4050       4051       4062       4061       4171       4172       4183       4182  
      4051       4052       4063       4062       4172       4173       4184       4183  
      4052       4053       4064       4063       4173       4174       4185       4184  
      4053       4054       4065       4064       4174       4175       4186       4185  
      4054       4055       4066       4065       4175       4176       4187       4186  
      4055       4056       4067       4066       4176       4177       4188       4187  
      4056       4057       4068       4067       4177       4178       4189       4188  
      4057       4058       4069       4068       4178       4179       4190       4189  
      4058       4059       4070       4069       4179       4180       4191       4190  
      4060       4061       4072       4071       4181       4182       4193       4192  
      4061       4062       4073       4072       4182       4183       4194       4193  
      4062       4063       4074       4073       4183       4184       4195       4194  
      4063       4064       4075       4074       4184       4185       4196       4195  
      4064       4065       4076       4075       4185       4186       4197       4196  
      4065       4066       4077       4076       4186       4187       4198       4197  
      4066       4067       4078       4077       4187       4188       4199       4198  
      4067       4068       4079       4078       4188       4189       4200       4199  
      4068       4069       4080       4079       4189       4190       4201       4200  
      4069       4070       4081       4080       4190       4191       4202       4201  
      4071       4072       4083       4082       4192       4193       4204       4203  
      4072       4073       4084       4083       4193       4194       4205       4204  
      4073       4074       4085       4084       4194       4195       4206       4205  
      4074       4075       4086       4085       4195       4196       4207       4206  
      4075       4076       4087       4086       4196       4197       4208       4207  
      4076       4077       4088       4087       4197       4198       4209       4208  
      4077       4078       4089       4088       4198       4199       4210       4209  
      4078       4079       4090       4089       4199       4200       4211       4210  
      4079       4080       4091       4090       4200       4201       4212       4211  
      4080       4081       4092       4091       4201       4202       4213       4212  
      4082       4083       4094       4093       4203       4204       4215       4214  
      4083       4084       4095       4094       4204       4205       4216       4215  
      4084       4085       4096       4095       4205       4206       4217       4216  
      4085       4086       4097       4096       4206       4207       4218       4217  
      4086       4087       4098       4097       4207       4208       4219       4218  
      4087       4088       4099       4098       4208       4209       4220       4219  
      4088       4089       4100       4099       4209       4210       4221       4220  
      4089       4090       4101       4100       4210       4211       4222       4221  
      4090       4091       4102       4101       4211       4212       4223       4222  
      4091       4092       4103       4102       4212       4213       4224       4223  
      4093       4094       4105       4104       4214       4215       4226       4225  
      4094       4095       4106       4105       4215       4216       4227       4226  
      4095       4096       4107       4106       4216       4217       4228       4227  
      4096       4097       4108       4107       4217       4218       4229       4228  
      4097       4098       4109       4108       4218       4219       4230       4229  
      4098       4099       4110       4109       4219       4220       4231       4230  
      4099       4100       4111       4110       4220       4221       4232       4231  
      4100       4101       4112       4111       4221       4222       4233       4232  
      4101       4102       4113       4112       4222       4223       4234       4233  
      4102       4103       4114       4113       4223       4224       4235       4234  
      4115       4116       4127       4126       4236       4237       4248       4247  
      4116       4117       4128       4127       4237       4238       4249       4248  
      4117       4118       4129       4128       4238       4239       4250       4249  
      4118       4119       4130       4129       4239       4240       4251       4250  
      4119       4120       4131       4130       4240       4241       4252       4251  
      4120       4121       4132       4131       4241       4242       4253       4252  
      4121       4122       4133       4132       4242       4243       4254       4253  
      4122       4123       4134       4133       4243       4244       4255       4254  
      4123       4124       4135       4134       4244       4245       4256       4255  
      4124       4125       4136       4135       4245       4246       4257       4256  
      4126       4127       4138       4137       4247       4248       4259       4258  
      4127       4128       4139       4138       4248       4249       4260       4259  
      4128       4129       4140       4139       4249       4250       4261       4260  
      4129       4130       4141       4140       4250       4251       4262       4261  
      4130       4131       4142       4141       4251       4252       4263       4262  
      4131       4132       4143       4142       4252       4253       4264       4263  
      4132       4133       4144       4143       4253       4254       4265       4264  
      4133       4134       4145       4144       4254       4255       4266       4265  
      4134       4135       4146       4145       4255       4256       4267       4266  
      4135       4136       4147       4146       4256       4257       4268       4267  
      4137       4138       4149       4148       4258       4259       4270       4269  
      4138       4139       4150       4149       4259       4260       4271       4270  
      4139       4140       4151       4150       4260       4261       4272       4271  
      4140       4141       4152       4151       4261       4262       4273       4272  
      4141       4142       4153       4152       4262       4263       4274       4273  
      4142       4143       4154       4153       4263       4264       4275       4274  
      4143       4144       4155       4154       4264       4265       4276       4275  
      4144       4145       4156       4155       4265       4266       4277       4276  
      4145       4146       4157       4156       4266       4267       4278       4277  
      4146       4147       4158       4157       4267       4268       4279       4278  
      4148       4149       4160       4159       4269       4270       4281       4280  
      4149       4150       4161       4160       4270       4271       4282       4281  
      4150       4151       4162       4161       4271       4272       4283       4282  
      4151       4152       4163       4162       4272       4273       4284       4283  
      4152       4153       4164       4163       4273       4274       4285       4284  
      4153       4154       4165       4164       4274       4275       4286       4285  
      4154       4155       4166       4165       4275       4276       4287       4286  
      4155       4156       4167       4166       4276       4277       4288       4287  
      4156       4157       4168       4167       4277       4278       4289       4288  
      4157       4158       4169       4168       4278       4279       4290       4289  
      4159       4160       4171       4170       4280       4281       4292       4291  
      4160       4161       4172       4171       4281       4282       4293       4292  
      4161       4162       4173       4172       4282       4283       4294       4293  
      4162       4163       4174       4173       4283       4284       4295       4294  
      4163       4164       4175       4174       4284       4285       4296       4295  
      4164       4165       4176       4175       4285       4286       4297       4296  
      4165       4166       4177       4176       4286       4287       4298       4297  
      4166       4167       4178       4177       4287       4288       4299       4298  
      4167       4168       4179       4178       4288       4289       4300       4299  
      4168       4169       4180       4179       4289       4290       4301       4300  
      4170       4171       4182       4181       4291       4292       4303       4302  
      4171       4172       4183       4182       4292       4293       4304       4303  
      4172       4173       4184       4183       4293       4294       4305       4304  
      4173       4174       4185       4184       4294       4295       4306       4305  
      4174       4175       4186       4185       4295       4296       4307       4306  
      4175       4176       4187       4186       4296       4297       4308       4307  
      4176       4177       4188       4187       4297       4298       4309       4308  
      4177       4178       4189       4188       4298       4299       4310       4309  
      4178       4179       4190       4189       4299       4300       4311       4310  
      4179       4180       4191       4190       4300       4301       4312       4311  
      4181       4182       4193       4192       4302       4303       4314       4313  
      4182       4183       4194       4193       4303       4304       4315       4314  
      4183       4184       4195       4194       4304       4305       4316       4315  
      4184       4185       4196       4195       4305       4306       4317       4316  
      4185       4186       4197       4196       4306       4307       4318       4317  
      4186       4187       4198       4197       4307       4308       4319       4318  
      4187       4188       4199       4198       4308       4309       4320       4319  
      4188       4189       4200       4199       4309       4310       4321       4320  
      4189       4190       4201       4200       4310       4311       4322       4321  
      4190       4191       4202       4201       4311       4312       4323       4322  
      4192       4193       4204       4203       4313       4314       4325       4324  
      4193       4194       4205       4204       4314       4315       4326       4325  
      4194       4195       4206       4205       4315       4316       4327       4326  
      4195       4196       4207       4206       4316       4317       4328       4327  
      4196       4197       4208       4207       4317       4318       4329       4328  
      4197       4198       4209       4208       4318       4319       4330       4329  
      4198       4199       4210       4209       4319       4320       4331       4330  
      4199       4200       4211       4210       4320       4321       4332       4331  
      4200       4201       4212       4211       4321       4322       4333       4332  
      4201       4202       4213       4212       4322       4323       4334       4333  
      4203       4204       4215       4214       4324       4325       4336       4335  
      4204       4205       4216       4215       4325       4326       4337       4336  
      4205       4206       4217       4216       4326       4327       4338       4337  
      4206       4207       4218       4217       4327       4328       4339       4338  
      4207       4208       4219       4218       4328       4329       4340       4339  
      4208       4209       4220       4219       4329       4330       4341       4340  
      4209       4210       4221       4220       4330       4331       4342       4341  
      4210       4211       4222       4221       4331       4332       4343       4342  
      4211       4212       4223       4222       4332       4333       4344       4343  
      4212       4213       4224       4223       4333       4334       4345       4344  
      4214       4215       4226       4225       4335       4336       4347       4346  
      4215       4216       4227       4226       4336       4337       4348       4347  
      4216       4217       4228       4227       4337       4338       4349       4348  
      4217       4218       4229       4228       4338       4339       4350       4349  
      4218       4219       4230       4229       4339       4340       4351       4350  
      4219       4220       4231       4230       4340       4341       4352       4351  
      4220       4221       4232       4231       4341       4342       4353       4352  
      4221       4222       4233       4232       4342       4343       4354       4353  
      4222       4223       4234       4233       4343       4344       4355       4354  
      4223       4224       4235       4234       4344       4345       4356       4355  
      4236       4237       4248       4247       4357       4358       4369       4368  
      4237       4238       4249       4248       4358       4359       4370       4369  
      4238       4239       4250       4249       4359       4360       4371       4370  
      4239       4240       4251       4250       4360       4361       4372       4371  
      4240       4241       4252       4251       4361       4362       4373       4372  
      4241       4242       4253       4252       4362       4363       4374       4373  
      4242       4243       4254       4253       4363       4364       4375       4374  
      4243       4244       4255       4254       4364       4365       4376       4375  
      4244       4245       4256       4255       4365       4366       4377       4376  
      4245       4246       4257       4256       4366       4367       4378       4377  
      4247       4248       4259       4258       4368       4369       4380       4379  
      4248       4249       4260       4259       4369       4370       4381       4380  
      4249       4250       4261       4260       4370       4371       4382       4381  
      4250       4251       4262       4261       4371       4372       4383       4382  
      4251       4252       4263       4262       4372       4373       4384       4383  
      4252       4253       4264       4263       4373       4374       4385       4384  
      4253       4254       4265       4264       4374       4375       4386       4385  
      4254       4255       4266       4265       4375       4376       4387       4386  
      4255       4256       4267       4266       4376       4377       4388       4387  
      4256       4257       4268       4267       4377       4378       4389       4388  
      4258       4259       4270       4269       4379       4380       4391       4390  
      4259       4260       4271       4270       4380       4381       4392       4391  
      4260       4261       4272       4271       4381       4382       4393       4392  
      4261       4262       4273       4272       4382       4383       4394       4393  
      4262       4263       4274       4273       4383       4384       4395       4394  
      4263       4264       4275       4274       4384       4385       4396       4395  
      4264       4265       4276       4275       4385       4386       4397       4396  
      4265       4266       4277       4276       4386       4387       4398       4397  
      4266       4267       4278       4277       4387       4388       4399       4398  
      4267       4268       4279       4278       4388       4389       4400       4399  
      4269       4270       4281       4280       4390       4391       4402       4401  
      4270       4271       4282       4281       4391       4392       4403       4402  
      4271       4272       4283       4282       4392       4393       4404       4403  
      4272       4273       4284       4283       4393       4394       4405       4404  
      4273       4274       4285       4284       4394       4395       4406       4405  
      4274       4275       4286       4285       4395       4396       4407       4406  
      4275       4276       4287       4286       4396       4397       4408       4407  
      4276       4277       4288       4287       4397       4398       4409       4408  
      4277       4278       4289       4288       4398       4399       4410       4409  
      4278       4279       4290       4289       4399       4400       4411       4410  
      4280       4281       4292       4291       4401       4402       4413       4412  
      4281       4282       4293       4292       4402       4403       4414       4413  
      4282       4283       4294       4293       4403       4404       4415       4414  
      4283       4284       4295       4294       4404       4405       4416       4415  
      4284       4285       4296       4295       4405       4406       4417       4416  
      4285       4286       4297       4296       4406       4407       4418       4417  
      4286       4287       4298       4297       4407       4408       4419       4418  
      4287       4288       4299       4298       4408       4409       4420       4419  
      4288       4289       4300       4299       4409       4410       4421       4420  
      4289       4290       4301       4300       4410       4411       4422       4421  
      4291       4292       4303       4302       4412       4413       4424       4423  
      4292       4293       4304       4303       4413       4414       4425       4424  
      4293       4294       4305       4304       4414       4415       4426       4425  
      4294       4295       4306       4305       4415       4416       4427       4426  
      4295       4296       4307       4306       4416       4417       4428       4427  
      4296       4297       4308       4307       4417       4418       4429       4428  
      4297       4298       4309       4308       4418       4419       4430       4429  
      4298       4299       4310       4309       4419       4420       4431       4430  
      4299       4300       4311       4310       4420       4421       4432       4431  
      4300       4301       4312       4311       4421       4422       4433       4432  
      4302       4303       4314       4313       4423       4424       4435       4434  
      4303       4304       4315       4314       4424       4425       4436       4435  
      4304       4305       4316       4315       4425       4426       4437       4436  
      4305       4306       4317       4316       4426       4427       4438       4437  
      4306       4307       4318       4317       4427       4428       4439       4438  
      4307       4308       4319       4318       4428       4429       4440       4439  
      4308       4309       4320       4319       4429       4430       4441       4440  
      4309       4310       4321       4320       4430       4431       4442       4441  
      4310       4311       4322       4321       4431       4432       4443       4442  
      4311       4312       4323       4322       4432       4433       4444       4443  
      4313       4314       4325       4324       4434       4435       4446       4445  
      4314       4315       4326       4325       4435       4436       4447       4446  
      4315       4316       4327       4326       4436       4437       4448       4447  
      4316       4317       4328       4327       4437       4438       4449       4448  
      4317       4318       4329       4328       4438       4439       4450       4449  
      4318       4319       4330       4329       4439       4440       4451       4450  
      4319       4320       4331       4330       4440       4441       4452       4451  
      4320       4321       4332       4331       4441       4442       4453       4452  
      4321       4322       4333       4332       4442       4443       4454       4453  
      4322       4323       4334       4333       4443       4444       4455       4454  
      4324       4325       4336       4335       4445       4446       4457       4456  
      4325       4326       4337       4336       4446       4447       4458       4457  
      4326       4327       4338       4337       4447       4448       4459       4458  
      4327       4328       4339       4338       4448       4449       4460       4459  
      4328       4329       4340       4339       4449       4450       4461       4460  
      4329       4330       4341       4340       4450       4451       4462       4461  
      4330       4331       4342       4341       4451       4452       4463       4462  
      4331       4332       4343       4342       4452       4453       4464       4463  
      4332       4333       4344       4343       4453       4454       4465       4464  
      4333       4334       4345       4344       4454       4455       4466       4465  
      4335       4336       4347       4346       4456       4457       4468       4467  
      4336       4337       4348       4347       4457       4458       4469       4468  
      4337       4338       4349       4348       4458       4459       4470       4469  
      4338       4339       4350       4349       4459       4460       4471       4470  
      4339       4340       4351       4350       4460       4461       4472       4471  
      4340       4341       4352       4351       4461       4462       4473       4472  
      4341       4342       4353       4352       4462       4463       4474       4473  
      4342       4343       4354       4353       4463       4464       4475       4474  
      4343       4344       4355       4354       4464       4465       4476       4475  
      4344       4345       4356       4355       4465       4466       4477       4476  
      4357       4358       4369       4368       4478       4479       4490       4489  
      4358       4359       4370       4369       4479       4480       4491       4490  
      4359       4360       4371       4370       4480       4481       4492       4491  
      4360       4361       4372       4371       4481       4482       4493       4492  
      4361       4362       4373       4372       4482       4483       4494       4493  
      4362       4363       4374       4373       4483       4484       4495       4494  
      4363       4364       4375       4374       4484       4485       4496       4495  
      4364       4365       4376       4375       4485       4486       4497       4496  
      4365       4366       4377       4376       4486       4487       4498       4497  
      4366       4367       4378       4377       4487       4488       4499       4498  
      4368       4369       4380       4379       4489       4490       4501       4500  
      4369       4370       4381       4380       4490       4491       4502       4501  
      4370       4371       4382       4381       4491       4492       4503       4502  
      4371       4372       4383       4382       4492       4493       4504       4503  
      4372       4373       4384       4383       4493       4494       4505       4504  
      4373       4374       4385       4384       4494       4495       4506       4505  
      4374       4375       4386       4385       4495       4496       4507       4506  
      4375       4376       4387       4386       4496       4497       4508       4507  
      4376       4377       4388       4387       4497       4498       4509       4508  
      4377       4378       4389       4388       4498       4499       4510       4509  
      4379       4380       4391       4390       4500       4501       4512       4511  
      4380       4381       4392       4391       4501       4502       4513       4512  
      4381       4382       4393       4392       4502       4503       4514       4513  
      4382       4383       4394       4393       4503       4504       4515       4514  
      4383       4384       4395       4394       4504       4505       4516       4515  
      4384       4385       4396       4395       4505       4506       4517       4516  
      4385       4386       4397       4396       4506       4507       4518       4517  
      4386       4387       4398       4397       4507       4508       4519       4518  
      4387       4388       4399       4398       4508       4509       4520       4519  
      4388       4389       4400       4399       4509       4510       4521       4520  
      4390       4391       4402       4401       4511       4512       4523       4522  
      4391       4392       4403       4402       4512       4513       4524       4523  
      4392       4393       4404       4403       4513       4514       4525       4524  
      4393       4394       4405       4404       4514       4515       4526       4525  
      4394       4395       4406       4405       4515       4516       4527       4526  
      4395       4396       4407       4406       4516       4517       4528       4527  
      4396       4397       4408       4407       4517       4518       4529       4528  
      4397       4398       4409       4408       4518       4519       4530       4529  
      4398       4399       4410       4409       4519       4520       4531       4530  
      4399       4400       4411       4410       4520       4521       4532       4531  
      4401       4402       4413       4412       4522       4523       4534       4533  
      4402       4403       4414       4413       4523       4524       4535       4534  
      4403       4404       4415       4414       4524       4525       4536       4535  
      4404       4405       4416       4415       4525       4526       4537       4536  
      4405       4406       4417       4416       4526       4527       4538       4537  
      4406       4407       4418       4417       4527       4528       4539       4538  
      4407       4408       4419       4418       4528       4529       4540       4539  
      4408       4409       4420       4419       4529       4530       4541       4540  
      4409       4410       4421       4420       4530       4531       4542       4541  
      4410       4411       4422       4421       4531       4532       4543       4542  
      4412       4413       4424       4423       4533       4534       4545       4544  
      4413       4414       4425       4424       4534       4535       4546       4545  
      4414       4415       4426       4425       4535       4536       4547       4546  
      4415       4416       4427       4426       4536       4537       4548       4547  
      4416       4417       4428       4427       4537       4538       4549       4548  
      4417       4418       4429       4428       4538       4539       4550       4549  
      4418       4419       4430       4429       4539       4540       4551       4550  
      4419       4420       4431       4430       4540       4541       4552       4551  
      4420       4421       4432       4431       4541       4542       4553       4552  
      4421       4422       4433       4432       4542       4543       4554       4553  
      4423       4424       4435       4434       4544       4545       4556       4555  
      4424       4425       4436       4435       4545       4546       4557       4556  
      4425       4426       4437       4436       4546       4547       4558       4557  
      4426       4427       4438       4437       4547       4548       4559       4558  
      4427       4428       4439       4438       4548       4549       4560       4559  
      4428       4429       4440       4439       4549       4550       4561       4560  
      4429       4430       4441       4440       4550       4551       4562       4561  
      4430       4431       4442       4441       4551       4552       4563       4562  
      4431       4432       4443       4442       4552       4553       4564       4563  
      4432       4433       4444       4443       4553       4554       4565       4564  
      4434       4435       4446       4445       4555       4556       4567       4566  
      4435       4436       4447       4446       4556       4557       4568       4567  
      4436       4437       4448       4447       4557       4558       4569       4568  
      4437       4438       4449       4448       4558       4559       4570       4569  
      4438       4439       4450       4449       4559       4560       4571       4570  
      4439       4440       4451       4450       4560       4561       4572       4571  
      4440       4441       4452       4451       4561       4562       4573       4572  
      4441       4442       4453       4452       4562       4563       4574       4573  
      4442       4443       4454       4453       4563       4564       4575       4574  
      4443       4444       4455       4454       4564       4565       4576       4575  
      4445       4446       4457       4456       4566       4567       4578       4577  
      4446       4447       4458       4457       4567       4568       4579       4578  
      4447       4448       4459       4458       4568       4569       4580       4579  
      4448       4449       4460       4459       4569       4570       4581       4580  
      4449       4450       4461       4460       4570       4571       4582       4581  
      4450       4451       4462       4461       4571       4572       4583       4582  
      4451       4452       4463       4462       4572       4573       4584       4583  
      4452       4453       4464       4463       4573       4574       4585       4584  
      4453       4454       4465       4464       4574       4575       4586       4585  
      4454       4455       4466       4465       4575       4576       4587       4586  
      4456       4457       4468       4467       4577       4578       4589       4588  
      4457       4458       4469       4468       4578       4579       4590       4589  
      4458       4459       4470       4469       4579       4580       4591       4590  
      4459       4460       4471       4470       4580       4581       4592       4591  
      4460       4461       4472       4471       4581       4582       4593       4592  
      4461       4462       4473       4472       4582       4583       4594       4593  
      4462       4463       4474       4473       4583       4584       4595       4594  
      4463       4464       4475       4474       4584       4585       4596       4595  
      4464       4465       4476       4475       4585       4586       4597       4596  
      4465       4466       4477       4476       4586       4587       4598       4597  
      4478       4479       4490       4489       4599       4600       4611       4610  
      4479       4480       4491       4490       4600       4601       4612       4611  
      4480       4481       4492       4491       4601       4602       4613       4612  
      4481       4482       4493       4492       4602       4603       4614       4613  
      4482       4483       4494       4493       4603       4604       4615       4614  
      4483       4484       4495       4494       4604       4605       4616       4615  
      4484       4485       4496       4495       4605       4606       4617       4616  
      4485       4486       4497       4496       4606       4607       4618       4617  
      4486       4487       4498       4497       4607       4608       4619       4618  
      4487       4488       4499       4498       4608       4609       4620       4619  
      4489       4490       4501       4500       4610       4611       4622       4621  
      4490       4491       4502       4501       4611       4612       4623       4622  
      4491       4492       4503       4502       4612       4613       4624       4623  
      4492       4493       4504       4503       4613       4614       4625       4624  
      4493       4494       4505       4504       4614       4615       4626       4625  
      4494       4495       4506       4505       4615       4616       4627       4626  
      4495       4496       4507       4506       4616       4617       4628       4627  
      4496       4497       4508       4507       4617       4618       4629       4628  
      4497       4498       4509       4508       4618       4619       4630       4629  
      4498       4499       4510       4509       4619       4620       4631       4630  
      4500       4501       4512       4511       4621       4622       4633       4632  
      4501       4502       4513       4512       4622       4623       4634       4633  
      4502       4503       4514       4513       4623       4624       4635       4634  
      4503       4504       4515       4514       4624       4625       4636       4635  
      4504       4505       4516       4515       4625       4626       4637       4636  
      4505       4506       4517       4516       4626       4627       4638       4637  
      4506       4507       4518       4517       4627       4628       4639       4638  
      4507       4508       4519       4518       4628       4629       4640       4639  
      4508       4509       4520       4519       4629       4630       4641       4640  
      4509       4510       4521       4520       4630       4631       4642       4641  
      4511       4512       4523       4522       4632       4633       4644       4643  
      4512       4513       4524       4523       4633       4634       4645       4644  
      4513       4514       4525       4524       4634       4635       4646       4645  
      4514       4515       4526       4525       4635       4636       4647       4646  
      4515       4516       4527       4526       4636       4637       4648       4647  
      4516       4517       4528       4527       4637       4638       4649       4648  
      4517       4518       4529       4528       4638       4639       4650       4649  
      4518       4519       4530       4529       4639       4640       4651       4650  
      4519       4520       4531       4530       4640       4641       4652       4651  
      4520       4521       4532       4531       4641       4642       4653       4652  
      4522       4523       4534       4533       4643       4644       4655       4654  
      4523       4524       4535       4534       4644       4645       4656       4655  
      4524       4525       4536       4535       4645       4646       4657       4656  
      4525       4526       4537       4536       4646       4647       4658       4657  
      4526       4527       4538       4537       4647       4648       4659       4658  
      4527       4528       4539       4538       4648       4649       4660       4659  
      4528       4529       4540       4539       4649       4650       4661       4660  
      4529       4530       4541       4540       4650       4651       4662       4661  
      4530       4531       4542       4541       4651       4652       4663       4662  
      4531       4532       4543       4542       4652       4653       4664       4663  
      4533       4534       4545       4544       4654       4655       4666       4665  
      4534       4535       4546       4545       4655       4656       4667       4666  
      4535       4536       4547       4546       4656       4657       4668       4667  
      4536       4537       4548       4547       4657       4658       4669       4668  
      4537       4538       4549       4548       4658       4659       4670       4669  
      4538       4539       4550       4549       4659       4660       4671       4670  
      4539       4540       4551       4550       4660       4661       4672       4671  
      4540       4541       4552       4551       4661       4662       4673       4672  
      4541       4542       4553       4552       4662       4663       4674       4673  
      4542       4543       4554       4553       4663       4664       4675       4674  
      4544       4545       4556       4555       4665       4666       4677       4676  
      4545       4546       4557       4556       4666       4667       4678       4677  
      4546       4547       4558       4557       4667       4668       4679       4678  
      4547       4548       4559       4558       4668       4669       4680       4679  
      4548       4549       4560       4559       4669       4670       4681       4680  
      4549       4550       4561       4560       4670       4671       4682       4681  
      4550       4551       4562       4561       4671       4672       4683       4682  
      4551       4552       4563       4562       4672       4673       4684       4683  
      4552       4553       4564       4563       4673       4674       4685       4684  
      4553       4554       4565       4564       4674       4675       4686       4685  
      4555       4556       4567       4566       4676       4677       4688       4687  
      4556       4557       4568       4567       4677       4678       4689       4688  
      4557       4558       4569       4568       4678       4679       4690       4689  
      4558       4559       4570       4569       4679       4680       4691       4690  
      4559       4560       4571       4570       4680       4681       4692       4691  
      4560       4561       4572       4571       4681       4682       4693       4692  
      4561       4562       4573       4572       4682       4683       4694       4693  
      4562       4563       4574       4573       4683       4684       4695       4694  
      4563       4564       4575       4574       4684       4685       4696       4695  
      4564       4565       4576       4575       4685       4686       4697       4696  
      4566       4567       4578       4577       4687       4688       4699       4698  
      4567       4568       4579       4578       4688       4689       4700       4699  
      4568       4569       4580       4579       4689       4690       4701       4700  
      4569       4570       4581       4580       4690       4691       4702       4701  
      4570       4571       4582       4581       4691       4692       4703       4702  
      4571       4572       4583       4582       4692       4693       4704       4703  
      4572       4573       4584       4583       4693       4694       4705       4704  
      4573       4574       4585       4584       4694       4695       4706       4705  
      4574       4575       4586       4585       4695       4696       4707       4706  
      4575       4576       4587       4586       4696       4697       4708       4707  
      4577       4578       4589       4588       4698       4699       4710       4709  
      4578       4579       4590       4589       4699       4700       4711       4710  
      4579       4580       4591       4590       4700       4701       4712       4711  
      4580       4581       4592       4591       4701       4702       4713       4712  
      4581       4582       4593       4592       4702       4703       4714       4713  
      4582       4583       4594       4593       4703       4704       4715       4714  
      4583       4584       4595       4594       4704       4705       4716       4715  
      4584       4585       4596       4595       4705       4706       4717       4716  
      4585       4586       4597       4596       4706       4707       4718       4717  
      4586       4587       4598       4597       4707       4708       4719       4718  
      4599       4600       4611       4610       4720       4721       4732       4731  
      4600       4601       4612       4611       4721       4722       4733       4732  
      4601       4602       4613       4612       4722       4723       4734       4733  
      4602       4603       4614       4613       4723       4724       4735       4734  
      4603       4604       4615       4614       4724       4725       4736       4735  
      4604       4605       4616       4615       4725       4726       4737       4736  
      4605       4606       4617       4616       4726       4727       4738       4737  
      4606       4607       4618       4617       4727       4728       4739       4738  
      4607       4608       4619       4618       4728       4729       4740       4739  
      4608       4609       4620       4619       4729       4730       4741       4740  
      4610       4611       4622       4621       4731       4732       4743       4742  
      4611       4612       4623       4622       4732       4733       4744       4743  
      4612       4613       4624       4623       4733       4734       4745       4744  
      4613       4614       4625       4624       4734       4735       4746       4745  
      4614       4615       4626       4625       4735       4736       4747       4746  
      4615       4616       4627       4626       4736       4737       4748       4747  
      4616       4617       4628       4627       4737       4738       4749       4748  
      4617       4618       4629       4628       4738       4739       4750       4749  
      4618       4619       4630       4629       4739       4740       4751       4750  
      4619       4620       4631       4630       4740       4741       4752       4751  
      4621       4622       4633       4632       4742       4743       4754       4753  
      4622       4623       4634       4633       4743       4744       4755       4754  
      4623       4624       4635       4634       4744       4745       4756       4755  
      4624       4625       4636       4635       4745       4746       4757       4756  
      4625       4626       4637       4636       4746       4747       4758       4757  
      4626       4627       4638       4637       4747       4748       4759       4758  
      4627       4628       4639       4638       4748       4749       4760       4759  
      4628       4629       4640       4639       4749       4750       4761       4760  
      4629       4630       4641       4640       4750       4751       4762       4761  
      4630       4631       4642       4641       4751       4752       4763       4762  
      4632       4633       4644       4643       4753       4754       4765       4764  
      4633       4634       4645       4644       4754       4755       4766       4765  
      4634       4635       4646       4645       4755       4756       4767       4766  
      4635       4636       4647       4646       4756       4757       4768       4767  
      4636       4637       4648       4647       4757       4758       4769       4768  
      4637       4638       4649       4648       4758       4759       4770       4769  
      4638       4639       4650       4649       4759       4760       4771       4770  
      4639       4640       4651       4650       4760       4761       4772       4771  
      4640       4641       4652       4651       4761       4762       4773       4772  
      4641       4642       4653       4652       4762       4763       4774       4773  
      4643       4644       4655       4654       4764       4765       4776       4775  
      4644       4645       4656       4655       4765       4766       4777       4776  
      4645       4646       4657       4656       4766       4767       4778       4777  
      4646       4647       4658       4657       4767       4768       4779       4778  
      4647       4648       4659       4658       4768       4769       4780       4779  
      4648       4649       4660       4659       4769       4770       4781       4780  
      4649       4650       4661       4660       4770       4771       4782       4781  
      4650       4651       4662       4661       4771       4772       4783       4782  
      4651       4652       4663       4662       4772       4773       4784       4783  
      4652       4653       4664       4663       4773       4774       4785       4784  
      4654       4655       4666       4665       4775       4776       4787       4786  
      4655       4656       4667       4666       4776       4777       4788       4787  
      4656       4657       4668       4667       4777       4778       4789       4788  
      4657       4658       4669       4668       4778       4779       4790       4789  
      4658       4659       4670       4669       4779       4780       4791       4790  
      4659       4660       4671       4670       4780       4781       4792       4791  
      4660       4661       4672       4671       4781       4782       4793       4792  
      4661       4662       4673       4672       4782       4783       4794       4793  
      4662       4663       4674       4673       4783       4784       4795       4794  
      4663       4664       4675       4674       4784       4785       4796       4795  
      4665       4666       4677       4676       4786       4787       4798       4797  
      4666       4667       4678       4677       4787       4788       4799       4798  
      4667       4668       4679       4678       4788       4789       4800       4799  
      4668       4669       4680       4679       4789       4790       4801       4800  
      4669       4670       4681       4680       4790       4791       4802       4801  
      4670       4671       4682       4681       4791       4792       4803       4802  
      4671       4672       4683       4682       4792       4793       4804       4803  
      4672       4673       4684       4683       4793       4794       4805       4804  
      4673       4674       4685       4684       4794       4795       4806       4805  
      4674       4675       4686       4685       4795       4796       4807       4806  
      4676       4677       4688       4687       4797       4798       4809       4808  
      4677       4678       4689       4688       4798       4799       4810       4809  
      4678       4679       4690       4689       4799       4800       4811       4810  
      4679       4680       4691       4690       4800       4801       4812       4811  
      4680       4681       4692       4691       4801       4802       4813       4812  
      4681       4682       4693       4692       4802       4803       4814       4813  
      4682       4683       4694       4693       4803       4804       4815       4814  
      4683       4684       4695       4694       4804       4805       4816       4815  
      4684       4685       4696       4695       4805       4806       4817       4816  
      4685       4686       4697       4696       4806       4807       4818       4817  
      4687       4688       4699       4698       4808       4809       4820       4819  
      4688       4689       4700       4699       4809       4810       4821       4820  
      4689       4690       4701       4700       4810       4811       4822       4821  
      4690       4691       4702       4701       4811       4812       4823       4822  
      4691       4692       4703       4702       4812       4813       4824       4823  
      4692       4693       4704       4703       4813       4814       4825       4824  
      4693       4694       4705       4704       4814       4815       4826       4825  
      4694       4695       4706       4705       4815       4816       4827       4826  
      4695       4696       4707       4706       4816       4817       4828       4827  
      4696       4697       4708       4707       4817       4818       4829       4828  
      4698       4699       4710       4709       4819       4820       4831       4830  
      4699       4700       4711       4710       4820       4821       4832       4831  
      4700       4701       4712       4711       4821       4822       4833       4832  
      4701       4702       4713       4712       4822       4823       4834       4833  
      4702       4703       4714       4713       4823       4824       4835       4834  
      4703       4704       4715       4714       4824       4825       4836       4835  
      4704       4705       4716       4715       4825       4826       4837       4836  
      4705       4706       4717       4716       4826       4827       4838       4837  
      4706       4707       4718       4717       4827       4828       4839       4838  
      4707       4708       4719       4718       4828       4829       4840       4839  
      4720       4721       4732       4731       4841       4842       4853       4852  
      4721       4722       4733       4732       4842       4843       4854       4853  
      4722       4723       4734       4733       4843       4844       4855       4854  
      4723       4724       4735       4734       4844       4845       4856       4855  
      4724       4725       4736       4735       4845       4846       4857       4856  
      4725       4726       4737       4736       4846       4847       4858       4857  
      4726       4727       4738       4737       4847       4848       4859       4858  
      4727       4728       4739       4738       4848       4849       4860       4859  
      4728       4729       4740       4739       4849       4850       4861       4860  
      4729       4730       4741       4740       4850       4851       4862       4861  
      4731       4732       4743       4742       4852       4853       4864       4863  
      4732       4733       4744       4743       4853       4854       4865       4864  
      4733       4734       4745       4744       4854       4855       4866       4865  
      4734       4735       4746       4745       4855       4856       4867       4866  
      4735       4736       4747       4746       4856       4857       4868       4867  
      4736       4737       4748       4747       4857       4858       4869       4868  
      4737       4738       4749       4748       4858       4859       4870       4869  
      4738       4739       4750       4749       4859       4860       4871       4870  
      4739       4740       4751       4750       4860       4861       4872       4871  
      4740       4741       4752       4751       4861       4862       4873       4872  
      4742       4743       4754       4753       4863       4864       4875       4874  
      4743       4744       4755       4754       4864       4865       4876       4875  
      4744       4745       4756       4755       4865       4866       4877       4876  
      4745       4746       4757       4756       4866       4867       4878       4877  
      4746       4747       4758       4757       4867       4868       4879       4878  
      4747       4748       4759       4758       4868       4869       4880       4879  
      4748       4749       4760       4759       4869       4870       4881       4880  
      4749       4750       4761       4760       4870       4871       4882       4881  
      4750       4751       4762       4761       4871       4872       4883       4882  
      4751       4752       4763       4762       4872       4873       4884       4883  
      4753       4754       4765       4764       4874       4875       4886       4885  
      4754       4755       4766       4765       4875       4876       4887       4886  
      4755       4756       4767       4766       4876       4877       4888       4887  
      4756       4757       4768       4767       4877       4878       4889       4888  
      4757       4758       4769       4768       4878       4879       4890       4889  
      4758       4759       4770       4769       4879       4880       4891       4890  
      4759       4760       4771       4770       4880       4881       4892       4891  
      4760       4761       4772       4771       4881       4882       4893       4892  
      4761       4762       4773       4772       4882       4883       4894       4893  
      4762       4763       4774       4773       4883       4884       4895       4894  
      4764       4765       4776       4775       4885       4886       4897       4896  
      4765       4766       4777       4776       4886       4887       4898       4897  
      4766       4767       4778       4777       4887       4888       4899       4898  
      4767       4768       4779       4778       4888       4889       4900       4899  
      4768       4769       4780       4779       4889       4890       4901       4900  
      4769       4770       4781       4780       4890       4891       4902       4901  
      4770       4771       4782       4781       4891       4892       4903       4902  
      4771       4772       4783       4782       4892       4893       4904       4903  
      4772       4773       4784       4783       4893       4894       4905       4904  
      4773       4774       4785       4784       4894       4895       4906       4905  
      4775       4776       4787       4786       4896       4897       4908       4907  
      4776       4777       4788       4787       4897       4898       4909       4908  
      4777       4778       4789       4788       4898       4899       4910       4909  
      4778       4779       4790       4789       4899       4900       4911       4910  
      4779       4780       4791       4790       4900       4901       4912       4911  
      4780       4781       4792       4791       4901       4902       4913       4912  
      4781       4782       4793       4792       4902       4903       4914       4913  
      4782       4783       4794       4793       4903       4904       4915       4914  
      4783       4784       4795       4794       4904       4905       4916       4915  
      4784       4785       4796       4795       4905       4906       4917       4916  
      4786       4787       4798       4797       4907       4908       4919       4918  
      4787       4788       4799       4798       4908       4909       4920       4919  
      4788       4789       4800       4799       4909       4910       4921       4920  
      4789       4790       4801       4800       4910       4911       4922       4921  
      4790       4791       4802       4801       4911       4912       4923       4922  
      4791       4792       4803       4802       4912       4913       4924       4923  
      4792       4793       4804       4803       4913       4914       4925       4924  
      4793       4794       4805       4804       4914       4915       4926       4925  
      4794       4795       4806       4805       4915       4916       4927       4926  
      4795       4796       4807       4806       4916       4917       4928       4927  
      4797       4798       4809       4808       4918       4919       4930       4929  
      4798       4799       4810       4809       4919       4920       4931       4930  
      4799       4800       4811       4810       4920       4921       4932       4931  
      4800       4801       4812       4811       4921       4922       4933       4932  
      4801       4802       4813       4812       4922       4923       4934       4933  
      4802       4803       4814       4813       4923       4924       4935       4934  
      4803       4804       4815       4814       4924       4925       4936       4935  
      4804       4805       4816       4815       4925       4926       4937       4936  
      4805       4806       4817       4816       4926       4927       4938       4937  
      4806       4807       4818       4817       4927       4928       4939       4938  
      4808       4809       4820       4819       4929       4930       4941       4940  
      4809       4810       4821       4820       4930       4931       4942       4941  
      4810       4811       4822       4821       4931       4932       4943       4942  
      4811       4812       4823       4822       4932       4933       4944       4943  
      4812       4813       4824       4823       4933       4934       4945       4944  
      4813       4814       4825       4824       4934       4935       4946       4945  
      4814       4815       4826       4825       4935       4936       4947       4946  
      4815       4816       4827       4826       4936       4937       4948       4947  
      4816       4817       4828       4827       4937       4938       4949       4948  
      4817       4818       4829       4828       4938       4939       4950       4949  
      4819       4820       4831       4830       4940       4941       4952       4951  
      4820       4821       4832       4831       4941       4942       4953       4952  
      4821       4822       4833       4832       4942       4943       4954       4953  
      4822       4823       4834       4833       4943       4944       4955       4954  
      4823       4824       4835       4834       4944       4945       4956       4955  
      4824       4825       4836       4835       4945       4946       4957       4956  
      4825       4826       4837       4836       4946       4947       4958       4957  
      4826       4827       4838       4837       4947       4948       4959       4958  
      4827       4828       4839       4838       4948       4949       4960       4959  
      4828       4829       4840       4839       4949       4950       4961       4960  
      4841       4842       4853       4852       4962       4963       4974       4973  
      4842       4843       4854       4853       4963       4964       4975       4974  
      4843       4844       4855       4854       4964       4965       4976       4975  
      4844       4845       4856       4855       4965       4966       4977       4976  
      4845       4846       4857       4856       4966       4967       4978       4977  
      4846       4847       4858       4857       4967       4968       4979       4978  
      4847       4848       4859       4858       4968       4969       4980       4979  
      4848       4849       4860       4859       4969       4970       4981       4980  
      4849       4850       4861       4860       4970       4971       4982       4981  
      4850       4851       4862       4861       4971       4972       4983       4982  
      4852       4853       4864       4863       4973       4974       4985       4984  
      4853       4854       4865       4864       4974       4975       4986       4985  
      4854       4855       4866       4865       4975       4976       4987       4986  
      4855       4856       4867       4866       4976       4977       4988       4987  
      4856       4857       4868       4867       4977       4978       4989       4988  
      4857       4858       4869       4868       4978       4979       4990       4989  
      4858       4859       4870       4869       4979       4980       4991       4990  
      4859       4860       4871       4870       4980       4981       4992       4991  
      4860       4861       4872       4871       4981       4982       4993       4992  
      4861       4862       4873       4872       4982       4983       4994       4993  
      4863       4864       4875       4874       4984       4985       4996       4995  
      4864       4865       4876       4875       4985       4986       4997       4996  
      4865       4866       4877       4876       4986       4987       4998       4997  
      4866       4867       4878       4877       4987       4988       4999       4998  
      4867       4868       4879       4878       4988       4989       5000       4999  
      4868       4869       4880       4879       4989       4990       5001       5000  
      4869       4870       4881       4880       4990       4991       5002       5001  
      4870       4871       4882       4881       4991       4992       5003       5002  
      4871       4872       4883       4882       4992       4993       5004       5003  
      4872       4873       4884       4883       4993       4994       5005       5004  
      4874       4875       4886       4885       4995       4996       5007       5006  
      4875       4876       4887       4886       4996       4997       5008       5007  
      4876       4877       4888       4887       4997       4998       5009       5008  
      4877       4878       4889       4888       4998       4999       5010       5009  
      4878       4879       4890       4889       4999       5000       5011       5010  
      4879       4880       4891       4890       5000       5001       5012       5011  
      4880       4881       4892       4891       5001       5002       5013       5012  
      4881       4882       4893       4892       5002       5003       5014       5013  
      4882       4883       4894       4893       5003       5004       5015       5014  
      4883       4884       4895       4894       5004       5005       5016       5015  
      4885       4886       4897       4896       5006       5007       5018       5017  
      4886       4887       4898       4897       5007       5008       5019       5018  
      4887       4888       4899       4898       5008       5009       5020       5019  
      4888       4889       4900       4899       5009       5010       5021       5020  
      4889       4890       4901       4900       5010       5011       5022       5021  
      4890       4891       4902       4901       5011       5012       5023       5022  
      4891       4892       4903       4902       5012       5013       5024       5023  
      4892       4893       4904       4903       5013       5014       5025       5024  
      4893       4894       4905       4904       5014       5015       5026       5025  
      4894       4895       4906       4905       5015       5016       5027       5026  
      4896       4897       4908       4907       5017       5018       5029       5028  
      4897       4898       4909       4908       5018       5019       5030       5029  
      4898       4899       4910       4909       5019       5020       5031       5030  
      4899       4900       4911       4910       5020       5021       5032       5031  
      4900       4901       4912       4911       5021       5022       5033       5032  
      4901       4902       4913       4912       5022       5023       5034       5033  
      4902       4903       4914       4913       5023       5024       5035       5034  
      4903       4904       4915       4914       5024       5025       5036       5035  
      4904       4905       4916       4915       5025       5026       5037       5036  
      4905       4906       4917       4916       5026       5027       5038       5037  
      4907       4908       4919       4918       5028       5029       5040       5039  
      4908       4909       4920       4919       5029       5030       5041       5040  
      4909       4910       4921       4920       5030       5031       5042       5041  
      4910       4911       4922       4921       5031       5032       5043       5042  
      4911       4912       4923       4922       5032       5033       5044       5043  
      4912       4913       4924       4923       5033       5034       5045       5044  
      4913       4914       4925       4924       5034       5035       5046       5045  
      4914       4915       4926       4925       5035       5036       5047       5046  
      4915       4916       4927       4926       5036       5037       5048       5047  
      4916       4917       4928       4927       5037       5038       5049       5048  
      4918       4919       4930       4929       5039       5040       5051       5050  
      4919       4920       4931       4930       5040       5041       5052       5051  
      4920       4921       4932       4931       5041       5042       5053       5052  
      4921       4922       4933       4932       5042       5043       5054       5053  
      4922       4923       4934       4933       5043       5044       5055       5054  
      4923       4924       4935       4934       5044       5045       5056       5055  
      4924       4925       4936       4935       5045       5046       5057       5056  
      4925       4926       4937       4936       5046       5047       5058       5057  
      4926       4927       4938       4937       5047       5048       5059       5058  
      4927       4928       4939       4938       5048       5049       5060       5059  
      4929       4930       4941       4940       5050       5051       5062       5061  
      4930       4931       4942       4941       5051       5052       5063       5062  
      4931       4932       4943       4942       5052       5053       5064       5063  
      4932       4933       4944       4943       5053       5054       5065       5064  
      4933       4934       4945       4944       5054       5055       5066       5065  
      4934       4935       4946       4945       5055       5056       5067       5066  
      4935       4936       4947       4946       5056       5057       5068       5067  
      4936       4937       4948       4947       5057       5058       5069       5068  
      4937       4938       4949       4948       5058       5059       5070       5069  
      4938       4939       4950       4949       5059       5060       5071       5070  
      4940       4941       4952       4951       5061       5062       5073       5072  
      4941       4942       4953       4952       5062       5063       5074       5073  
      4942       4943       4954       4953       5063       5064       5075       5074  
      4943       4944       4955       4954       5064       5065       5076       5075  
      4944       4945       4956       4955       5065       5066       5077       5076  
      4945       4946       4957       4956       5066       5067       5078       5077  
      4946       4947       4958       4957       5067       5068       5079       5078  
      4947       4948       4959       4958       5068       5069       5080       5079  
      4948       4949       4960       4959       5069       5070       5081       5080  
      4949       4950       4961       4960       5070       5071       5082       5081  
      4962       4963       4974       4973       5083       5084       5095       5094  
      4963       4964       4975       4974       5084       5085       5096       5095  
      4964       4965       4976       4975       5085       5086       5097       5096  
      4965       4966       4977       4976       5086       5087       5098       5097  
      4966       4967       4978       4977       5087       5088       5099       5098  
      4967       4968       4979       4978       5088       5089       5100       5099  
      4968       4969       4980       4979       5089       5090       5101       5100  
      4969       4970       4981       4980       5090       5091       5102       5101  
      4970       4971       4982       4981       5091       5092       5103       5102  
      4971       4972       4983       4982       5092       5093       5104       5103  
      4973       4974       4985       4984       5094       5095       5106       5105  
      4974       4975       4986       4985       5095       5096       5107       5106  
      4975       4976       4987       4986       5096       5097       5108       5107  
      4976       4977       4988       4987       5097       5098       5109       5108  
      4977       4978       4989       4988       5098       5099       5110       5109  
      4978       4979       4990       4989       5099       5100       5111       5110  
      4979       4980       4991       4990       5100       5101       5112       5111  
      4980       4981       4992       4991       5101       5102       5113       5112  
      4981       4982       4993       4992       5102       5103       5114       5113  
      4982       4983       4994       4993       5103       5104       5115       5114  
      4984       4985       4996       4995       5105       5106       5117       5116  
      4985       4986       4997       4996       5106       5107       5118       5117  
      4986       4987       4998       4997       5107       5108       5119       5118  
      4987       4988       4999       4998       5108       5109       5120       5119  
      4988       4989       5000       4999       5109       5110       5121       5120  
      4989       4990       5001       5000       5110       5111       5122       5121  
      4990       4991       5002       5001       5111       5112       5123       5122  
      4991       4992       5003       5002       5112       5113       5124       5123  
      4992       4993       5004       5003       5113       5114       5125       5124  
      4993       4994       5005       5004       5114       5115       5126       5125  
      4995       4996       5007       5006       5116       5117       5128       5127  
      4996       4997       5008       5007       5117       5118       5129       5128  
      4997       4998       5009       5008       5118       5119       5130       5129  
      4998       4999       5010       5009       5119       5120       5131       5130  
      4999       5000       5011       5010       5120       5121       5132       5131  
      5000       5001       5012       5011       5121       5122       5133       5132  
      5001       5002       5013       5012       5122       5123       5134       5133  
      5002       5003       5014       5013       5123       5124       5135       5134  
      5003       5004       5015       5014       5124       5125       5136       5135  
      5004       5005       5016       5015       5125       5126       5137       5136  
      5006       5007       5018       5017       5127       5128       5139       5138  
      5007       5008       5019       5018       5128       5129       5140       5139  
      5008       5009       5020       5019       5129       5130       5141       5140  
      5009       5010       5021       5020       5130       5131       5142       5141  
      5010       5011       5022       5021       5131       5132       5143       5142  
      5011       5012       5023       5022       5132       5133       5144       5143  
      5012       5013       5024       5023       5133       5134       5145       5144  
      5013       5014       5025       5024       5134       5135       5146       5145  
      5014       5015       5026       5025       5135       5136       5147       5146  
      5015       5016       5027       5026       5136       5137       5148       5147  
      5017       5018       5029       5028       5138       5139       5150       5149  
      5018       5019       5030       5029       5139       5140       5151       5150  
      5019       5020       5031       5030       5140       5141       5152       5151  
      5020       5021       5032       5031       5141       5142       5153       5152  
      5021       5022       5033       5032       5142       5143       5154       5153  
      5022       5023       5034       5033       5143       5144       5155       5154  
      5023       5024       5035       5034       5144       5145       5156       5155  
      5024       5025       5036       5035       5145       5146       5157       5156  
      5025       5026       5037       5036       5146       5147       5158       5157  
      5026       5027       5038       5037       5147       5148       5159       5158  
      5028       5029       5040       5039       5149       5150       5161       5160  
      5029       5030       5041       5040       5150       5151       5162       5161  
      5030       5031       5042       5041       5151       5152       5163       5162  
      5031       5032       5043       5042       5152       5153       5164       5163  
      5032       5033       5044       5043       5153       5154       5165       5164  
      5033       5034       5045       5044       5154       5155       5166       5165  
      5034       5035       5046       5045       5155       5156       5167       5166  
      5035       5036       5047       5046       5156       5157       5168       5167  
      5036       5037       5048       5047       5157       5158       5169       5168  
      5037       5038       5049       5048       5158       5159       5170       5169  
      5039       5040       5051       5050       5160       5161       5172       5171  
      5040       5041       5052       5051       5161       5162       5173       5172  
      5041       5042       5053       5052       5162       5163       5174       5173  
      5042       5043       5054       5053       5163       5164       5175       5174  
      5043       5044       5055       5054       5164       5165       5176       5175  
      5044       5045       5056       5055       5165       5166       5177       5176  
      5045       5046       5057       5056       5166       5167       5178       5177  
      5046       5047       5058       5057       5167       5168       5179       5178  
      5047       5048       5059       5058       5168       5169       5180       5179  
      5048       5049       5060       5059       5169       5170       5181       5180  
      5050       5051       5062       5061       5171       5172       5183       5182  
      5051       5052       5063       5062       5172       5173       5184       5183  
      5052       5053       5064       5063       5173       5174       5185       5184  
      5053       5054       5065       5064       5174       5175       5186       5185  
      5054       5055       5066       5065       5175       5176       5187       5186  
      5055       5056       5067       5066       5176       5177       5188       5187  
      5056       5057       5068       5067       5177       5178       5189       5188  
      5057       5058       5069       5068       5178       5179       5190       5189  
      5058       5059       5070       5069       5179       5180       5191       5190  
      5059       5060       5071       5070       5180       5181       5192       5191  
      5061       5062       5073       5072       5182       5183       5194       5193  
      5062       5063       5074       5073       5183       5184       5195       5194  
      5063       5064       5075       5074       5184       5185       5196       5195  
      5064       5065       5076       5075       5185       5186       5197       5196  
      5065       5066       5077       5076       5186       5187       5198       5197  
      5066       5067       5078       5077       5187       5188       5199       5198  
      5067       5068       5079       5078       5188       5189       5200       5199  
      5068       5069       5080       5079       5189       5190       5201       5200  
      5069       5070       5081       5080       5190       5191       5202       5201  
      5070       5071       5082       5081       5191       5192       5203       5202  
      5083       5084       5095       5094       5204       5205       5216       5215  
      5084       5085       5096       5095       5205       5206       5217       5216  
      5085       5086       5097       5096       5206       5207       5218       5217  
      5086       5087       5098       5097       5207       5208       5219       5218  
      5087       5088       5099       5098       5208       5209       5220       5219  
      5088       5089       5100       5099       5209       5210       5221       5220  
      5089       5090       5101       5100       5210       5211       5222       5221  
      5090       5091       5102       5101       5211       5212       5223       5222  
      5091       5092       5103       5102       5212       5213       5224       5223  
      5092       5093       5104       5103       5213       5214       5225       5224  
      5094       5095       5106       5105       5215       5216       5227       5226  
      5095       5096       5107       5106       5216       5217       5228       5227  
      5096       5097       5108       5107       5217       5218       5229       5228  
      5097       5098       5109       5108       5218       5219       5230       5229  
      5098       5099       5110       5109       5219       5220       5231       5230  
      5099       5100       5111       5110       5220       5221       5232       5231  
      5100       5101       5112       5111       5221       5222       5233       5232  
      5101       5102       5113       5112       5222       5223       5234       5233  
      5102       5103       5114       5113       5223       5224       5235       5234  
      5103       5104       5115       5114       5224       5225       5236       5235  
      5105       5106       5117       5116       5226       5227       5238       5237  
      5106       5107       5118       5117       5227       5228       5239       5238  
      5107       5108       5119       5118       5228       5229       5240       5239  
      5108       5109       5120       5119       5229       5230       5241       5240  
      5109       5110       5121       5120       5230       5231       5242       5241  
      5110       5111       5122       5121       5231       5232       5243       5242  
      5111       5112       5123       5122       5232       5233       5244       5243  
      5112       5113       5124       5123       5233       5234       5245       5244  
      5113       5114       5125       5124       5234       5235       5246       5245  
      5114       5115       5126       5125       5235       5236       5247       5246  
      5116       5117       5128       5127       5237       5238       5249       5248  
      5117       5118       5129       5128       5238       5239       5250       5249  
      5118       5119       5130       5129       5239       5240       5251       5250  
      5119       5120       5131       5130       5240       5241       5252       5251  
      5120       5121       5132       5131       5241       5242       5253       5252  
      5121       5122       5133       5132       5242       5243       5254       5253  
      5122       5123       5134       5133       5243       5244       5255       5254  
      5123       5124       5135       5134       5244       5245       5256       5255  
      5124       5125       5136       5135       5245       5246       5257       5256  
      5125       5126       5137       5136       5246       5247       5258       5257  
      5127       5128       5139       5138       5248       5249       5260       5259  
      5128       5129       5140       5139       5249       5250       5261       5260  
      5129       5130       5141       5140       5250       5251       5262       5261  
      5130       5131       5142       5141       5251       5252       5263       5262  
      5131       5132       5143       5142       5252       5253       5264       5263  
      5132       5133       5144       5143       5253       5254       5265       5264  
      5133       5134       5145       5144       5254       5255       5266       5265  
      5134       5135       5146       5145       5255       5256       5267       5266  
      5135       5136       5147       5146       5256       5257       5268       5267  
      5136       5137       5148       5147       5257       5258       5269       5268  
      5138       5139       5150       5149       5259       5260       5271       5270  
      5139       5140       5151       5150       5260       5261       5272       5271  
      5140       5141       5152       5151       5261       5262       5273       5272  
      5141       5142       5153       5152       5262       5263       5274       5273  
      5142       5143       5154       5153       5263       5264       5275       5274  
      5143       5144       5155       5154       5264       5265       5276       5275  
      5144       5145       5156       5155       5265       5266       5277       5276  
      5145       5146       5157       5156       5266       5267       5278       5277  
      5146       5147       5158       5157       5267       5268       5279       5278  
      5147       5148       5159       5158       5268       5269       5280       5279  
      5149       5150       5161       5160       5270       5271       5282       5281  
      5150       5151       5162       5161       5271       5272       5283       5282  
      5151       5152       5163       5162       5272       5273       5284       5283  
      5152       5153       5164       5163       5273       5274       5285       5284  
      5153       5154       5165       5164       5274       5275       5286       5285  
      5154       5155       5166       5165       5275       5276       5287       5286  
      5155       5156       5167       5166       5276       5277       5288       5287  
      5156       5157       5168       5167       5277       5278       5289       5288  
      5157       5158       5169       5168       5278       5279       5290       5289  
      5158       5159       5170       5169       5279       5280       5291       5290  
      5160       5161       5172       5171       5281       5282       5293       5292  
      5161       5162       5173       5172       5282       5283       5294       5293  
      5162       5163       5174       5173       5283       5284       5295       5294  
      5163       5164       5175       5174       5284       5285       5296       5295  
      5164       5165       5176       5175       5285       5286       5297       5296  
      5165       5166       5177       5176       5286       5287       5298       5297  
      5166       5167       5178       5177       5287       5288       5299       5298  
      5167       5168       5179       5178       5288       5289       5300       5299  
      5168       5169       5180       5179       5289       5290       5301       5300  
      5169       5170       5181       5180       5290       5291       5302       5301  
      5171       5172       5183       5182       5292       5293       5304       5303  
      5172       5173       5184       5183       5293       5294       5305       5304  
      5173       5174       5185       5184       5294       5295       5306       5305  
      5174       5175       5186       5185       5295       5296       5307       5306  
      5175       5176       5187       5186       5296       5297       5308       5307  
      5176       5177       5188       5187       5297       5298       5309       5308  
      5177       5178       5189       5188       5298       5299       5310       5309  
      5178       5179       5190       5189       5299       5300       5311       5310  
      5179       5180       5191       5190       5300       5301       5312       5311  
      5180       5181       5192       5191       5301       5302       5313       5312  
      5182       5183       5194       5193       5303       5304       5315       5314  
      5183       5184       5195       5194       5304       5305       5316       5315  
      5184       5185       5196       5195       5305       5306       5317       5316  
      5185       5186       5197       5196       5306       5307       5318       5317  
      5186       5187       5198       5197       5307       5308       5319       5318  
      5187       5188       5199       5198       5308       5309       5320       5319  
      5188       5189       5200       5199       5309       5310       5321       5320  
      5189       5190       5201       5200       5310       5311       5322       5321  
      5190       5191       5202       5201       5311       5312       5323       5322  
      5191       5192       5203       5202       5312       5313       5324       5323  
      5204       5205       5216       5215       5325       5326       5337       5336  
      5205       5206       5217       5216       5326       5327       5338       5337  
      5206       5207       5218       5217       5327       5328       5339       5338  
      5207       5208       5219       5218       5328       5329       5340       5339  
      5208       5209       5220       5219       5329       5330       5341       5340  
      5209       5210       5221       5220       5330       5331       5342       5341  
      5210       5211       5222       5221       5331       5332       5343       5342  
      5211       5212       5223       5222       5332       5333       5344       5343  
      5212       5213       5224       5223       5333       5334       5345       5344  
      5213       5214       5225       5224       5334       5335       5346       5345  
      5215       5216       5227       5226       5336       5337       5348       5347  
      5216       5217       5228       5227       5337       5338       5349       5348  
      5217       5218       5229       5228       5338       5339       5350       5349  
      5218       5219       5230       5229       5339       5340       5351       5350  
      5219       5220       5231       5230       5340       5341       5352       5351  
      5220       5221       5232       5231       5341       5342       5353       5352  
      5221       5222       5233       5232       5342       5343       5354       5353  
      5222       5223       5234       5233       5343       5344       5355       5354  
      5223       5224       5235       5234       5344       5345       5356       5355  
      5224       5225       5236       5235       5345       5346       5357       5356  
      5226       5227       5238       5237       5347       5348       5359       5358  
      5227       5228       5239       5238       5348       5349       5360       5359  
      5228       5229       5240       5239       5349       5350       5361       5360  
      5229       5230       5241       5240       5350       5351       5362       5361  
      5230       5231       5242       5241       5351       5352       5363       5362  
      5231       5232       5243       5242       5352       5353       5364       5363  
      5232       5233       5244       5243       5353       5354       5365       5364  
      5233       5234       5245       5244       5354       5355       5366       5365  
      5234       5235       5246       5245       5355       5356       5367       5366  
      5235       5236       5247       5246       5356       5357       5368       5367  
      5237       5238       5249       5248       5358       5359       5370       5369  
      5238       5239       5250       5249       5359       5360       5371       5370  
      5239       5240       5251       5250       5360       5361       5372       5371  
      5240       5241       5252       5251       5361       5362       5373       5372  
      5241       5242       5253       5252       5362       5363       5374       5373  
      5242       5243       5254       5253       5363       5364       5375       5374  
      5243       5244       5255       5254       5364       5365       5376       5375  
      5244       5245       5256       5255       5365       5366       5377       5376  
      5245       5246       5257       5256       5366       5367       5378       5377  
      5246       5247       5258       5257       5367       5368       5379       5378  
      5248       5249       5260       5259       5369       5370       5381       5380  
      5249       5250       5261       5260       5370       5371       5382       5381  
      5250       5251       5262       5261       5371       5372       5383       5382  
      5251       5252       5263       5262       5372       5373       5384       5383  
      5252       5253       5264       5263       5373       5374       5385       5384  
      5253       5254       5265       5264       5374       5375       5386       5385  
      5254       5255       5266       5265       5375       5376       5387       5386  
      5255       5256       5267       5266       5376       5377       5388       5387  
      5256       5257       5268       5267       5377       5378       5389       5388  
      5257       5258       5269       5268       5378       5379       5390       5389  
      5259       5260       5271       5270       5380       5381       5392       5391  
      5260       5261       5272       5271       5381       5382       5393       5392  
      5261       5262       5273       5272       5382       5383       5394       5393  
      5262       5263       5274       5273       5383       5384       5395       5394  
      5263       5264       5275       5274       5384       5385       5396       5395  
      5264       5265       5276       5275       5385       5386       5397       5396  
      5265       5266       5277       5276       5386       5387       5398       5397  
      5266       5267       5278       5277       5387       5388       5399       5398  
      5267       5268       5279       5278       5388       5389       5400       5399  
      5268       5269       5280       5279       5389       5390       5401       5400  
      5270       5271       5282       5281       5391       5392       5403       5402  
      5271       5272       5283       5282       5392       5393       5404       5403  
      5272       5273       5284       5283       5393       5394       5405       5404  
      5273       5274       5285       5284       5394       5395       5406       5405  
      5274       5275       5286       5285       5395       5396       5407       5406  
      5275       5276       5287       5286       5396       5397       5408       5407  
      5276       5277       5288       5287       5397       5398       5409       5408  
      5277       5278       5289       5288       5398       5399       5410       5409  
      5278       5279       5290       5289       5399       5400       5411       5410  
      5279       5280       5291       5290       5400       5401       5412       5411  
      5281       5282       5293       5292       5402       5403       5414       5413  
      5282       5283       5294       5293       5403       5404       5415       5414  
      5283       5284       5295       5294       5404       5405       5416       5415  
      5284       5285       5296       5295       5405       5406       5417       5416  
      5285       5286       5297       5296       5406       5407       5418       5417  
      5286       5287       5298       5297       5407       5408       5419       5418  
      5287       5288       5299       5298       5408       5409       5420       5419  
      5288       5289       5300       5299       5409       5410       5421       5420  
      5289       5290       5301       5300       5410       5411       5422       5421  
      5290       5291       5302       5301       5411       5412       5423       5422  
      5292       5293       5304       5303       5413       5414       5425       5424  
      5293       5294       5305       5304       5414       5415       5426       5425  
      5294       5295       5306       5305       5415       5416       5427       5426  
      5295       5296       5307       5306       5416       5417       5428       5427  
      5296       5297       5308       5307       5417       5418       5429       5428  
      5297       5298       5309       5308       5418       5419       5430       5429  
      5298       5299       5310       5309       5419       5420       5431       5430  
      5299       5300       5311       5310       5420       5421       5432       5431  
      5300       5301       5312       5311       5421       5422       5433       5432  
      5301       5302       5313       5312       5422       5423       5434       5433  
      5303       5304       5315       5314       5424       5425       5436       5435  
      5304       5305       5316       5315       5425       5426       5437       5436  
      5305       5306       5317       5316       5426       5427       5438       5437  
      5306       5307       5318       5317       5427       5428       5439       5438  
      5307       5308       5319       5318       5428       5429       5440       5439  
      5308       5309       5320       5319       5429       5430       5441       5440  
      5309       5310       5321       5320       5430       5431       5442       5441  
      5310       5311       5322       5321       5431       5432       5443       5442  
      5311       5312       5323       5322       5432       5433       5444       5443  
      5312       5313       5324       5323       5433       5434       5445       5444  
      5325       5326       5337       5336       5446       5447       5458       5457  
      5326       5327       5338       5337       5447       5448       5459       5458  
      5327       5328       5339       5338       5448       5449       5460       5459  
      5328       5329       5340       5339       5449       5450       5461       5460  
      5329       5330       5341       5340       5450       5451       5462       5461  
      5330       5331       5342       5341       5451       5452       5463       5462  
      5331       5332       5343       5342       5452       5453       5464       5463  
      5332       5333       5344       5343       5453       5454       5465       5464  
      5333       5334       5345       5344       5454       5455       5466       5465  
      5334       5335       5346       5345       5455       5456       5467       5466  
      5336       5337       5348       5347       5457       5458       5469       5468  
      5337       5338       5349       5348       5458       5459       5470       5469  
      5338       5339       5350       5349       5459       5460       5471       5470  
      5339       5340       5351       5350       5460       5461       5472       5471  
      5340       5341       5352       5351       5461       5462       5473       5472  
      5341       5342       5353       5352       5462       5463       5474       5473  
      5342       5343       5354       5353       5463       5464       5475       5474  
      5343       5344       5355       5354       5464       5465       5476       5475  
      5344       5345       5356       5355       5465       5466       5477       5476  
      5345       5346       5357       5356       5466       5467       5478       5477  
      5347       5348       5359       5358       5468       5469       5480       5479  
      5348       5349       5360       5359       5469       5470       5481       5480  
      5349       5350       5361       5360       5470       5471       5482       5481  
      5350       5351       5362       5361       5471       5472       5483       5482  
      5351       5352       5363       5362       5472       5473       5484       5483  
      5352       5353       5364       5363       5473       5474       5485       5484  
      5353       5354       5365       5364       5474       5475       5486       5485  
      5354       5355       5366       5365       5475       5476       5487       5486  
      5355       5356       5367       5366       5476       5477       5488       5487  
      5356       5357       5368       5367       5477       5478       5489       5488  
      5358       5359       5370       5369       5479       5480       5491       5490  
      5359       5360       5371       5370       5480       5481       5492       5491  
      5360       5361       5372       5371       5481       5482       5493       5492  
      5361       5362       5373       5372       5482       5483       5494       5493  
      5362       5363       5374       5373       5483       5484       5495       5494  
      5363       5364       5375       5374       5484       5485       5496       5495  
      5364       5365       5376       5375       5485       5486       5497       5496  
      5365       5366       5377       5376       5486       5487       5498       5497  
      5366       5367       5378       5377       5487       5488       5499       5498  
      5367       5368       5379       5378       5488       5489       5500       5499  
      5369       5370       5381       5380       5490       5491       5502       5501  
      5370       5371       5382       5381       5491       5492       5503       5502  
      5371       5372       5383       5382       5492       5493       5504       5503  
      5372       5373       5384       5383       5493       5494       5505       5504  
      5373       5374       5385       5384       5494       5495       5506       5505  
      5374       5375       5386       5385       5495       5496       5507       5506  
      5375       5376       5387       5386       5496       5497       5508       5507  
      5376       5377       5388       5387       5497       5498       5509       5508  
      5377       5378       5389       5388       5498       5499       5510       5509  
      5378       5379       5390       5389       5499       5500       5511       5510  
      5380       5381       5392       5391       5501       5502       5513       5512  
      5381       5382       5393       5392       5502       5503       5514       5513  
      5382       5383       5394       5393       5503       5504       5515       5514  
      5383       5384       5395       5394       5504       5505       5516       5515  
      5384       5385       5396       5395       5505       5506       5517       5516  
      5385       5386       5397       5396       5506       5507       5518       5517  
      5386       5387       5398       5397       5507       5508       5519       5518  
      5387       5388       5399       5398       5508       5509       5520       5519  
      5388       5389       5400       5399       5509       5510       5521       5520  
      5389       5390       5401       5400       5510       5511       5522       5521  
      5391       5392       5403       5402       5512       5513       5524       5523  
      5392       5393       5404       5403       5513       5514       5525       5524  
      5393       5394       5405       5404       5514       5515       5526       5525  
      5394       5395       5406       5405       5515       5516       5527       5526  
      5395       5396       5407       5406       5516       5517       5528       5527  
      5396       5397       5408       5407       5517       5518       5529       5528  
      5397       5398       5409       5408       5518       5519       5530       5529  
      5398       5399       5410       5409       5519       5520       5531       5530  
      5399       5400       5411       5410       5520       5521       5532       5531  
      5400       5401       5412       5411       5521       5522       5533       5532  
      5402       5403       5414       5413       5523       5524       5535       5534  
      5403       5404       5415       5414       5524       5525       5536       5535  
      5404       5405       5416       5415       5525       5526       5537       5536  
      5405       5406       5417       5416       5526       5527       5538       5537  
      5406       5407       5418       5417       5527       5528       5539       5538  
      5407       5408       5419       5418       5528       5529       5540       5539  
      5408       5409       5420       5419       5529       5530       5541       5540  
      5409       5410       5421       5420       5530       5531       5542       5541  
      5410       5411       5422       5421       5531       5532       5543       5542  
      5411       5412       5423       5422       5532       5533       5544       5543  
      5413       5414       5425       5424       5534       5535       5546       5545  
      5414       5415       5426       5425       5535       5536       5547       5546  
      5415       5416       5427       5426       5536       5537       5548       5547  
      5416       5417       5428       5427       5537       5538       5549       5548  
      5417       5418       5429       5428       5538       5539       5550       5549  
      5418       5419       5430       5429       5539       5540       5551       5550  
      5419       5420       5431       5430       5540       5541       5552       5551  
      5420       5421       5432       5431       5541       5542       5553       5552  
      5421       5422       5433       5432       5542       5543       5554       5553  
      5422       5423       5434       5433       5543       5544       5555       5554  
      5424       5425       5436       5435       5545       5546       5557       5556  
      5425       5426       5437       5436       5546       5547       5558       5557  
      5426       5427       5438       5437       5547       5548       5559       5558  
      5427       5428       5439       5438       5548       5549       5560       5559  
      5428       5429       5440       5439       5549       5550       5561       5560  
      5429       5430       5441       5440       5550       5551       5562       5561  
      5430       5431       5442       5441       5551       5552       5563       5562  
      5431       5432       5443       5442       5552       5553       5564       5563  
      5432       5433       5444       5443       5553       5554       5565       5564  
      5433       5434       5445       5444       5554       5555       5566       5565  
      5446       5447       5458       5457       5567       5568       5579       5578  
      5447       5448       5459       5458       5568       5569       5580       5579  
      5448       5449       5460       5459       5569       5570       5581       5580  
      5449       5450       5461       5460       5570       5571       5582       5581  
      5450       5451       5462       5461       5571       5572       5583       5582  
      5451       5452       5463       5462       5572       5573       5584       5583  
      5452       5453       5464       5463       5573       5574       5585       5584  
      5453       5454       5465       5464       5574       5575       5586       5585  
      5454       5455       5466       5465       5575       5576       5587       5586  
      5455       5456       5467       5466       5576       5577       5588       5587  
      5457       5458       5469       5468       5578       5579       5590       5589  
      5458       5459       5470       5469       5579       5580       5591       5590  
      5459       5460       5471       5470       5580       5581       5592       5591  
      5460       5461       5472       5471       5581       5582       5593       5592  
      5461       5462       5473       5472       5582       5583       5594       5593  
      5462       5463       5474       5473       5583       5584       5595       5594  
      5463       5464       5475       5474       5584       5585       5596       5595  
      5464       5465       5476       5475       5585       5586       5597       5596  
      5465       5466       5477       5476       5586       5587       5598       5597  
      5466       5467       5478       5477       5587       5588       5599       5598  
      5468       5469       5480       5479       5589       5590       5601       5600  
      5469       5470       5481       5480       5590       5591       5602       5601  
      5470       5471       5482       5481       5591       5592       5603       5602  
      5471       5472       5483       5482       5592       5593       5604       5603  
      5472       5473       5484       5483       5593       5594       5605       5604  
      5473       5474       5485       5484       5594       5595       5606       5605  
      5474       5475       5486       5485       5595       5596       5607       5606  
      5475       5476       5487       5486       5596       5597       5608       5607  
      5476       5477       5488       5487       5597       5598       5609       5608  
      5477       5478       5489       5488       5598       5599       5610       5609  
      5479       5480       5491       5490       5600       5601       5612       5611  
      5480       5481       5492       5491       5601       5602       5613       5612  
      5481       5482       5493       5492       5602       5603       5614       5613  
      5482       5483       5494       5493       5603       5604       5615       5614  
      5483       5484       5495       5494       5604       5605       5616       5615  
      5484       5485       5496       5495       5605       5606       5617       5616  
      5485       5486       5497       5496       5606       5607       5618       5617  
      5486       5487       5498       5497       5607       5608       5619       5618  
      5487       5488       5499       5498       5608       5609       5620       5619  
      5488       5489       5500       5499       5609       5610       5621       5620  
      5490       5491       5502       5501       5611       5612       5623       5622  
      5491       5492       5503       5502       5612       5613       5624       5623  
      5492       5493       5504       5503       5613       5614       5625       5624  
      5493       5494       5505       5504       5614       5615       5626       5625  
      5494       5495       5506       5505       5615       5616       5627       5626  
      5495       5496       5507       5506       5616       5617       5628       5627  
      5496       5497       5508       5507       5617       5618       5629       5628  
      5497       5498       5509       5508       5618       5619       5630       5629  
      5498       5499       5510       5509       5619       5620       5631       5630  
      5499       5500       5511       5510       5620       5621       5632       5631  
      5501       5502       5513       5512       5622       5623       5634       5633  
      5502       5503       5514       5513       5623       5624       5635       5634  
      5503       5504       5515       5514       5624       5625       5636       5635  
      5504       5505       5516       5515       5625       5626       5637       5636  
      5505       5506       5517       5516       5626       5627       5638       5637  
      5506       5507       5518       5517       5627       5628       5639       5638  
      5507       5508       5519       5518       5628       5629       5640       5639  
      5508       5509       5520       5519       5629       5630       5641       5640  
      5509       5510       5521       5520       5630       5631       5642       5641  
      5510       5511       5522       5521       5631       5632       5643       5642  
      5512       5513       5524       5523       5633       5634       5645       5644  
      5513       5514       5525       5524       5634       5635       5646       5645  
      5514       5515       5526       5525       5635       5636       5647       5646  
      5515       5516       5527       5526       5636       5637       5648       5647  
      5516       5517       5528       5527       5637       5638       5649       5648  
      5517       5518       5529       5528       5638       5639       5650       5649  
      5518       5519       5530       5529       5639       5640       5651       5650  
      5519       5520       5531       5530       5640       5641       5652       5651  
      5520       5521       5532       5531       5641       5642       5653       5652  
      5521       5522       5533       5532       5642       5643       5654       5653  
      5523       5524       5535       5534       5644       5645       5656       5655  
      5524       5525       5536       5535       5645       5646       5657       5656  
      5525       5526       5537       5536       5646       5647       5658       5657  
      5526       5527       5538       5537       5647       5648       5659       5658  
      5527       5528       5539       5538       5648       5649       5660       5659  
      5528       5529       5540       5539       5649       5650       5661       5660  
      5529       5530       5541       5540       5650       5651       5662       5661  
      5530       5531       5542       5541       5651       5652       5663       5662  
      5531       5532       5543       5542       5652       5653       5664       5663  
      5532       5533       5544       5543       5653       5654       5665       5664  
      5534       5535       5546       5545       5655       5656       5667       5666  
      5535       5536       5547       5546       5656       5657       5668       5667  
      5536       5537       5548       5547       5657       5658       5669       5668  
      5537       5538       5549       5548       5658       5659       5670       5669  
      5538       5539       5550       5549       5659       5660       5671       5670  
      5539       5540       5551       5550       5660       5661       5672       5671  
      5540       5541       5552       5551       5661       5662       5673       5672  
      5541       5542       5553       5552       5662       5663       5674       5673  
      5542       5543       5554       5553       5663       5664       5675       5674  
      5543       5544       5555       5554       5664       5665       5676       5675  
      5545       5546       5557       5556       5666       5667       5678       5677  
      5546       5547       5558       5557       5667       5668       5679       5678  
      5547       5548       5559       5558       5668       5669       5680       5679  
      5548       5549       5560       5559       5669       5670       5681       5680  
      5549       5550       5561       5560       5670       5671       5682       5681  
      5550       5551       5562       5561       5671       5672       5683       5682  
      5551       5552       5563       5562       5672       5673       5684       5683  
      5552       5553       5564       5563       5673       5674       5685       5684  
      5553       5554       5565       5564       5674       5675       5686       5685  
      5554       5555       5566       5565       5675       5676       5687       5686  
      5567       5568       5579       5578       5688       5689       5700       5699  
      5568       5569       5580       5579       5689       5690       5701       5700  
      5569       5570       5581       5580       5690       5691       5702       5701  
      5570       5571       5582       5581       5691       5692       5703       5702  
      5571       5572       5583       5582       5692       5693       5704       5703  
      5572       5573       5584       5583       5693       5694       5705       5704  
      5573       5574       5585       5584       5694       5695       5706       5705  
      5574       5575       5586       5585       5695       5696       5707       5706  
      5575       5576       5587       5586       5696       5697       5708       5707  
      5576       5577       5588       5587       5697       5698       5709       5708  
      5578       5579       5590       5589       5699       5700       5711       5710  
      5579       5580       5591       5590       5700       5701       5712       5711  
      5580       5581       5592       5591       5701       5702       5713       5712  
      5581       5582       5593       5592       5702       5703       5714       5713  
      5582       5583       5594       5593       5703       5704       5715       5714  
      5583       5584       5595       5594       5704       5705       5716       5715  
      5584       5585       5596       5595       5705       5706       5717       5716  
      5585       5586       5597       5596       5706       5707       5718       5717  
      5586       5587       5598       5597       5707       5708       5719       5718  
      5587       5588       5599       5598       5708       5709       5720       5719  
      5589       5590       5601       5600       5710       5711       5722       5721  
      5590       5591       5602       5601       5711       5712       5723       5722  
      5591       5592       5603       5602       5712       5713       5724       5723  
      5592       5593       5604       5603       5713       5714       5725       5724  
      5593       5594       5605       5604       5714       5715       5726       5725  
      5594       5595       5606       5605       5715       5716       5727       5726  
      5595       5596       5607       5606       5716       5717       5728       5727  
      5596       5597       5608       5607       5717       5718       5729       5728  
      5597       5598       5609       5608       5718       5719       5730       5729  
      5598       5599       5610       5609       5719       5720       5731       5730  
      5600       5601       5612       5611       5721       5722       5733       5732  
      5601       5602       5613       5612       5722       5723       5734       5733  
      5602       5603       5614       5613       5723       5724       5735       5734  
      5603       5604       5615       5614       5724       5725       5736       5735  
      5604       5605       5616       5615       5725       5726       5737       5736  
      5605       5606       5617       5616       5726       5727       5738       5737  
      5606       5607       5618       5617       5727       5728       5739       5738  
      5607       5608       5619       5618       5728       5729       5740       5739  
      5608       5609       5620       5619       5729       5730       5741       5740  
      5609       5610       5621       5620       5730       5731       5742       5741  
      5611       5612       5623       5622       5732       5733       5744       5743  
      5612       5613       5624       5623       5733       5734       5745       5744  
      5613       5614       5625       5624       5734       5735       5746       5745  
      5614       5615       5626       5625       5735       5736       5747       5746  
      5615       5616       5627       5626       5736       5737       5748       5747  
      5616       5617       5628       5627       5737       5738       5749       5748  
      5617       5618       5629       5628       5738       5739       5750       5749  
      5618       5619       5630       5629       5739       5740       5751       5750  
      5619       5620       5631       5630       5740       5741       5752       5751  
      5620       5621       5632       5631       5741       5742       5753       5752  
      5622       5623       5634       5633       5743       5744       5755       5754  
      5623       5624       5635       5634       5744       5745       5756       5755  
      5624       5625       5636       5635       5745       5746       5757       5756  
      5625       5626       5637       5636       5746       5747       5758       5757  
      5626       5627       5638       5637       5747       5748       5759       5758  
      5627       5628       5639       5638       5748       5749       5760       5759  
      5628       5629       5640       5639       5749       5750       5761       5760  
      5629       5630       5641       5640       5750       5751       5762       5761  
      5630       5631       5642       5641       5751       5752       5763       5762  
      5631       5632       5643       5642       5752       5753       5764       5763  
      5633       5634       5645       5644       5754       5755       5766       5765  
      5634       5635       5646       5645       5755       5756       5767       5766  
      5635       5636       5647       5646       5756       5757       5768       5767  
      5636       5637       5648       5647       5757       5758       5769       5768  
      5637       5638       5649       5648       5758       5759       5770       5769  
      5638       5639       5650       5649       5759       5760       5771       5770  
      5639       5640       5651       5650       5760       5761       5772       5771  
      5640       5641       5652       5651       5761       5762       5773       5772  
      5641       5642       5653       5652       5762       5763       5774       5773  
      5642       5643       5654       5653       5763       5764       5775       5774  
      5644       5645       5656       5655       5765       5766       5777       5776  
      5645       5646       5657       5656       5766       5767       5778       5777  
      5646       5647       5658       5657       5767       5768       5779       5778  
      5647       5648       5659       5658       5768       5769       5780       5779  
      5648       5649       5660       5659       5769       5770       5781       5780  
      5649       5650       5661       5660       5770       5771       5782       5781  
      5650       5651       5662       5661       5771       5772       5783       5782  
      5651       5652       5663       5662       5772       5773       5784       5783  
      5652       5653       5664       5663       5773       5774       5785       5784  
      5653       5654       5665       5664       5774       5775       5786       5785  
      5655       5656       5667       5666       5776       5777       5788       5787  
      5656       5657       5668       5667       5777       5778       5789       5788  
      5657       5658       5669       5668       5778       5779       5790       5789  
      5658       5659       5670       5669       5779       5780       5791       5790  
      5659       5660       5671       5670       5780       5781       5792       5791  
      5660       5661       5672       5671       5781       5782       5793       5792  
      5661       5662       5673       5672       5782       5783       5794       5793  
      5662       5663       5674       5673       5783       5784       5795       5794  
      5663       5664       5675       5674       5784       5785       5796       5795  
      5664       5665       5676       5675       5785       5786       5797       5796  
      5666       5667       5678       5677       5787       5788       5799       5798  
      5667       5668       5679       5678       5788       5789       5800       5799  
      5668       5669       5680       5679       5789       5790       5801       5800  
      5669       5670       5681       5680       5790       5791       5802       5801  
      5670       5671       5682       5681       5791       5792       5803       5802  
      5671       5672       5683       5682       5792       5793       5804       5803  
      5672       5673       5684       5683       5793       5794       5805       5804  
      5673       5674       5685       5684       5794       5795       5806       5805  
      5674       5675       5686       5685       5795       5796       5807       5806  
      5675       5676       5687       5686       5796       5797       5808       5807  
      5688       5689       5700       5699       5809       5810       5821       5820  
      5689       5690       5701       5700       5810       5811       5822       5821  
      5690       5691       5702       5701       5811       5812       5823       5822  
      5691       5692       5703       5702       5812       5813       5824       5823  
      5692       5693       5704       5703       5813       5814       5825       5824  
      5693       5694       5705       5704       5814       5815       5826       5825  
      5694       5695       5706       5705       5815       5816       5827       5826  
      5695       5696       5707       5706       5816       5817       5828       5827  
      5696       5697       5708       5707       5817       5818       5829       5828  
      5697       5698       5709       5708       5818       5819       5830       5829  
      5699       5700       5711       5710       5820       5821       5832       5831  
      5700       5701       5712       5711       5821       5822       5833       5832  
      5701       5702       5713       5712       5822       5823       5834       5833  
      5702       5703       5714       5713       5823       5824       5835       5834  
      5703       5704       5715       5714       5824       5825       5836       5835  
      5704       5705       5716       5715       5825       5826       5837       5836  
      5705       5706       5717       5716       5826       5827       5838       5837  
      5706       5707       5718       5717       5827       5828       5839       5838  
      5707       5708       5719       5718       5828       5829       5840       5839  
      5708       5709       5720       5719       5829       5830       5841       5840  
      5710       5711       5722       5721       5831       5832       5843       5842  
      5711       5712       5723       5722       5832       5833       5844       5843  
      5712       5713       5724       5723       5833       5834       5845       5844  
      5713       5714       5725       5724       5834       5835       5846       5845  
      5714       5715       5726       5725       5835       5836       5847       5846  
      5715       5716       5727       5726       5836       5837       5848       5847  
      5716       5717       5728       5727       5837       5838       5849       5848  
      5717       5718       5729       5728       5838       5839       5850       5849  
      5718       5719       5730       5729       5839       5840       5851       5850  
      5719       5720       5731       5730       5840       5841       5852       5851  
      5721       5722       5733       5732       5842       5843       5854       5853  
      5722       5723       5734       5733       5843       5844       5855       5854  
      5723       5724       5735       5734       5844       5845       5856       5855  
      5724       5725       5736       5735       5845       5846       5857       5856  
      5725       5726       5737       5736       5846       5847       5858       5857  
      5726       5727       5738       5737       5847       5848       5859       5858  
      5727       5728       5739       5738       5848       5849       5860       5859  
      5728       5729       5740       5739       5849       5850       5861       5860  
      5729       5730       5741       5740       5850       5851       5862       5861  
      5730       5731       5742       5741       5851       5852       5863       5862  
      5732       5733       5744       5743       5853       5854       5865       5864  
      5733       5734       5745       5744       5854       5855       5866       5865  
      5734       5735       5746       5745       5855       5856       5867       5866  
      5735       5736       5747       5746       5856       5857       5868       5867  
      5736       5737       5748       5747       5857       5858       5869       5868  
      5737       5738       5749       5748       5858       5859       5870       5869  
      5738       5739       5750       5749       5859       5860       5871       5870  
      5739       5740       5751       5750       5860       5861       5872       5871  
      5740       5741       5752       5751       5861       5862       5873       5872  
      5741       5742       5753       5752       5862       5863       5874       5873  
      5743       5744       5755       5754       5864       5865       5876       5875  
      5744       5745       5756       5755       5865       5866       5877       5876  
      5745       5746       5757       5756       5866       5867       5878       5877  
      5746       5747       5758       5757       5867       5868       5879       5878  
      5747       5748       5759       5758       5868       5869       5880       5879  
      5748       5749       5760       5759       5869       5870       5881       5880  
      5749       5750       5761       5760       5870       5871       5882       5881  
      5750       5751       5762       5761       5871       5872       5883       5882  
      5751       5752       5763       5762       5872       5873       5884       5883  
      5752       5753       5764       5763       5873       5874       5885       5884  
      5754       5755       5766       5765       5875       5876       5887       5886  
      5755       5756       5767       5766       5876       5877       5888       5887  
      5756       5757       5768       5767       5877       5878       5889       5888  
      5757       5758       5769       5768       5878       5879       5890       5889  
      5758       5759       5770       5769       5879       5880       5891       5890  
      5759       5760       5771       5770       5880       5881       5892       5891  
      5760       5761       5772       5771       5881       5882       5893       5892  
      5761       5762       5773       5772       5882       5883       5894       5893  
      5762       5763       5774       5773       5883       5884       5895       5894  
      5763       5764       5775       5774       5884       5885       5896       5895  
      5765       5766       5777       5776       5886       5887       5898       5897  
      5766       5767       5778       5777       5887       5888       5899       5898  
      5767       5768       5779       5778       5888       5889       5900       5899  
      5768       5769       5780       5779       5889       5890       5901       5900  
      5769       5770       5781       5780       5890       5891       5902       5901  
      5770       5771       5782       5781       5891       5892       5903       5902  
      5771       5772       5783       5782       5892       5893       5904       5903  
      5772       5773       5784       5783       5893       5894       5905       5904  
      5773       5774       5785       5784       5894       5895       5906       5905  
      5774       5775       5786       5785       5895       5896       5907       5906  
      5776       5777       5788       5787       5897       5898       5909       5908  
      5777       5778       5789       5788       5898       5899       5910       5909  
      5778       5779       5790       5789       5899       5900       5911       5910  
      5779       5780       5791       5790       5900       5901       5912       5911  
      5780       5781       5792       5791       5901       5902       5913       5912  
      5781       5782       5793       5792       5902       5903       5914       5913  
      5782       5783       5794       5793       5903       5904       5915       5914  
      5783       5784       5795       5794       5904       5905       5916       5915  
      5784       5785       5796       5795       5905       5906       5917       5916  
      5785       5786       5797       5796       5906       5907       5918       5917  
      5787       5788       5799       5798       5908       5909       5920       5919  
      5788       5789       5800       5799       5909       5910       5921       5920  
      5789       5790       5801       5800       5910       5911       5922       5921  
      5790       5791       5802       5801       5911       5912       5923       5922  
      5791       5792       5803       5802       5912       5913       5924       5923  
      5792       5793       5804       5803       5913       5914       5925       5924  
      5793       5794       5805       5804       5914       5915       5926       5925  
      5794       5795       5806       5805       5915       5916       5927       5926  
      5795       5796       5807       5806       5916       5917       5928       5927  
      5796       5797       5808       5807       5917       5918       5929       5928  
      5809       5810       5821       5820       5930       5931       5942       5941  
      5810       5811       5822       5821       5931       5932       5943       5942  
      5811       5812       5823       5822       5932       5933       5944       5943  
      5812       5813       5824       5823       5933       5934       5945       5944  
      5813       5814       5825       5824       5934       5935       5946       5945  
      5814       5815       5826       5825       5935       5936       5947       5946  
      5815       5816       5827       5826       5936       5937       5948       5947  
      5816       5817       5828       5827       5937       5938       5949       5948  
      5817       5818       5829       5828       5938       5939       5950       5949  
      5818       5819       5830       5829       5939       5940       5951       5950  
      5820       5821       5832       5831       5941       5942       5953       5952  
      5821       5822       5833       5832       5942       5943       5954       5953  
      5822       5823       5834       5833       5943       5944       5955       5954  
      5823       5824       5835       5834       5944       5945       5956       5955  
      5824       5825       5836       5835       5945       5946       5957       5956  
      5825       5826       5837       5836       5946       5947       5958       5957  
      5826       5827       5838       5837       5947       5948       5959       5958  
      5827       5828       5839       5838       5948       5949       5960       5959  
      5828       5829       5840       5839       5949       5950       5961       5960  
      5829       5830       5841       5840       5950       5951       5962       5961  
      5831       5832       5843       5842       5952       5953       5964       5963  
      5832       5833       5844       5843       5953       5954       5965       5964  
      5833       5834       5845       5844       5954       5955       5966       5965  
      5834       5835       5846       5845       5955       5956       5967       5966  
      5835       5836       5847       5846       5956       5957       5968       5967  
      5836       5837       5848       5847       5957       5958       5969       5968  
      5837       5838       5849       5848       5958       5959       5970       5969  
      5838       5839       5850       5849       5959       5960       5971       5970  
      5839       5840       5851       5850       5960       5961       5972       5971  
      5840       5841       5852       5851       5961       5962       5973       5972  
      5842       5843       5854       5853       5963       5964       5975       5974  
      5843       5844       5855       5854       5964       5965       5976       5975  
      5844       5845       5856       5855       5965       5966       5977       5976  
      5845       5846       5857       5856       5966       5967       5978       5977  
      5846       5847       5858       5857       5967       5968       5979       5978  
      5847       5848       5859       5858       5968       5969       5980       5979  
      5848       5849       5860       5859       5969       5970       5981       5980  
      5849       5850       5861       5860       5970       5971       5982       5981  
      5850       5851       5862       5861       5971       5972       5983       5982  
      5851       5852       5863       5862       5972       5973       5984       5983  
      5853       5854       5865       5864       5974       5975       5986       5985  
      5854       5855       5866       5865       5975       5976       5987       5986  
      5855       5856       5867       5866       5976       5977       5988       5987  
      5856       5857       5868       5867       5977       5978       5989       5988  
      5857       5858       5869       5868       5978       5979       5990       5989  
      5858       5859       5870       5869       5979       5980       5991       5990  
      5859       5860       5871       5870       5980       5981       5992       5991  
      5860       5861       5872       5871       5981       5982       5993       5992  
      5861       5862       5873       5872       5982       5983       5994       5993  
      5862       5863       5874       5873       5983       5984       5995       5994  
      5864       5865       5876       5875       5985       5986       5997       5996  
      5865       5866       5877       5876       5986       5987       5998       5997  
      5866       5867       5878       5877       5987       5988       5999       5998  
      5867       5868       5879       5878       5988       5989       6000       5999  
      5868       5869       5880       5879       5989       5990       6001       6000  
      5869       5870       5881       5880       5990       5991       6002       6001  
      5870       5871       5882       5881       5991       5992       6003       6002  
      5871       5872       5883       5882       5992       5993       6004       6003  
      5872       5873       5884       5883       5993       5994       6005       6004  
      5873       5874       5885       5884       5994       5995       6006       6005  
      5875       5876       5887       5886       5996       5997       6008       6007  
      5876       5877       5888       5887       5997       5998       6009       6008  
      5877       5878       5889       5888       5998       5999       6010       6009  
      5878       5879       5890       5889       5999       6000       6011       6010  
      5879       5880       5891       5890       6000       6001       6012       6011  
      5880       5881       5892       5891       6001       6002       6013       6012  
      5881       5882       5893       5892       6002       6003       6014       6013  
      5882       5883       5894       5893       6003       6004       6015       6014  
      5883       5884       5895       5894       6004       6005       6016       6015  
      5884       5885       5896       5895       6005       6006       6017       6016  
      5886       5887       5898       5897       6007       6008       6019       6018  
      5887       5888       5899       5898       6008       6009       6020       6019  
      5888       5889       5900       5899       6009       6010       6021       6020  
      5889       5890       5901       5900       6010       6011       6022       6021  
      5890       5891       5902       5901       6011       6012       6023       6022  
      5891       5892       5903       5902       6012       6013       6024       6023  
      5892       5893       5904       5903       6013       6014       6025       6024  
      5893       5894       5905       5904       6014       6015       6026       6025  
      5894       5895       5906       5905       6015       6016       6027       6026  
      5895       5896       5907       5906       6016       6017       6028       6027  
      5897       5898       5909       5908       6018       6019       6030       6029  
      5898       5899       5910       5909       6019       6020       6031       6030  
      5899       5900       5911       5910       6020       6021       6032       6031  
      5900       5901       5912       5911       6021       6022       6033       6032  
      5901       5902       5913       5912       6022       6023       6034       6033  
      5902       5903       5914       5913       6023       6024       6035       6034  
      5903       5904       5915       5914       6024       6025       6036       6035  
      5904       5905       5916       5915       6025       6026       6037       6036  
      5905       5906       5917       5916       6026       6027       6038       6037  
      5906       5907       5918       5917       6027       6028       6039       6038  
      5908       5909       5920       5919       6029       6030       6041       6040  
      5909       5910       5921       5920       6030       6031       6042       6041  
      5910       5911       5922       5921       6031       6032       6043       6042  
      5911       5912       5923       5922       6032       6033       6044       6043  
      5912       5913       5924       5923       6033       6034       6045       6044  
      5913       5914       5925       5924       6034       6035       6046       6045  
      5914       5915       5926       5925       6035       6036       6047       6046  
      5915       5916       5927       5926       6036       6037       6048       6047  
      5916       5917       5928       5927       6037       6038       6049       6048  
      5917       5918       5929       5928       6038       6039       6050       6049  
      5930       5931       5942       5941       6051       6052       6063       6062  
      5931       5932       5943       5942       6052       6053       6064       6063  
      5932       5933       5944       5943       6053       6054       6065       6064  
      5933       5934       5945       5944       6054       6055       6066       6065  
      5934       5935       5946       5945       6055       6056       6067       6066  
      5935       5936       5947       5946       6056       6057       6068       6067  
      5936       5937       5948       5947       6057       6058       6069       6068  
      5937       5938       5949       5948       6058       6059       6070       6069  
      5938       5939       5950       5949       6059       6060       6071       6070  
      5939       5940       5951       5950       6060       6061       6072       6071  
      5941       5942       5953       5952       6062       6063       6074       6073  
      5942       5943       5954       5953       6063       6064       6075       6074  
      5943       5944       5955       5954       6064       6065       6076       6075  
      5944       5945       5956       5955       6065       6066       6077       6076  
      5945       5946       5957       5956       6066       6067       6078       6077  
      5946       5947       5958       5957       6067       6068       6079       6078  
      5947       5948       5959       5958       6068       6069       6080       6079  
      5948       5949       5960       5959       6069       6070       6081       6080  
      5949       5950       5961       5960       6070       6071       6082       6081  
      5950       5951       5962       5961       6071       6072       6083       6082  
      5952       5953       5964       5963       6073       6074       6085       6084  
      5953       5954       5965       5964       6074       6075       6086       6085  
      5954       5955       5966       5965       6075       6076       6087       6086  
      5955       5956       5967       5966       6076       6077       6088       6087  
      5956       5957       5968       5967       6077       6078       6089       6088  
      5957       5958       5969       5968       6078       6079       6090       6089  
      5958       5959       5970       5969       6079       6080       6091       6090  
      5959       5960       5971       5970       6080       6081       6092       6091  
      5960       5961       5972       5971       6081       6082       6093       6092  
      5961       5962       5973       5972       6082       6083       6094       6093  
      5963       5964       5975       5974       6084       6085       6096       6095  
      5964       5965       5976       5975       6085       6086       6097       6096  
      5965       5966       5977       5976       6086       6087       6098       6097  
      5966       5967       5978       5977       6087       6088       6099       6098  
      5967       5968       5979       5978       6088       6089       6100       6099  
      5968       5969       5980       5979       6089       6090       6101       6100  
      5969       5970       5981       5980       6090       6091       6102       6101  
      5970       5971       5982       5981       6091       6092       6103       6102  
      5971       5972       5983       5982       6092       6093       6104       6103  
      5972       5973       5984       5983       6093       6094       6105       6104  
      5974       5975       5986       5985       6095       6096       6107       6106  
      5975       5976       5987       5986       6096       6097       6108       6107  
      5976       5977       5988       5987       6097       6098       6109       6108  
      5977       5978       5989       5988       6098       6099       6110       6109  
      5978       5979       5990       5989       6099       6100       6111       6110  
      5979       5980       5991       5990       6100       6101       6112       6111  
      5980       5981       5992       5991       6101       6102       6113       6112  
      5981       5982       5993       5992       6102       6103       6114       6113  
      5982       5983       5994       5993       6103       6104       6115       6114  
      5983       5984       5995       5994       6104       6105       6116       6115  
      5985       5986       5997       5996       6106       6107       6118       6117  
      5986       5987       5998       5997       6107       6108       6119       6118  
      5987       5988       5999       5998       6108       6109       6120       6119  
      5988       5989       6000       5999       6109       6110       6121       6120  
      5989       5990       6001       6000       6110       6111       6122       6121  
      5990       5991       6002       6001       6111       6112       6123       6122  
      5991       5992       6003       6002       6112       6113       6124       6123  
      5992       5993       6004       6003       6113       6114       6125       6124  
      5993       5994       6005       6004       6114       6115       6126       6125  
      5994       5995       6006       6005       6115       6116       6127       6126  
      5996       5997       6008       6007       6117       6118       6129       6128  
      5997       5998       6009       6008       6118       6119       6130       6129  
      5998       5999       6010       6009       6119       6120       6131       6130  
      5999       6000       6011       6010       6120       6121       6132       6131  
      6000       6001       6012       6011       6121       6122       6133       6132  
      6001       6002       6013       6012       6122       6123       6134       6133  
      6002       6003       6014       6013       6123       6124       6135       6134  
      6003       6004       6015       6014       6124       6125       6136       6135  
      6004       6005       6016       6015       6125       6126       6137       6136  
      6005       6006       6017       6016       6126       6127       6138       6137  
      6007       6008       6019       6018       6128       6129       6140       6139  
      6008       6009       6020       6019       6129       6130       6141       6140  
      6009       6010       6021       6020       6130       6131       6142       6141  
      6010       6011       6022       6021       6131       6132       6143       6142  
      6011       6012       6023       6022       6132       6133       6144       6143  
      6012       6013       6024       6023       6133       6134       6145       6144  
      6013       6014       6025       6024       6134       6135       6146       6145  
      6014       6015       6026       6025       6135       6136       6147       6146  
      6015       6016       6027       6026       6136       6137       6148       6147  
      6016       6017       6028       6027       6137       6138       6149       6148  
      6018       6019       6030       6029       6139       6140       6151       6150  
      6019       6020       6031       6030       6140       6141       6152       6151  
      6020       6021       6032       6031       6141       6142       6153       6152  
      6021       6022       6033       6032       6142       6143       6154       6153  
      6022       6023       6034       6033       6143       6144       6155       6154  
      6023       6024       6035       6034       6144       6145       6156       6155  
      6024       6025       6036       6035       6145       6146       6157       6156  
      6025       6026       6037       6036       6146       6147       6158       6157  
      6026       6027       6038       6037       6147       6148       6159       6158  
      6027       6028       6039       6038       6148       6149       6160       6159  
      6029       6030       6041       6040       6150       6151       6162       6161  
      6030       6031       6042       6041       6151       6152       6163       6162  
      6031       6032       6043       6042       6152       6153       6164       6163  
      6032       6033       6044       6043       6153       6154       6165       6164  
      6033       6034       6045       6044       6154       6155       6166       6165  
      6034       6035       6046       6045       6155       6156       6167       6166  
      6035       6036       6047       6046       6156       6157       6168       6167  
      6036       6037       6048       6047       6157       6158       6169       6168  
      6037       6038       6049       6048       6158       6159       6170       6169  
      6038       6039       6050       6049       6159       6160       6171       6170  
      6051       6052       6063       6062       6172       6173       6184       6183  
      6052       6053       6064       6063       6173       6174       6185       6184  
      6053       6054       6065       6064       6174       6175       6186       6185  
      6054       6055       6066       6065       6175       6176       6187       6186  
      6055       6056       6067       6066       6176       6177       6188       6187  
      6056       6057       6068       6067       6177       6178       6189       6188  
      6057       6058       6069       6068       6178       6179       6190       6189  
      6058       6059       6070       6069       6179       6180       6191       6190  
      6059       6060       6071       6070       6180       6181       6192       6191  
      6060       6061       6072       6071       6181       6182       6193       6192  
      6062       6063       6074       6073       6183       6184       6195       6194  
      6063       6064       6075       6074       6184       6185       6196       6195  
      6064       6065       6076       6075       6185       6186       6197       6196  
      6065       6066       6077       6076       6186       6187       6198       6197  
      6066       6067       6078       6077       6187       6188       6199       6198  
      6067       6068       6079       6078       6188       6189       6200       6199  
      6068       6069       6080       6079       6189       6190       6201       6200  
      6069       6070       6081       6080       6190       6191       6202       6201  
      6070       6071       6082       6081       6191       6192       6203       6202  
      6071       6072       6083       6082       6192       6193       6204       6203  
      6073       6074       6085       6084       6194       6195       6206       6205  
      6074       6075       6086       6085       6195       6196       6207       6206  
      6075       6076       6087       6086       6196       6197       6208       6207  
      6076       6077       6088       6087       6197       6198       6209       6208  
      6077       6078       6089       6088       6198       6199       6210       6209  
      6078       6079       6090       6089       6199       6200       6211       6210  
      6079       6080       6091       6090       6200       6201       6212       6211  
      6080       6081       6092       6091       6201       6202       6213       6212  
      6081       6082       6093       6092       6202       6203       6214       6213  
      6082       6083       6094       6093       6203       6204       6215       6214  
      6084       6085       6096       6095       6205       6206       6217       6216  
      6085       6086       6097       6096       6206       6207       6218       6217  
      6086       6087       6098       6097       6207       6208       6219       6218  
      6087       6088       6099       6098       6208       6209       6220       6219  
      6088       6089       6100       6099       6209       6210       6221       6220  
      6089       6090       6101       6100       6210       6211       6222       6221  
      6090       6091       6102       6101       6211       6212       6223       6222  
      6091       6092       6103       6102       6212       6213       6224       6223  
      6092       6093       6104       6103       6213       6214       6225       6224  
      6093       6094       6105       6104       6214       6215       6226       6225  
      6095       6096       6107       6106       6216       6217       6228       6227  
      6096       6097       6108       6107       6217       6218       6229       6228  
      6097       6098       6109       6108       6218       6219       6230       6229  
      6098       6099       6110       6109       6219       6220       6231       6230  
      6099       6100       6111       6110       6220       6221       6232       6231  
      6100       6101       6112       6111       6221       6222       6233       6232  
      6101       6102       6113       6112       6222       6223       6234       6233  
      6102       6103       6114       6113       6223       6224       6235       6234  
      6103       6104       6115       6114       6224       6225       6236       6235  
      6104       6105       6116       6115       6225       6226       6237       6236  
      6106       6107       6118       6117       6227       6228       6239       6238  
      6107       6108       6119       6118       6228       6229       6240       6239  
      6108       6109       6120       6119       6229       6230       6241       6240  
      6109       6110       6121       6120       6230       6231       6242       6241  
      6110       6111       6122       6121       6231       6232       6243       6242  
      6111       6112       6123       6122       6232       6233       6244       6243  
      6112       6113       6124       6123       6233       6234       6245       6244  
      6113       6114       6125       6124       6234       6235       6246       6245  
      6114       6115       6126       6125       6235       6236       6247       6246  
      6115       6116       6127       6126       6236       6237       6248       6247  
      6117       6118       6129       6128       6238       6239       6250       6249  
      6118       6119       6130       6129       6239       6240       6251       6250  
      6119       6120       6131       6130       6240       6241       6252       6251  
      6120       6121       6132       6131       6241       6242       6253       6252  
      6121       6122       6133       6132       6242       6243       6254       6253  
      6122       6123       6134       6133       6243       6244       6255       6254  
      6123       6124       6135       6134       6244       6245       6256       6255  
      6124       6125       6136       6135       6245       6246       6257       6256  
      6125       6126       6137       6136       6246       6247       6258       6257  
      6126       6127       6138       6137       6247       6248       6259       6258  
      6128       6129       6140       6139       6249       6250       6261       6260  
      6129       6130       6141       6140       6250       6251       6262       6261  
      6130       6131       6142       6141       6251       6252       6263       6262  
      6131       6132       6143       6142       6252       6253       6264       6263  
      6132       6133       6144       6143       6253       6254       6265       6264  
      6133       6134       6145       6144       6254       6255       6266       6265  
      6134       6135       6146       6145       6255       6256       6267       6266  
      6135       6136       6147       6146       6256       6257       6268       6267  
      6136       6137       6148       6147       6257       6258       6269       6268  
      6137       6138       6149       6148       6258       6259       6270       6269  
      6139       6140       6151       6150       6260       6261       6272       6271  
      6140       6141       6152       6151       6261       6262       6273       6272  
      6141       6142       6153       6152       6262       6263       6274       6273  
      6142       6143       6154       6153       6263       6264       6275       6274  
      6143       6144       6155       6154       6264       6265       6276       6275  
      6144       6145       6156       6155       6265       6266       6277       6276  
      6145       6146       6157       6156       6266       6267       6278       6277  
      6146       6147       6158       6157       6267       6268       6279       6278  
      6147       6148       6159       6158       6268       6269       6280       6279  
      6148       6149       6160       6159       6269       6270       6281       6280  
      6150       6151       6162       6161       6271       6272       6283       6282  
      6151       6152       6163       6162       6272       6273       6284       6283  
      6152       6153       6164       6163       6273       6274       6285       6284  
      6153       6154       6165       6164       6274       6275       6286       6285  
      6154       6155       6166       6165       6275       6276       6287       6286  
      6155       6156       6167       6166       6276       6277       6288       6287  
      6156       6157       6168       6167       6277       6278       6289       6288  
      6157       6158       6169       6168       6278       6279       6290       6289  
      6158       6159       6170       6169       6279       6280       6291       6290  
      6159       6160       6171       6170       6280       6281       6292       6291  
      6172       6173       6184       6183       6293       6294       6305       6304  
      6173       6174       6185       6184       6294       6295       6306       6305  
      6174       6175       6186       6185       6295       6296       6307       6306  
      6175       6176       6187       6186       6296       6297       6308       6307  
      6176       6177       6188       6187       6297       6298       6309       6308  
      6177       6178       6189       6188       6298       6299       6310       6309  
      6178       6179       6190       6189       6299       6300       6311       6310  
      6179       6180       6191       6190       6300       6301       6312       6311  
      6180       6181       6192       6191       6301       6302       6313       6312  
      6181       6182       6193       6192       6302       6303       6314       6313  
      6183       6184       6195       6194       6304       6305       6316       6315  
      6184       6185       6196       6195       6305       6306       6317       6316  
      6185       6186       6197       6196       6306       6307       6318       6317  
      6186       6187       6198       6197       6307       6308       6319       6318  
      6187       6188       6199       6198       6308       6309       6320       6319  
      6188       6189       6200       6199       6309       6310       6321       6320  
      6189       6190       6201       6200       6310       6311       6322       6321  
      6190       6191       6202       6201       6311       6312       6323       6322  
      6191       6192       6203       6202       6312       6313       6324       6323  
      6192       6193       6204       6203       6313       6314       6325       6324  
      6194       6195       6206       6205       6315       6316       6327       6326  
      6195       6196       6207       6206       6316       6317       6328       6327  
      6196       6197       6208       6207       6317       6318       6329       6328  
      6197       6198       6209       6208       6318       6319       6330       6329  
      6198       6199       6210       6209       6319       6320       6331       6330  
      6199       6200       6211       6210       6320       6321       6332       6331  
      6200       6201       6212       6211       6321       6322       6333       6332  
      6201       6202       6213       6212       6322       6323       6334       6333  
      6202       6203       6214       6213       6323       6324       6335       6334  
      6203       6204       6215       6214       6324       6325       6336       6335  
      6205       6206       6217       6216       6326       6327       6338       6337  
      6206       6207       6218       6217       6327       6328       6339       6338  
      6207       6208       6219       6218       6328       6329       6340       6339  
      6208       6209       6220       6219       6329       6330       6341       6340  
      6209       6210       6221       6220       6330       6331       6342       6341  
      6210       6211       6222       6221       6331       6332       6343       6342  
      6211       6212       6223       6222       6332       6333       6344       6343  
      6212       6213       6224       6223       6333       6334       6345       6344  
      6213       6214       6225       6224       6334       6335       6346       6345  
      6214       6215       6226       6225       6335       6336       6347       6346  
      6216       6217       6228       6227       6337       6338       6349       6348  
      6217       6218       6229       6228       6338       6339       6350       6349  
      6218       6219       6230       6229       6339       6340       6351       6350  
      6219       6220       6231       6230       6340       6341       6352       6351  
      6220       6221       6232       6231       6341       6342       6353       6352  
      6221       6222       6233       6232       6342       6343       6354       6353  
      6222       6223       6234       6233       6343       6344       6355       6354  
      6223       6224       6235       6234       6344       6345       6356       6355  
      6224       6225       6236       6235       6345       6346       6357       6356  
      6225       6226       6237       6236       6346       6347       6358       6357  
      6227       6228       6239       6238       6348       6349       6360       6359  
      6228       6229       6240       6239       6349       6350       6361       6360  
      6229       6230       6241       6240       6350       6351       6362       6361  
      6230       6231       6242       6241       6351       6352       6363       6362  
      6231       6232       6243       6242       6352       6353       6364       6363  
      6232       6233       6244       6243       6353       6354       6365       6364  
      6233       6234       6245       6244       6354       6355       6366       6365  
      6234       6235       6246       6245       6355       6356       6367       6366  
      6235       6236       6247       6246       6356       6357       6368       6367  
      6236       6237       6248       6247       6357       6358       6369       6368  
      6238       6239       6250       6249       6359       6360       6371       6370  
      6239       6240       6251       6250       6360       6361       6372       6371  
      6240       6241       6252       6251       6361       6362       6373       6372  
      6241       6242       6253       6252       6362       6363       6374       6373  
      6242       6243       6254       6253       6363       6364       6375       6374  
      6243       6244       6255       6254       6364       6365       6376       6375  
      6244       6245       6256       6255       6365       6366       6377       6376  
      6245       6246       6257       6256       6366       6367       6378       6377  
      6246       6247       6258       6257       6367       6368       6379       6378  
      6247       6248       6259       6258       6368       6369       6380       6379  
      6249       6250       6261       6260       6370       6371       6382       6381  
      6250       6251       6262       6261       6371       6372       6383       6382  
      6251       6252       6263       6262       6372       6373       6384       6383  
      6252       6253       6264       6263       6373       6374       6385       6384  
      6253       6254       6265       6264       6374       6375       6386       6385  
      6254       6255       6266       6265       6375       6376       6387       6386  
      6255       6256       6267       6266       6376       6377       6388       6387  
      6256       6257       6268       6267       6377       6378       6389       6388  
      6257       6258       6269       6268       6378       6379       6390       6389  
      6258       6259       6270       6269       6379       6380       6391       6390  
      6260       6261       6272       6271       6381       6382       6393       6392  
      6261       6262       6273       6272       6382       6383       6394       6393  
      6262       6263       6274       6273       6383       6384       6395       6394  
      6263       6264       6275       6274       6384       6385       6396       6395  
      6264       6265       6276       6275       6385       6386       6397       6396  
      6265       6266       6277       6276       6386       6387       6398       6397  
      6266       6267       6278       6277       6387       6388       6399       6398  
      6267       6268       6279       6278       6388       6389       6400       6399  
      6268       6269       6280       6279       6389       6390       6401       6400  
      6269       6270       6281       6280       6390       6391       6402       6401  
      6271       6272       6283       6282       6392       6393       6404       6403  
      6272       6273       6284       6283       6393       6394       6405       6404  
      6273       6274       6285       6284       6394       6395       6406       6405  
      6274       6275       6286       6285       6395       6396       6407       6406  
      6275       6276       6287       6286       6396       6397       6408       6407  
      6276       6277       6288       6287       6397       6398       6409       6408  
      6277       6278       6289       6288       6398       6399       6410       6409  
      6278       6279       6290       6289       6399       6400       6411       6410  
      6279       6280       6291       6290       6400       6401       6412       6411  
      6280       6281       6292       6291       6401       6402       6413       6412  
      6293       6294       6305       6304       6414       6415       6426       6425  
      6294       6295       6306       6305       6415       6416       6427       6426  
      6295       6296       6307       6306       6416       6417       6428       6427  
      6296       6297       6308       6307       6417       6418       6429       6428  
      6297       6298       6309       6308       6418       6419       6430       6429  
      6298       6299       6310       6309       6419       6420       6431       6430  
      6299       6300       6311       6310       6420       6421       6432       6431  
      6300       6301       6312       6311       6421       6422       6433       6432  
      6301       6302       6313       6312       6422       6423       6434       6433  
      6302       6303       6314       6313       6423       6424       6435       6434  
      6304       6305       6316       6315       6425       6426       6437       6436  
      6305       6306       6317       6316       6426       6427       6438       6437  
      6306       6307       6318       6317       6427       6428       6439       6438  
      6307       6308       6319       6318       6428       6429       6440       6439  
      6308       6309       6320       6319       6429       6430       6441       6440  
      6309       6310       6321       6320       6430       6431       6442       6441  
      6310       6311       6322       6321       6431       6432       6443       6442  
      6311       6312       6323       6322       6432       6433       6444       6443  
      6312       6313       6324       6323       6433       6434       6445       6444  
      6313       6314       6325       6324       6434       6435       6446       6445  
      6315       6316       6327       6326       6436       6437       6448       6447  
      6316       6317       6328       6327       6437       6438       6449       6448  
      6317       6318       6329       6328       6438       6439       6450       6449  
      6318       6319       6330       6329       6439       6440       6451       6450  
      6319       6320       6331       6330       6440       6441       6452       6451  
      6320       6321       6332       6331       6441       6442       6453       6452  
      6321       6322       6333       6332       6442       6443       6454       6453  
      6322       6323       6334       6333       6443       6444       6455       6454  
      6323       6324       6335       6334       6444       6445       6456       6455  
      6324       6325       6336       6335       6445       6446       6457       6456  
      6326       6327       6338       6337       6447       6448       6459       6458  
      6327       6328       6339       6338       6448       6449       6460       6459  
      6328       6329       6340       6339       6449       6450       6461       6460  
      6329       6330       6341       6340       6450       6451       6462       6461  
      6330       6331       6342       6341       6451       6452       6463       6462  
      6331       6332       6343       6342       6452       6453       6464       6463  
      6332       6333       6344       6343       6453       6454       6465       6464  
      6333       6334       6345       6344       6454       6455       6466       6465  
      6334       6335       6346       6345       6455       6456       6467       6466  
      6335       6336       6347       6346       6456       6457       6468       6467  
      6337       6338       6349       6348       6458       6459       6470       6469  
      6338       6339       6350       6349       6459       6460       6471       6470  
      6339       6340       6351       6350       6460       6461       6472       6471  
      6340       6341       6352       6351       6461       6462       6473       6472  
      6341       6342       6353       6352       6462       6463       6474       6473  
      6342       6343       6354       6353       6463       6464       6475       6474  
      6343       6344       6355       6354       6464       6465       6476       6475  
      6344       6345       6356       6355       6465       6466       6477       6476  
      6345       6346       6357       6356       6466       6467       6478       6477  
      6346       6347       6358       6357       6467       6468       6479       6478  
      6348       6349       6360       6359       6469       6470       6481       6480  
      6349       6350       6361       6360       6470       6471       6482       6481  
      6350       6351       6362       6361       6471       6472       6483       6482  
      6351       6352       6363       6362       6472       6473       6484       6483  
      6352       6353       6364       6363       6473       6474       6485       6484  
      6353       6354       6365       6364       6474       6475       6486       6485  
      6354       6355       6366       6365       6475       6476       6487       6486  
      6355       6356       6367       6366       6476       6477       6488       6487  
      6356       6357       6368       6367       6477       6478       6489       6488  
      6357       6358       6369       6368       6478       6479       6490       6489  
      6359       6360       6371       6370       6480       6481       6492       6491  
      6360       6361       6372       6371       6481       6482       6493       6492  
      6361       6362       6373       6372       6482       6483       6494       6493  
      6362       6363       6374       6373       6483       6484       6495       6494  
      6363       6364       6375       6374       6484       6485       6496       6495  
      6364       6365       6376       6375       6485       6486       6497       6496  
      6365       6366       6377       6376       6486       6487       6498       6497  
      6366       6367       6378       6377       6487       6488       6499       6498  
      6367       6368       6379       6378       6488       6489       6500       6499  
      6368       6369       6380       6379       6489       6490       6501       6500  
      6370       6371       6382       6381       6491       6492       6503       6502  
      6371       6372       6383       6382       6492       6493       6504       6503  
      6372       6373       6384       6383       6493       6494       6505       6504  
      6373       6374       6385       6384       6494       6495       6506       6505  
      6374       6375       6386       6385       6495       6496       6507       6506  
      6375       6376       6387       6386       6496       6497       6508       6507  
      6376       6377       6388       6387       6497       6498       6509       6508  
      6377       6378       6389       6388       6498       6499       6510       6509  
      6378       6379       6390       6389       6499       6500       6511       6510  
      6379       6380       6391       6390       6500       6501       6512       6511  
      6381       6382       6393       6392       6502       6503       6514       6513  
      6382       6383       6394       6393       6503       6504       6515       6514  
      6383       6384       6395       6394       6504       6505       6516       6515  
      6384       6385       6396       6395       6505       6506       6517       6516  
      6385       6386       6397       6396       6506       6507       6518       6517  
      6386       6387       6398       6397       6507       6508       6519       6518  
      6387       6388       6399       6398       6508       6509       6520       6519  
      6388       6389       6400       6399       6509       6510       6521       6520  
      6389       6390       6401       6400       6510       6511       6522       6521  
      6390       6391       6402       6401       6511       6512       6523       6522  
      6392       6393       6404       6403       6513       6514       6525       6524  
      6393       6394       6405       6404       6514       6515       6526       6525  
      6394       6395       6406       6405       6515       6516       6527       6526  
      6395       6396       6407       6406       6516       6517       6528       6527  
      6396       6397       6408       6407       6517       6518       6529       6528  
      6397       6398       6409       6408       6518       6519       6530       6529  
      6398       6399       6410       6409       6519       6520       6531       6530  
      6399       6400       6411       6410       6520       6521       6532       6531  
      6400       6401       6412       6411       6521       6522       6533       6532  
      6401       6402       6413       6412       6522       6523       6534       6533  
      6414       6415       6426       6425       6535       6536       6547       6546  
      6415       6416       6427       6426       6536       6537       6548       6547  
      6416       6417       6428       6427       6537       6538       6549       6548  
      6417       6418       6429       6428       6538       6539       6550       6549  
      6418       6419       6430       6429       6539       6540       6551       6550  
      6419       6420       6431       6430       6540       6541       6552       6551  
      6420       6421       6432       6431       6541       6542       6553       6552  
      6421       6422       6433       6432       6542       6543       6554       6553  
      6422       6423       6434       6433       6543       6544       6555       6554  
      6423       6424       6435       6434       6544       6545       6556       6555  
      6425       6426       6437       6436       6546       6547       6558       6557  
      6426       6427       6438       6437       6547       6548       6559       6558  
      6427       6428       6439       6438       6548       6549       6560       6559  
      6428       6429       6440       6439       6549       6550       6561       6560  
      6429       6430       6441       6440       6550       6551       6562       6561  
      6430       6431       6442       6441       6551       6552       6563       6562  
      6431       6432       6443       6442       6552       6553       6564       6563  
      6432       6433       6444       6443       6553       6554       6565       6564  
      6433       6434       6445       6444       6554       6555       6566       6565  
      6434       6435       6446       6445       6555       6556       6567       6566  
      6436       6437       6448       6447       6557       6558       6569       6568  
      6437       6438       6449       6448       6558       6559       6570       6569  
      6438       6439       6450       6449       6559       6560       6571       6570  
      6439       6440       6451       6450       6560       6561       6572       6571  
      6440       6441       6452       6451       6561       6562       6573       6572  
      6441       6442       6453       6452       6562       6563       6574       6573  
      6442       6443       6454       6453       6563       6564       6575       6574  
      6443       6444       6455       6454       6564       6565       6576       6575  
      6444       6445       6456       6455       6565       6566       6577       6576  
      6445       6446       6457       6456       6566       6567       6578       6577  
      6447       6448       6459       6458       6568       6569       6580       6579  
      6448       6449       6460       6459       6569       6570       6581       6580  
      6449       6450       6461       6460       6570       6571       6582       6581  
      6450       6451       6462       6461       6571       6572       6583       6582  
      6451       6452       6463       6462       6572       6573       6584       6583  
      6452       6453       6464       6463       6573       6574       6585       6584  
      6453       6454       6465       6464       6574       6575       6586       6585  
      6454       6455       6466       6465       6575       6576       6587       6586  
      6455       6456       6467       6466       6576       6577       6588       6587  
      6456       6457       6468       6467       6577       6578       6589       6588  
      6458       6459       6470       6469       6579       6580       6591       6590  
      6459       6460       6471       6470       6580       6581       6592       6591  
      6460       6461       6472       6471       6581       6582       6593       6592  
      6461       6462       6473       6472       6582       6583       6594       6593  
      6462       6463       6474       6473       6583       6584       6595       6594  
      6463       6464       6475       6474       6584       6585       6596       6595  
      6464       6465       6476       6475       6585       6586       6597       6596  
      6465       6466       6477       6476       6586       6587       6598       6597  
      6466       6467       6478       6477       6587       6588       6599       6598  
      6467       6468       6479       6478       6588       6589       6600       6599  
      6469       6470       6481       6480       6590       6591       6602       6601  
      6470       6471       6482       6481       6591       6592       6603       6602  
      6471       6472       6483       6482       6592       6593       6604       6603  
      6472       6473       6484       6483       6593       6594       6605       6604  
      6473       6474       6485       6484       6594       6595       6606       6605  
      6474       6475       6486       6485       6595       6596       6607       6606  
      6475       6476       6487       6486       6596       6597       6608       6607  
      6476       6477       6488       6487       6597       6598       6609       6608  
      6477       6478       6489       6488       6598       6599       6610       6609  
      6478       6479       6490       6489       6599       6600       6611       6610  
      6480       6481       6492       6491       6601       6602       6613       6612  
      6481       6482       6493       6492       6602       6603       6614       6613  
      6482       6483       6494       6493       6603       6604       6615       6614  
      6483       6484       6495       6494       6604       6605       6616       6615  
      6484       6485       6496       6495       6605       6606       6617       6616  
      6485       6486       6497       6496       6606       6607       6618       6617  
      6486       6487       6498       6497       6607       6608       6619       6618  
      6487       6488       6499       6498       6608       6609       6620       6619  
      6488       6489       6500       6499       6609       6610       6621       6620  
      6489       6490       6501       6500       6610       6611       6622       6621  
      6491       6492       6503       6502       6612       6613       6624       6623  
      6492       6493       6504       6503       6613       6614       6625       6624  
      6493       6494       6505       6504       6614       6615       6626       6625  
      6494       6495       6506       6505       6615       6616       6627       6626  
      6495       6496       6507       6506       6616       6617       6628       6627  
      6496       6497       6508       6507       6617       6618       6629       6628  
      6497       6498       6509       6508       6618       6619       6630       6629  
      6498       6499       6510       6509       6619       6620       6631       6630  
      6499       6500       6511       6510       6620       6621       6632       6631  
      6500       6501       6512       6511       6621       6622       6633       6632  
      6502       6503       6514       6513       6623       6624       6635       6634  
      6503       6504       6515       6514       6624       6625       6636       6635  
      6504       6505       6516       6515       6625       6626       6637       6636  
      6505       6506       6517       6516       6626       6627       6638       6637  
      6506       6507       6518       6517       6627       6628       6639       6638  
      6507       6508       6519       6518       6628       6629       6640       6639  
      6508       6509       6520       6519       6629       6630       6641       6640  
      6509       6510       6521       6520       6630       6631       6642       6641  
      6510       6511       6522       6521       6631       6632       6643       6642  
      6511       6512       6523       6522       6632       6633       6644       6643  
      6513       6514       6525       6524       6634       6635       6646       6645  
      6514       6515       6526       6525       6635       6636       6647       6646  
      6515       6516       6527       6526       6636       6637       6648       6647  
      6516       6517       6528       6527       6637       6638       6649       6648  
      6517       6518       6529       6528       6638       6639       6650       6649  
      6518       6519       6530       6529       6639       6640       6651       6650  
      6519       6520       6531       6530       6640       6641       6652       6651  
      6520       6521       6532       6531       6641       6642       6653       6652  
      6521       6522       6533       6532       6642       6643       6654       6653  
      6522       6523       6534       6533       6643       6644       6655       6654  
      6535       6536       6547       6546       6656       6657       6668       6667  
      6536       6537       6548       6547       6657       6658       6669       6668  
      6537       6538       6549       6548       6658       6659       6670       6669  
      6538       6539       6550       6549       6659       6660       6671       6670  
      6539       6540       6551       6550       6660       6661       6672       6671  
      6540       6541       6552       6551       6661       6662       6673       6672  
      6541       6542       6553       6552       6662       6663       6674       6673  
      6542       6543       6554       6553       6663       6664       6675       6674  
      6543       6544       6555       6554       6664       6665       6676       6675  
      6544       6545       6556       6555       6665       6666       6677       6676  
      6546       6547       6558       6557       6667       6668       6679       6678  
      6547       6548       6559       6558       6668       6669       6680       6679  
      6548       6549       6560       6559       6669       6670       6681       6680  
      6549       6550       6561       6560       6670       6671       6682       6681  
      6550       6551       6562       6561       6671       6672       6683       6682  
      6551       6552       6563       6562       6672       6673       6684       6683  
      6552       6553       6564       6563       6673       6674       6685       6684  
      6553       6554       6565       6564       6674       6675       6686       6685  
      6554       6555       6566       6565       6675       6676       6687       6686  
      6555       6556       6567       6566       6676       6677       6688       6687  
      6557       6558       6569       6568       6678       6679       6690       6689  
      6558       6559       6570       6569       6679       6680       6691       6690  
      6559       6560       6571       6570       6680       6681       6692       6691  
      6560       6561       6572       6571       6681       6682       6693       6692  
      6561       6562       6573       6572       6682       6683       6694       6693  
      6562       6563       6574       6573       6683       6684       6695       6694  
      6563       6564       6575       6574       6684       6685       6696       6695  
      6564       6565       6576       6575       6685       6686       6697       6696  
      6565       6566       6577       6576       6686       6687       6698       6697  
      6566       6567       6578       6577       6687       6688       6699       6698  
      6568       6569       6580       6579       6689       6690       6701       6700  
      6569       6570       6581       6580       6690       6691       6702       6701  
      6570       6571       6582       6581       6691       6692       6703       6702  
      6571       6572       6583       6582       6692       6693       6704       6703  
      6572       6573       6584       6583       6693       6694       6705       6704  
      6573       6574       6585       6584       6694       6695       6706       6705  
      6574       6575       6586       6585       6695       6696       6707       6706  
      6575       6576       6587       6586       6696       6697       6708       6707  
      6576       6577       6588       6587       6697       6698       6709       6708  
      6577       6578       6589       6588       6698       6699       6710       6709  
      6579       6580       6591       6590       6700       6701       6712       6711  
      6580       6581       6592       6591       6701       6702       6713       6712  
      6581       6582       6593       6592       6702       6703       6714       6713  
      6582       6583       6594       6593       6703       6704       6715       6714  
      6583       6584       6595       6594       6704       6705       6716       6715  
      6584       6585       6596       6595       6705       6706       6717       6716  
      6585       6586       6597       6596       6706       6707       6718       6717  
      6586       6587       6598       6597       6707       6708       6719       6718  
      6587       6588       6599       6598       6708       6709       6720       6719  
      6588       6589       6600       6599       6709       6710       6721       6720  
      6590       6591       6602       6601       6711       6712       6723       6722  
      6591       6592       6603       6602       6712       6713       6724       6723  
      6592       6593       6604       6603       6713       6714       6725       6724  
      6593       6594       6605       6604       6714       6715       6726       6725  
      6594       6595       6606       6605       6715       6716       6727       6726  
      6595       6596       6607       6606       6716       6717       6728       6727  
      6596       6597       6608       6607       6717       6718       6729       6728  
      6597       6598       6609       6608       6718       6719       6730       6729  
      6598       6599       6610       6609       6719       6720       6731       6730  
      6599       6600       6611       6610       6720       6721       6732       6731  
      6601       6602       6613       6612       6722       6723       6734       6733  
      6602       6603       6614       6613       6723       6724       6735       6734  
      6603       6604       6615       6614       6724       6725       6736       6735  
      6604       6605       6616       6615       6725       6726       6737       6736  
      6605       6606       6617       6616       6726       6727       6738       6737  
      6606       6607       6618       6617       6727       6728       6739       6738  
      6607       6608       6619       6618       6728       6729       6740       6739  
      6608       6609       6620       6619       6729       6730       6741       6740  
      6609       6610       6621       6620       6730       6731       6742       6741  
      6610       6611       6622       6621       6731       6732       6743       6742  
      6612       6613       6624       6623       6733       6734       6745       6744  
      6613       6614       6625       6624       6734       6735       6746       6745  
      6614       6615       6626       6625       6735       6736       6747       6746  
      6615       6616       6627       6626       6736       6737       6748       6747  
      6616       6617       6628       6627       6737       6738       6749       6748  
      6617       6618       6629       6628       6738       6739       6750       6749  
      6618       6619       6630       6629       6739       6740       6751       6750  
      6619       6620       6631       6630       6740       6741       6752       6751  
      6620       6621       6632       6631       6741       6742       6753       6752  
      6621       6622       6633       6632       6742       6743       6754       6753  
      6623       6624       6635       6634       6744       6745       6756       6755  
      6624       6625       6636       6635       6745       6746       6757       6756  
      6625       6626       6637       6636       6746       6747       6758       6757  
      6626       6627       6638       6637       6747       6748       6759       6758  
      6627       6628       6639       6638       6748       6749       6760       6759  
      6628       6629       6640       6639       6749       6750       6761       6760  
      6629       6630       6641       6640       6750       6751       6762       6761  
      6630       6631       6642       6641       6751       6752       6763       6762  
      6631       6632       6643       6642       6752       6753       6764       6763  
      6632       6633       6644       6643       6753       6754       6765       6764  
      6634       6635       6646       6645       6755       6756       6767       6766  
      6635       6636       6647       6646       6756       6757       6768       6767  
      6636       6637       6648       6647       6757       6758       6769       6768  
      6637       6638       6649       6648       6758       6759       6770       6769  
      6638       6639       6650       6649       6759       6760       6771       6770  
      6639       6640       6651       6650       6760       6761       6772       6771  
      6640       6641       6652       6651       6761       6762       6773       6772  
      6641       6642       6653       6652       6762       6763       6774       6773  
      6642       6643       6654       6653       6763       6764       6775       6774  
      6643       6644       6655       6654       6764       6765       6776       6775  
      6656       6657       6668       6667       6777       6778       6789       6788  
      6657       6658       6669       6668       6778       6779       6790       6789  
      6658       6659       6670       6669       6779       6780       6791       6790  
      6659       6660       6671       6670       6780       6781       6792       6791  
      6660       6661       6672       6671       6781       6782       6793       6792  
      6661       6662       6673       6672       6782       6783       6794       6793  
      6662       6663       6674       6673       6783       6784       6795       6794  
      6663       6664       6675       6674       6784       6785       6796       6795  
      6664       6665       6676       6675       6785       6786       6797       6796  
      6665       6666       6677       6676       6786       6787       6798       6797  
      6667       6668       6679       6678       6788       6789       6800       6799  
      6668       6669       6680       6679       6789       6790       6801       6800  
      6669       6670       6681       6680       6790       6791       6802       6801  
      6670       6671       6682       6681       6791       6792       6803       6802  
      6671       6672       6683       6682       6792       6793       6804       6803  
      6672       6673       6684       6683       6793       6794       6805       6804  
      6673       6674       6685       6684       6794       6795       6806       6805  
      6674       6675       6686       6685       6795       6796       6807       6806  
      6675       6676       6687       6686       6796       6797       6808       6807  
      6676       6677       6688       6687       6797       6798       6809       6808  
      6678       6679       6690       6689       6799       6800       6811       6810  
      6679       6680       6691       6690       6800       6801       6812       6811  
      6680       6681       6692       6691       6801       6802       6813       6812  
      6681       6682       6693       6692       6802       6803       6814       6813  
      6682       6683       6694       6693       6803       6804       6815       6814  
      6683       6684       6695       6694       6804       6805       6816       6815  
      6684       6685       6696       6695       6805       6806       6817       6816  
      6685       6686       6697       6696       6806       6807       6818       6817  
      6686       6687       6698       6697       6807       6808       6819       6818  
      6687       6688       6699       6698       6808       6809       6820       6819  
      6689       6690       6701       6700       6810       6811       6822       6821  
      6690       6691       6702       6701       6811       6812       6823       6822  
      6691       6692       6703       6702       6812       6813       6824       6823  
      6692       6693       6704       6703       6813       6814       6825       6824  
      6693       6694       6705       6704       6814       6815       6826       6825  
      6694       6695       6706       6705       6815       6816       6827       6826  
      6695       6696       6707       6706       6816       6817       6828       6827  
      6696       6697       6708       6707       6817       6818       6829       6828  
      6697       6698       6709       6708       6818       6819       6830       6829  
      6698       6699       6710       6709       6819       6820       6831       6830  
      6700       6701       6712       6711       6821       6822       6833       6832  
      6701       6702       6713       6712       6822       6823       6834       6833  
      6702       6703       6714       6713       6823       6824       6835       6834  
      6703       6704       6715       6714       6824       6825       6836       6835  
      6704       6705       6716       6715       6825       6826       6837       6836  
      6705       6706       6717       6716       6826       6827       6838       6837  
      6706       6707       6718       6717       6827       6828       6839       6838  
      6707       6708       6719       6718       6828       6829       6840       6839  
      6708       6709       6720       6719       6829       6830       6841       6840  
      6709       6710       6721       6720       6830       6831       6842       6841  
      6711       6712       6723       6722       6832       6833       6844       6843  
      6712       6713       6724       6723       6833       6834       6845       6844  
      6713       6714       6725       6724       6834       6835       6846       6845  
      6714       6715       6726       6725       6835       6836       6847       6846  
      6715       6716       6727       6726       6836       6837       6848       6847  
      6716       6717       6728       6727       6837       6838       6849       6848  
      6717       6718       6729       6728       6838       6839       6850       6849  
      6718       6719       6730       6729       6839       6840       6851       6850  
      6719       6720       6731       6730       6840       6841       6852       6851  
      6720       6721       6732       6731       6841       6842       6853       6852  
      6722       6723       6734       6733       6843       6844       6855       6854  
      6723       6724       6735       6734       6844       6845       6856       6855  
      6724       6725       6736       6735       6845       6846       6857       6856  
      6725       6726       6737       6736       6846       6847       6858       6857  
      6726       6727       6738       6737       6847       6848       6859       6858  
      6727       6728       6739       6738       6848       6849       6860       6859  
      6728       6729       6740       6739       6849       6850       6861       6860  
      6729       6730       6741       6740       6850       6851       6862       6861  
      6730       6731       6742       6741       6851       6852       6863       6862  
      6731       6732       6743       6742       6852       6853       6864       6863  
      6733       6734       6745       6744       6854       6855       6866       6865  
      6734       6735       6746       6745       6855       6856       6867       6866  
      6735       6736       6747       6746       6856       6857       6868       6867  
      6736       6737       6748       6747       6857       6858       6869       6868  
      6737       6738       6749       6748       6858       6859       6870       6869  
      6738       6739       6750       6749       6859       6860       6871       6870  
      6739       6740       6751       6750       6860       6861       6872       6871  
      6740       6741       6752       6751       6861       6862       6873       6872  
      6741       6742       6753       6752       6862       6863       6874       6873  
      6742       6743       6754       6753       6863       6864       6875       6874  
      6744       6745       6756       6755       6865       6866       6877       6876  
      6745       6746       6757       6756       6866       6867       6878       6877  
      6746       6747       6758       6757       6867       6868       6879       6878  
      6747       6748       6759       6758       6868       6869       6880       6879  
      6748       6749       6760       6759       6869       6870       6881       6880  
      6749       6750       6761       6760       6870       6871       6882       6881  
      6750       6751       6762       6761       6871       6872       6883       6882  
      6751       6752       6763       6762       6872       6873       6884       6883  
      6752       6753       6764       6763       6873       6874       6885       6884  
      6753       6754       6765       6764       6874       6875       6886       6885  
      6755       6756       6767       6766       6876       6877       6888       6887  
      6756       6757       6768       6767       6877       6878       6889       6888  
      6757       6758       6769       6768       6878       6879       6890       6889  
      6758       6759       6770       6769       6879       6880       6891       6890  
      6759       6760       6771       6770       6880       6881       6892       6891  
      6760       6761       6772       6771       6881       6882       6893       6892  
      6761       6762       6773       6772       6882       6883       6894       6893  
      6762       6763       6774       6773       6883       6884       6895       6894  
      6763       6764       6775       6774       6884       6885       6896       6895  
      6764       6765       6776       6775       6885       6886       6897       6896  
      6777       6778       6789       6788       6898       6899       6910       6909  
      6778       6779       6790       6789       6899       6900       6911       6910  
      6779       6780       6791       6790       6900       6901       6912       6911  
      6780       6781       6792       6791       6901       6902       6913       6912  
      6781       6782       6793       6792       6902       6903       6914       6913  
      6782       6783       6794       6793       6903       6904       6915       6914  
      6783       6784       6795       6794       6904       6905       6916       6915  
      6784       6785       6796       6795       6905       6906       6917       6916  
      6785       6786       6797       6796       6906       6907       6918       6917  
      6786       6787       6798       6797       6907       6908       6919       6918  
      6788       6789       6800       6799       6909       6910       6921       6920  
      6789       6790       6801       6800       6910       6911       6922       6921  
      6790       6791       6802       6801       6911       6912       6923       6922  
      6791       6792       6803       6802       6912       6913       6924       6923  
      6792       6793       6804       6803       6913       6914       6925       6924  
      6793       6794       6805       6804       6914       6915       6926       6925  
      6794       6795       6806       6805       6915       6916       6927       6926  
      6795       6796       6807       6806       6916       6917       6928       6927  
      6796       6797       6808       6807       6917       6918       6929       6928  
      6797       6798       6809       6808       6918       6919       6930       6929  
      6799       6800       6811       6810       6920       6921       6932       6931  
      6800       6801       6812       6811       6921       6922       6933       6932  
      6801       6802       6813       6812       6922       6923       6934       6933  
      6802       6803       6814       6813       6923       6924       6935       6934  
      6803       6804       6815       6814       6924       6925       6936       6935  
      6804       6805       6816       6815       6925       6926       6937       6936  
      6805       6806       6817       6816       6926       6927       6938       6937  
      6806       6807       6818       6817       6927       6928       6939       6938  
      6807       6808       6819       6818       6928       6929       6940       6939  
      6808       6809       6820       6819       6929       6930       6941       6940  
      6810       6811       6822       6821       6931       6932       6943       6942  
      6811       6812       6823       6822       6932       6933       6944       6943  
      6812       6813       6824       6823       6933       6934       6945       6944  
      6813       6814       6825       6824       6934       6935       6946       6945  
      6814       6815       6826       6825       6935       6936       6947       6946  
      6815       6816       6827       6826       6936       6937       6948       6947  
      6816       6817       6828       6827       6937       6938       6949       6948  
      6817       6818       6829       6828       6938       6939       6950       6949  
      6818       6819       6830       6829       6939       6940       6951       6950  
      6819       6820       6831       6830       6940       6941       6952       6951  
      6821       6822       6833       6832       6942       6943       6954       6953  
      6822       6823       6834       6833       6943       6944       6955       6954  
      6823       6824       6835       6834       6944       6945       6956       6955  
      6824       6825       6836       6835       6945       6946       6957       6956  
      6825       6826       6837       6836       6946       6947       6958       6957  
      6826       6827       6838       6837       6947       6948       6959       6958  
      6827       6828       6839       6838       6948       6949       6960       6959  
      6828       6829       6840       6839       6949       6950       6961       6960  
      6829       6830       6841       6840       6950       6951       6962       6961  
      6830       6831       6842       6841       6951       6952       6963       6962  
      6832       6833       6844       6843       6953       6954       6965       6964  
      6833       6834       6845       6844       6954       6955       6966       6965  
      6834       6835       6846       6845       6955       6956       6967       6966  
      6835       6836       6847       6846       6956       6957       6968       6967  
      6836       6837       6848       6847       6957       6958       6969       6968  
      6837       6838       6849       6848       6958       6959       6970       6969  
      6838       6839       6850       6849       6959       6960       6971       6970  
      6839       6840       6851       6850       6960       6961       6972       6971  
      6840       6841       6852       6851       6961       6962       6973       6972  
      6841       6842       6853       6852       6962       6963       6974       6973  
      6843       6844       6855       6854       6964       6965       6976       6975  
      6844       6845       6856       6855       6965       6966       6977       6976  
      6845       6846       6857       6856       6966       6967       6978       6977  
      6846       6847       6858       6857       6967       6968       6979       6978  
      6847       6848       6859       6858       6968       6969       6980       6979  
      6848       6849       6860       6859       6969       6970       6981       6980  
      6849       6850       6861       6860       6970       6971       6982       6981  
      6850       6851       6862       6861       6971       6972       6983       6982  
      6851       6852       6863       6862       6972       6973       6984       6983  
      6852       6853       6864       6863       6973       6974       6985       6984  
      6854       6855       6866       6865       6975       6976       6987       6986  
      6855       6856       6867       6866       6976       6977       6988       6987  
      6856       6857       6868       6867       6977       6978       6989       6988  
      6857       6858       6869       6868       6978       6979       6990       6989  
      6858       6859       6870       6869       6979       6980       6991       6990  
      6859       6860       6871       6870       6980       6981       6992       6991  
      6860       6861       6872       6871       6981       6982       6993       6992  
      6861       6862       6873       6872       6982       6983       6994       6993  
      6862       6863       6874       6873       6983       6984       6995       6994  
      6863       6864       6875       6874       6984       6985       6996       6995  
      6865       6866       6877       6876       6986       6987       6998       6997  
      6866       6867       6878       6877       6987       6988       6999       6998  
      6867       6868       6879       6878       6988       6989       7000       6999  
      6868       6869       6880       6879       6989       6990       7001       7000  
      6869       6870       6881       6880       6990       6991       7002       7001  
      6870       6871       6882       6881       6991       6992       7003       7002  
      6871       6872       6883       6882       6992       6993       7004       7003  
      6872       6873       6884       6883       6993       6994       7005       7004  
      6873       6874       6885       6884       6994       6995       7006       7005  
      6874       6875       6886       6885       6995       6996       7007       7006  
      6876       6877       6888       6887       6997       6998       7009       7008  
      6877       6878       6889       6888       6998       6999       7010       7009  
      6878       6879       6890       6889       6999       7000       7011       7010  
      6879       6880       6891       6890       7000       7001       7012       7011  
      6880       6881       6892       6891       7001       7002       7013       7012  
      6881       6882       6893       6892       7002       7003       7014       7013  
      6882       6883       6894       6893       7003       7004       7015       7014  
      6883       6884       6895       6894       7004       7005       7016       7015  
      6884       6885       6896       6895       7005       7006       7017       7016  
      6885       6886       6897       6896       7006       7007       7018       7017  
      6898       6899       6910       6909       7019       7020       7031       7030  
      6899       6900       6911       6910       7020       7021       7032       7031  
      6900       6901       6912       6911       7021       7022       7033       7032  
      6901       6902       6913       6912       7022       7023       7034       7033  
      6902       6903       6914       6913       7023       7024       7035       7034  
      6903       6904       6915       6914       7024       7025       7036       7035  
      6904       6905       6916       6915       7025       7026       7037       7036  
      6905       6906       6917       6916       7026       7027       7038       7037  
      6906       6907       6918       6917       7027       7028       7039       7038  
      6907       6908       6919       6918       7028       7029       7040       7039  
      6909       6910       6921       6920       7030       7031       7042       7041  
      6910       6911       6922       6921       7031       7032       7043       7042  
      6911       6912       6923       6922       7032       7033       7044       7043  
      6912       6913       6924       6923       7033       7034       7045       7044  
      6913       6914       6925       6924       7034       7035       7046       7045  
      6914       6915       6926       6925       7035       7036       7047       7046  
      6915       6916       6927       6926       7036       7037       7048       7047  
      6916       6917       6928       6927       7037       7038       7049       7048  
      6917       6918       6929       6928       7038       7039       7050       7049  
      6918       6919       6930       6929       7039       7040       7051       7050  
      6920       6921       6932       6931       7041       7042       7053       7052  
      6921       6922       6933       6932       7042       7043       7054       7053  
      6922       6923       6934       6933       7043       7044       7055       7054  
      6923       6924       6935       6934       7044       7045       7056       7055  
      6924       6925       6936       6935       7045       7046       7057       7056  
      6925       6926       6937       6936       7046       7047       7058       7057  
      6926       6927       6938       6937       7047       7048       7059       7058  
      6927       6928       6939       6938       7048       7049       7060       7059  
      6928       6929       6940       6939       7049       7050       7061       7060  
      6929       6930       6941       6940       7050       7051       7062       7061  
      6931       6932       6943       6942       7052       7053       7064       7063  
      6932       6933       6944       6943       7053       7054       7065       7064  
      6933       6934       6945       6944       7054       7055       7066       7065  
      6934       6935       6946       6945       7055       7056       7067       7066  
      6935       6936       6947       6946       7056       7057       7068       7067  
      6936       6937       6948       6947       7057       7058       7069       7068  
      6937       6938       6949       6948       7058       7059       7070       7069  
      6938       6939       6950       6949       7059       7060       7071       7070  
      6939       6940       6951       6950       7060       7061       7072       7071  
      6940       6941       6952       6951       7061       7062       7073       7072  
      6942       6943       6954       6953       7063       7064       7075       7074  
      6943       6944       6955       6954       7064       7065       7076       7075  
      6944       6945       6956       6955       7065       7066       7077       7076  
      6945       6946       6957       6956       7066       7067       7078       7077  
      6946       6947       6958       6957       7067       7068       7079       7078  
      6947       6948       6959       6958       7068       7069       7080       7079  
      6948       6949       6960       6959       7069       7070       7081       7080  
      6949       6950       6961       6960       7070       7071       7082       7081  
      6950       6951       6962       6961       7071       7072       7083       7082  
      6951       6952       6963       6962       7072       7073       7084       7083  
      6953       6954       6965       6964       7074       7075       7086       7085  
      6954       6955       6966       6965       7075       7076       7087       7086  
      6955       6956       6967       6966       7076       7077       7088       7087  
      6956       6957       6968       6967       7077       7078       7089       7088  
      6957       6958       6969       6968       7078       7079       7090       7089  
      6958       6959       6970       6969       7079       7080       7091       7090  
      6959       6960       6971       6970       7080       7081       7092       7091  
      6960       6961       6972       6971       7081       7082       7093       7092  
      6961       6962       6973       6972       7082       7083       7094       7093  
      6962       6963       6974       6973       7083       7084       7095       7094  
      6964       6965       6976       6975       7085       7086       7097       7096  
      6965       6966       6977       6976       7086       7087       7098       7097  
      6966       6967       6978       6977       7087       7088       7099       7098  
      6967       6968       6979       6978       7088       7089       7100       7099  
      6968       6969       6980       6979       7089       7090       7101       7100  
      6969       6970       6981       6980       7090       7091       7102       7101  
      6970       6971       6982       6981       7091       7092       7103       7102  
      6971       6972       6983       6982       7092       7093       7104       7103  
      6972       6973       6984       6983       7093       7094       7105       7104  
      6973       6974       6985       6984       7094       7095       7106       7105  
      6975       6976       6987       6986       7096       7097       7108       7107  
      6976       6977       6988       6987       7097       7098       7109       7108  
      6977       6978       6989       6988       7098       7099       7110       7109  
      6978       6979       6990       6989       7099       7100       7111       7110  
      6979       6980       6991       6990       7100       7101       7112       7111  
      6980       6981       6992       6991       7101       7102       7113       7112  
      6981       6982       6993       6992       7102       7103       7114       7113  
      6982       6983       6994       6993       7103       7104       7115       7114  
      6983       6984       6995       6994       7104       7105       7116       7115  
      6984       6985       6996       6995       7105       7106       7117       7116  
      6986       6987       6998       6997       7107       7108       7119       7118  
      6987       6988       6999       6998       7108       7109       7120       7119  
      6988       6989       7000       6999       7109       7110       7121       7120  
      6989       6990       7001       7000       7110       7111       7122       7121  
      6990       6991       7002       7001       7111       7112       7123       7122  
      6991       6992       7003       7002       7112       7113       7124       7123  
      6992       6993       7004       7003       7113       7114       7125       7124  
      6993       6994       7005       7004       7114       7115       7126       7125  
      6994       6995       7006       7005       7115       7116       7127       7126  
      6995       6996       7007       7006       7116       7117       7128       7127  
      6997       6998       7009       7008       7118       7119       7130       7129  
      6998       6999       7010       7009       7119       7120       7131       7130  
      6999       7000       7011       7010       7120       7121       7132       7131  
      7000       7001       7012       7011       7121       7122       7133       7132  
      7001       7002       7013       7012       7122       7123       7134       7133  
      7002       7003       7014       7013       7123       7124       7135       7134  
      7003       7004       7015       7014       7124       7125       7136       7135  
      7004       7005       7016       7015       7125       7126       7137       7136  
      7005       7006       7017       7016       7126       7127       7138       7137  
      7006       7007       7018       7017       7127       7128       7139       7138  
      7019       7020       7031       7030       7140       7141       7152       7151  
      7020       7021       7032       7031       7141       7142       7153       7152  
      7021       7022       7033       7032       7142       7143       7154       7153  
      7022       7023       7034       7033       7143       7144       7155       7154  
      7023       7024       7035       7034       7144       7145       7156       7155  
      7024       7025       7036       7035       7145       7146       7157       7156  
      7025       7026       7037       7036       7146       7147       7158       7157  
      7026       7027       7038       7037       7147       7148       7159       7158  
      7027       7028       7039       7038       7148       7149       7160       7159  
      7028       7029       7040       7039       7149       7150       7161       7160  
      7030       7031       7042       7041       7151       7152       7163       7162  
      7031       7032       7043       7042       7152       7153       7164       7163  
      7032       7033       7044       7043       7153       7154       7165       7164  
      7033       7034       7045       7044       7154       7155       7166       7165  
      7034       7035       7046       7045       7155       7156       7167       7166  
      7035       7036       7047       7046       7156       7157       7168       7167  
      7036       7037       7048       7047       7157       7158       7169       7168  
      7037       7038       7049       7048       7158       7159       7170       7169  
      7038       7039       7050       7049       7159       7160       7171       7170  
      7039       7040       7051       7050       7160       7161       7172       7171  
      7041       7042       7053       7052       7162       7163       7174       7173  
      7042       7043       7054       7053       7163       7164       7175       7174  
      7043       7044       7055       7054       7164       7165       7176       7175  
      7044       7045       7056       7055       7165       7166       7177       7176  
      7045       7046       7057       7056       7166       7167       7178       7177  
      7046       7047       7058       7057       7167       7168       7179       7178  
      7047       7048       7059       7058       7168       7169       7180       7179  
      7048       7049       7060       7059       7169       7170       7181       7180  
      7049       7050       7061       7060       7170       7171       7182       7181  
      7050       7051       7062       7061       7171       7172       7183       7182  
      7052       7053       7064       7063       7173       7174       7185       7184  
      7053       7054       7065       7064       7174       7175       7186       7185  
      7054       7055       7066       7065       7175       7176       7187       7186  
      7055       7056       7067       7066       7176       7177       7188       7187  
      7056       7057       7068       7067       7177       7178       7189       7188  
      7057       7058       7069       7068       7178       7179       7190       7189  
      7058       7059       7070       7069       7179       7180       7191       7190  
      7059       7060       7071       7070       7180       7181       7192       7191  
      7060       7061       7072       7071       7181       7182       7193       7192  
      7061       7062       7073       7072       7182       7183       7194       7193  
      7063       7064       7075       7074       7184       7185       7196       7195  
      7064       7065       7076       7075       7185       7186       7197       7196  
      7065       7066       7077       7076       7186       7187       7198       7197  
      7066       7067       7078       7077       7187       7188       7199       7198  
      7067       7068       7079       7078       7188       7189       7200       7199  
      7068       7069       7080       7079       7189       7190       7201       7200  
      7069       7070       7081       7080       7190       7191       7202       7201  
      7070       7071       7082       7081       7191       7192       7203       7202  
      7071       7072       7083       7082       7192       7193       7204       7203  
      7072       7073       7084       7083       7193       7194       7205       7204  
      7074       7075       7086       7085       7195       7196       7207       7206  
      7075       7076       7087       7086       7196       7197       7208       7207  
      7076       7077       7088       7087       7197       7198       7209       7208  
      7077       7078       7089       7088       7198       7199       7210       7209  
      7078       7079       7090       7089       7199       7200       7211       7210  
      7079       7080       7091       7090       7200       7201       7212       7211  
      7080       7081       7092       7091       7201       7202       7213       7212  
      7081       7082       7093       7092       7202       7203       7214       7213  
      7082       7083       7094       7093       7203       7204       7215       7214  
      7083       7084       7095       7094       7204       7205       7216       7215  
      7085       7086       7097       7096       7206       7207       7218       7217  
      7086       7087       7098       7097       7207       7208       7219       7218  
      7087       7088       7099       7098       7208       7209       7220       7219  
      7088       7089       7100       7099       7209       7210       7221       7220  
      7089       7090       7101       7100       7210       7211       7222       7221  
      7090       7091       7102       7101       7211       7212       7223       7222  
      7091       7092       7103       7102       7212       7213       7224       7223  
      7092       7093       7104       7103       7213       7214       7225       7224  
      7093       7094       7105       7104       7214       7215       7226       7225  
      7094       7095       7106       7105       7215       7216       7227       7226  
      7096       7097       7108       7107       7217       7218       7229       7228  
      7097       7098       7109       7108       7218       7219       7230       7229  
      7098       7099       7110       7109       7219       7220       7231       7230  
      7099       7100       7111       7110       7220       7221       7232       7231  
      7100       7101       7112       7111       7221       7222       7233       7232  
      7101       7102       7113       7112       7222       7223       7234       7233  
      7102       7103       7114       7113       7223       7224       7235       7234  
      7103       7104       7115       7114       7224       7225       7236       7235  
      7104       7105       7116       7115       7225       7226       7237       7236  
      7105       7106       7117       7116       7226       7227       7238       7237  
      7107       7108       7119       7118       7228       7229       7240       7239  
      7108       7109       7120       7119       7229       7230       7241       7240  
      7109       7110       7121       7120       7230       7231       7242       7241  
      7110       7111       7122       7121       7231       7232       7243       7242  
      7111       7112       7123       7122       7232       7233       7244       7243  
      7112       7113       7124       7123       7233       7234       7245       7244  
      7113       7114       7125       7124       7234       7235       7246       7245  
      7114       7115       7126       7125       7235       7236       7247       7246  
      7115       7116       7127       7126       7236       7237       7248       7247  
      7116       7117       7128       7127       7237       7238       7249       7248  
      7118       7119       7130       7129       7239       7240       7251       7250  
      7119       7120       7131       7130       7240       7241       7252       7251  
      7120       7121       7132       7131       7241       7242       7253       7252  
      7121       7122       7133       7132       7242       7243       7254       7253  
      7122       7123       7134       7133       7243       7244       7255       7254  
      7123       7124       7135       7134       7244       7245       7256       7255  
      7124       7125       7136       7135       7245       7246       7257       7256  
      7125       7126       7137       7136       7246       7247       7258       7257  
      7126       7127       7138       7137       7247       7248       7259       7258  
      7127       7128       7139       7138       7248       7249       7260       7259  
      7140       7141       7152       7151       7261       7262       7273       7272  
      7141       7142       7153       7152       7262       7263       7274       7273  
      7142       7143       7154       7153       7263       7264       7275       7274  
      7143       7144       7155       7154       7264       7265       7276       7275  
      7144       7145       7156       7155       7265       7266       7277       7276  
      7145       7146       7157       7156       7266       7267       7278       7277  
      7146       7147       7158       7157       7267       7268       7279       7278  
      7147       7148       7159       7158       7268       7269       7280       7279  
      7148       7149       7160       7159       7269       7270       7281       7280  
      7149       7150       7161       7160       7270       7271       7282       7281  
      7151       7152       7163       7162       7272       7273       7284       7283  
      7152       7153       7164       7163       7273       7274       7285       7284  
      7153       7154       7165       7164       7274       7275       7286       7285  
      7154       7155       7166       7165       7275       7276       7287       7286  
      7155       7156       7167       7166       7276       7277       7288       7287  
      7156       7157       7168       7167       7277       7278       7289       7288  
      7157       7158       7169       7168       7278       7279       7290       7289  
      7158       7159       7170       7169       7279       7280       7291       7290  
      7159       7160       7171       7170       7280       7281       7292       7291  
      7160       7161       7172       7171       7281       7282       7293       7292  
      7162       7163       7174       7173       7283       7284       7295       7294  
      7163       7164       7175       7174       7284       7285       7296       7295  
      7164       7165       7176       7175       7285       7286       7297       7296  
      7165       7166       7177       7176       7286       7287       7298       7297  
      7166       7167       7178       7177       7287       7288       7299       7298  
      7167       7168       7179       7178       7288       7289       7300       7299  
      7168       7169       7180       7179       7289       7290       7301       7300  
      7169       7170       7181       7180       7290       7291       7302       7301  
      7170       7171       7182       7181       7291       7292       7303       7302  
      7171       7172       7183       7182       7292       7293       7304       7303  
      7173       7174       7185       7184       7294       7295       7306       7305  
      7174       7175       7186       7185       7295       7296       7307       7306  
      7175       7176       7187       7186       7296       7297       7308       7307  
      7176       7177       7188       7187       7297       7298       7309       7308  
      7177       7178       7189       7188       7298       7299       7310       7309  
      7178       7179       7190       7189       7299       7300       7311       7310  
      7179       7180       7191       7190       7300       7301       7312       7311  
      7180       7181       7192       7191       7301       7302       7313       7312  
      7181       7182       7193       7192       7302       7303       7314       7313  
      7182       7183       7194       7193       7303       7304       7315       7314  
      7184       7185       7196       7195       7305       7306       7317       7316  
      7185       7186       7197       7196       7306       7307       7318       7317  
      7186       7187       7198       7197       7307       7308       7319       7318  
      7187       7188       7199       7198       7308       7309       7320       7319  
      7188       7189       7200       7199       7309       7310       7321       7320  
      7189       7190       7201       7200       7310       7311       7322       7321  
      7190       7191       7202       7201       7311       7312       7323       7322  
      7191       7192       7203       7202       7312       7313       7324       7323  
      7192       7193       7204       7203       7313       7314       7325       7324  
      7193       7194       7205       7204       7314       7315       7326       7325  
      7195       7196       7207       7206       7316       7317       7328       7327  
      7196       7197       7208       7207       7317       7318       7329       7328  
      7197       7198       7209       7208       7318       7319       7330       7329  
      7198       7199       7210       7209       7319       7320       7331       7330  
      7199       7200       7211       7210       7320       7321       7332       7331  
      7200       7201       7212       7211       7321       7322       7333       7332  
      7201       7202       7213       7212       7322       7323       7334       7333  
      7202       7203       7214       7213       7323       7324       7335       7334  
      7203       7204       7215       7214       7324       7325       7336       7335  
      7204       7205       7216       7215       7325       7326       7337       7336  
      7206       7207       7218       7217       7327       7328       7339       7338  
      7207       7208       7219       7218       7328       7329       7340       7339  
      7208       7209       7220       7219       7329       7330       7341       7340  
      7209       7210       7221       7220       7330       7331       7342       7341  
      7210       7211       7222       7221       7331       7332       7343       7342  
      7211       7212       7223       7222       7332       7333       7344       7343  
      7212       7213       7224       7223       7333       7334       7345       7344  
      7213       7214       7225       7224       7334       7335       7346       7345  
      7214       7215       7226       7225       7335       7336       7347       7346  
      7215       7216       7227       7226       7336       7337       7348       7347  
      7217       7218       7229       7228       7338       7339       7350       7349  
      7218       7219       7230       7229       7339       7340       7351       7350  
      7219       7220       7231       7230       7340       7341       7352       7351  
      7220       7221       7232       7231       7341       7342       7353       7352  
      7221       7222       7233       7232       7342       7343       7354       7353  
      7222       7223       7234       7233       7343       7344       7355       7354  
      7223       7224       7235       7234       7344       7345       7356       7355  
      7224       7225       7236       7235       7345       7346       7357       7356  
      7225       7226       7237       7236       7346       7347       7358       7357  
      7226       7227       7238       7237       7347       7348       7359       7358  
      7228       7229       7240       7239       7349       7350       7361       7360  
      7229       7230       7241       7240       7350       7351       7362       7361  
      7230       7231       7242       7241       7351       7352       7363       7362  
      7231       7232       7243       7242       7352       7353       7364       7363  
      7232       7233       7244       7243       7353       7354       7365       7364  
      7233       7234       7245       7244       7354       7355       7366       7365  
      7234       7235       7246       7245       7355       7356       7367       7366  
      7235       7236       7247       7246       7356       7357       7368       7367  
      7236       7237       7248       7247       7357       7358       7369       7368  
      7237       7238       7249       7248       7358       7359       7370       7369  
      7239       7240       7251       7250       7360       7361       7372       7371  
      7240       7241       7252       7251       7361       7362       7373       7372  
      7241       7242       7253       7252       7362       7363       7374       7373  
      7242       7243       7254       7253       7363       7364       7375       7374  
      7243       7244       7255       7254       7364       7365       7376       7375  
      7244       7245       7256       7255       7365       7366       7377       7376  
      7245       7246       7257       7256       7366       7367       7378       7377  
      7246       7247       7258       7257       7367       7368       7379       7378  
      7247       7248       7259       7258       7368       7369       7380       7379  
      7248       7249       7260       7259       7369       7370       7381       7380  
      7261       7262       7273       7272       7382       7383       7394       7393  
      7262       7263       7274       7273       7383       7384       7395       7394  
      7263       7264       7275       7274       7384       7385       7396       7395  
      7264       7265       7276       7275       7385       7386       7397       7396  
      7265       7266       7277       7276       7386       7387       7398       7397  
      7266       7267       7278       7277       7387       7388       7399       7398  
      7267       7268       7279       7278       7388       7389       7400       7399  
      7268       7269       7280       7279       7389       7390       7401       7400  
      7269       7270       7281       7280       7390       7391       7402       7401  
      7270       7271       7282       7281       7391       7392       7403       7402  
      7272       7273       7284       7283       7393       7394       7405       7404  
      7273       7274       7285       7284       7394       7395       7406       7405  
      7274       7275       7286       7285       7395       7396       7407       7406  
      7275       7276       7287       7286       7396       7397       7408       7407  
      7276       7277       7288       7287       7397       7398       7409       7408  
      7277       7278       7289       7288       7398       7399       7410       7409  
      7278       7279       7290       7289       7399       7400       7411       7410  
      7279       7280       7291       7290       7400       7401       7412       7411  
      7280       7281       7292       7291       7401       7402       7413       7412  
      7281       7282       7293       7292       7402       7403       7414       7413  
      7283       7284       7295       7294       7404       7405       7416       7415  
      7284       7285       7296       7295       7405       7406       7417       7416  
      7285       7286       7297       7296       7406       7407       7418       7417  
      7286       7287       7298       7297       7407       7408       7419       7418  
      7287       7288       7299       7298       7408       7409       7420       7419  
      7288       7289       7300       7299       7409       7410       7421       7420  
      7289       7290       7301       7300       7410       7411       7422       7421  
      7290       7291       7302       7301       7411       7412       7423       7422  
      7291       7292       7303       7302       7412       7413       7424       7423  
      7292       7293       7304       7303       7413       7414       7425       7424  
      7294       7295       7306       7305       7415       7416       7427       7426  
      7295       7296       7307       7306       7416       7417       7428       7427  
      7296       7297       7308       7307       7417       7418       7429       7428  
      7297       7298       7309       7308       7418       7419       7430       7429  
      7298       7299       7310       7309       7419       7420       7431       7430  
      7299       7300       7311       7310       7420       7421       7432       7431  
      7300       7301       7312       7311       7421       7422       7433       7432  
      7301       7302       7313       7312       7422       7423       7434       7433  
      7302       7303       7314       7313       7423       7424       7435       7434  
      7303       7304       7315       7314       7424       7425       7436       7435  
      7305       7306       7317       7316       7426       7427       7438       7437  
      7306       7307       7318       7317       7427       7428       7439       7438  
      7307       7308       7319       7318       7428       7429       7440       7439  
      7308       7309       7320       7319       7429       7430       7441       7440  
      7309       7310       7321       7320       7430       7431       7442       7441  
      7310       7311       7322       7321       7431       7432       7443       7442  
      7311       7312       7323       7322       7432       7433       7444       7443  
      7312       7313       7324       7323       7433       7434       7445       7444  
      7313       7314       7325       7324       7434       7435       7446       7445  
      7314       7315       7326       7325       7435       7436       7447       7446  
      7316       7317       7328       7327       7437       7438       7449       7448  
      7317       7318       7329       7328       7438       7439       7450       7449  
      7318       7319       7330       7329       7439       7440       7451       7450  
      7319       7320       7331       7330       7440       7441       7452       7451  
      7320       7321       7332       7331       7441       7442       7453       7452  
      7321       7322       7333       7332       7442       7443       7454       7453  
      7322       7323       7334       7333       7443       7444       7455       7454  
      7323       7324       7335       7334       7444       7445       7456       7455  
      7324       7325       7336       7335       7445       7446       7457       7456  
      7325       7326       7337       7336       7446       7447       7458       7457  
      7327       7328       7339       7338       7448       7449       7460       7459  
      7328       7329       7340       7339       7449       7450       7461       7460  
      7329       7330       7341       7340       7450       7451       7462       7461  
      7330       7331       7342       7341       7451       7452       7463       7462  
      7331       7332       7343       7342       7452       7453       7464       7463  
      7332       7333       7344       7343       7453       7454       7465       7464  
      7333       7334       7345       7344       7454       7455       7466       7465  
      7334       7335       7346       7345       7455       7456       7467       7466  
      7335       7336       7347       7346       7456       7457       7468       7467  
      7336       7337       7348       7347       7457       7458       7469       7468  
      7338       7339       7350       7349       7459       7460       7471       7470  
      7339       7340       7351       7350       7460       7461       7472       7471  
      7340       7341       7352       7351       7461       7462       7473       7472  
      7341       7342       7353       7352       7462       7463       7474       7473  
      7342       7343       7354       7353       7463       7464       7475       7474  
      7343       7344       7355       7354       7464       7465       7476       7475  
      7344       7345       7356       7355       7465       7466       7477       7476  
      7345       7346       7357       7356       7466       7467       7478       7477  
      7346       7347       7358       7357       7467       7468       7479       7478  
      7347       7348       7359       7358       7468       7469       7480       7479  
      7349       7350       7361       7360       7470       7471       7482       7481  
      7350       7351       7362       7361       7471       7472       7483       7482  
      7351       7352       7363       7362       7472       7473       7484       7483  
      7352       7353       7364       7363       7473       7474       7485       7484  
      7353       7354       7365       7364       7474       7475       7486       7485  
      7354       7355       7366       7365       7475       7476       7487       7486  
      7355       7356       7367       7366       7476       7477       7488       7487  
      7356       7357       7368       7367       7477       7478       7489       7488  
      7357       7358       7369       7368       7478       7479       7490       7489  
      7358       7359       7370       7369       7479       7480       7491       7490  
      7360       7361       7372       7371       7481       7482       7493       7492  
      7361       7362       7373       7372       7482       7483       7494       7493  
      7362       7363       7374       7373       7483       7484       7495       7494  
      7363       7364       7375       7374       7484       7485       7496       7495  
      7364       7365       7376       7375       7485       7486       7497       7496  
      7365       7366       7377       7376       7486       7487       7498       7497  
      7366       7367       7378       7377       7487       7488       7499       7498  
      7367       7368       7379       7378       7488       7489       7500       7499  
      7368       7369       7380       7379       7489       7490       7501       7500  
      7369       7370       7381       7380       7490       7491       7502       7501  
      7382       7383       7394       7393       7503       7504       7515       7514  
      7383       7384       7395       7394       7504       7505       7516       7515  
      7384       7385       7396       7395       7505       7506       7517       7516  
      7385       7386       7397       7396       7506       7507       7518       7517  
      7386       7387       7398       7397       7507       7508       7519       7518  
      7387       7388       7399       7398       7508       7509       7520       7519  
      7388       7389       7400       7399       7509       7510       7521       7520  
      7389       7390       7401       7400       7510       7511       7522       7521  
      7390       7391       7402       7401       7511       7512       7523       7522  
      7391       7392       7403       7402       7512       7513       7524       7523  
      7393       7394       7405       7404       7514       7515       7526       7525  
      7394       7395       7406       7405       7515       7516       7527       7526  
      7395       7396       7407       7406       7516       7517       7528       7527  
      7396       7397       7408       7407       7517       7518       7529       7528  
      7397       7398       7409       7408       7518       7519       7530       7529  
      7398       7399       7410       7409       7519       7520       7531       7530  
      7399       7400       7411       7410       7520       7521       7532       7531  
      7400       7401       7412       7411       7521       7522       7533       7532  
      7401       7402       7413       7412       7522       7523       7534       7533  
      7402       7403       7414       7413       7523       7524       7535       7534  
      7404       7405       7416       7415       7525       7526       7537       7536  
      7405       7406       7417       7416       7526       7527       7538       7537  
      7406       7407       7418       7417       7527       7528       7539       7538  
      7407       7408       7419       7418       7528       7529       7540       7539  
      7408       7409       7420       7419       7529       7530       7541       7540  
      7409       7410       7421       7420       7530       7531       7542       7541  
      7410       7411       7422       7421       7531       7532       7543       7542  
      7411       7412       7423       7422       7532       7533       7544       7543  
      7412       7413       7424       7423       7533       7534       7545       7544  
      7413       7414       7425       7424       7534       7535       7546       7545  
      7415       7416       7427       7426       7536       7537       7548       7547  
      7416       7417       7428       7427       7537       7538       7549       7548  
      7417       7418       7429       7428       7538       7539       7550       7549  
      7418       7419       7430       7429       7539       7540       7551       7550  
      7419       7420       7431       7430       7540       7541       7552       7551  
      7420       7421       7432       7431       7541       7542       7553       7552  
      7421       7422       7433       7432       7542       7543       7554       7553  
      7422       7423       7434       7433       7543       7544       7555       7554  
      7423       7424       7435       7434       7544       7545       7556       7555  
      7424       7425       7436       7435       7545       7546       7557       7556  
      7426       7427       7438       7437       7547       7548       7559       7558  
      7427       7428       7439       7438       7548       7549       7560       7559  
      7428       7429       7440       7439       7549       7550       7561       7560  
      7429       7430       7441       7440       7550       7551       7562       7561  
      7430       7431       7442       7441       7551       7552       7563       7562  
      7431       7432       7443       7442       7552       7553       7564       7563  
      7432       7433       7444       7443       7553       7554       7565       7564  
      7433       7434       7445       7444       7554       7555       7566       7565  
      7434       7435       7446       7445       7555       7556       7567       7566  
      7435       7436       7447       7446       7556       7557       7568       7567  
      7437       7438       7449       7448       7558       7559       7570       7569  
      7438       7439       7450       7449       7559       7560       7571       7570  
      7439       7440       7451       7450       7560       7561       7572       7571  
      7440       7441       7452       7451       7561       7562       7573       7572  
      7441       7442       7453       7452       7562       7563       7574       7573  
      7442       7443       7454       7453       7563       7564       7575       7574  
      7443       7444       7455       7454       7564       7565       7576       7575  
      7444       7445       7456       7455       7565       7566       7577       7576  
      7445       7446       7457       7456       7566       7567       7578       7577  
      7446       7447       7458       7457       7567       7568       7579       7578  
      7448       7449       7460       7459       7569       7570       7581       7580  
      7449       7450       7461       7460       7570       7571       7582       7581  
      7450       7451       7462       7461       7571       7572       7583       7582  
      7451       7452       7463       7462       7572       7573       7584       7583  
      7452       7453       7464       7463       7573       7574       7585       7584  
      7453       7454       7465       7464       7574       7575       7586       7585  
      7454       7455       7466       7465       7575       7576       7587       7586  
      7455       7456       7467       7466       7576       7577       7588       7587  
      7456       7457       7468       7467       7577       7578       7589       7588  
      7457       7458       7469       7468       7578       7579       7590       7589  
      7459       7460       7471       7470       7580       7581       7592       7591  
      7460       7461       7472       7471       7581       7582       7593       7592  
      7461       7462       7473       7472       7582       7583       7594       7593  
      7462       7463       7474       7473       7583       7584       7595       7594  
      7463       7464       7475       7474       7584       7585       7596       7595  
      7464       7465       7476       7475       7585       7586       7597       7596  
      7465       7466       7477       7476       7586       7587       7598       7597  
      7466       7467       7478       7477       7587       7588       7599       7598  
      7467       7468       7479       7478       7588       7589       7600       7599  
      7468       7469       7480       7479       7589       7590       7601       7600  
      7470       7471       7482       7481       7591       7592       7603       7602  
      7471       7472       7483       7482       7592       7593       7604       7603  
      7472       7473       7484       7483       7593       7594       7605       7604  
      7473       7474       7485       7484       7594       7595       7606       7605  
      7474       7475       7486       7485       7595       7596       7607       7606  
      7475       7476       7487       7486       7596       7597       7608       7607  
      7476       7477       7488       7487       7597       7598       7609       7608  
      7477       7478       7489       7488       7598       7599       7610       7609  
      7478       7479       7490       7489       7599       7600       7611       7610  
      7479       7480       7491       7490       7600       7601       7612       7611  
      7481       7482       7493       7492       7602       7603       7614       7613  
      7482       7483       7494       7493       7603       7604       7615       7614  
      7483       7484       7495       7494       7604       7605       7616       7615  
      7484       7485       7496       7495       7605       7606       7617       7616  
      7485       7486       7497       7496       7606       7607       7618       7617  
      7486       7487       7498       7497       7607       7608       7619       7618  
      7487       7488       7499       7498       7608       7609       7620       7619  
      7488       7489       7500       7499       7609       7610       7621       7620  
      7489       7490       7501       7500       7610       7611       7622       7621  
      7490       7491       7502       7501       7611       7612       7623       7622  
      7503       7504       7515       7514       7624       7625       7636       7635  
      7504       7505       7516       7515       7625       7626       7637       7636  
      7505       7506       7517       7516       7626       7627       7638       7637  
      7506       7507       7518       7517       7627       7628       7639       7638  
      7507       7508       7519       7518       7628       7629       7640       7639  
      7508       7509       7520       7519       7629       7630       7641       7640  
      7509       7510       7521       7520       7630       7631       7642       7641  
      7510       7511       7522       7521       7631       7632       7643       7642  
      7511       7512       7523       7522       7632       7633       7644       7643  
      7512       7513       7524       7523       7633       7634       7645       7644  
      7514       7515       7526       7525       7635       7636       7647       7646  
      7515       7516       7527       7526       7636       7637       7648       7647  
      7516       7517       7528       7527       7637       7638       7649       7648  
      7517       7518       7529       7528       7638       7639       7650       7649  
      7518       7519       7530       7529       7639       7640       7651       7650  
      7519       7520       7531       7530       7640       7641       7652       7651  
      7520       7521       7532       7531       7641       7642       7653       7652  
      7521       7522       7533       7532       7642       7643       7654       7653  
      7522       7523       7534       7533       7643       7644       7655       7654  
      7523       7524       7535       7534       7644       7645       7656       7655  
      7525       7526       7537       7536       7646       7647       7658       7657  
      7526       7527       7538       7537       7647       7648       7659       7658  
      7527       7528       7539       7538       7648       7649       7660       7659  
      7528       7529       7540       7539       7649       7650       7661       7660  
      7529       7530       7541       7540       7650       7651       7662       7661  
      7530       7531       7542       7541       7651       7652       7663       7662  
      7531       7532       7543       7542       7652       7653       7664       7663  
      7532       7533       7544       7543       7653       7654       7665       7664  
      7533       7534       7545       7544       7654       7655       7666       7665  
      7534       7535       7546       7545       7655       7656       7667       7666  
      7536       7537       7548       7547       7657       7658       7669       7668  
      7537       7538       7549       7548       7658       7659       7670       7669  
      7538       7539       7550       7549       7659       7660       7671       7670  
      7539       7540       7551       7550       7660       7661       7672       7671  
      7540       7541       7552       7551       7661       7662       7673       7672  
      7541       7542       7553       7552       7662       7663       7674       7673  
      7542       7543       7554       7553       7663       7664       7675       7674  
      7543       7544       7555       7554       7664       7665       7676       7675  
      7544       7545       7556       7555       7665       7666       7677       7676  
      7545       7546       7557       7556       7666       7667       7678       7677  
      7547       7548       7559       7558       7668       7669       7680       7679  
      7548       7549       7560       7559       7669       7670       7681       7680  
      7549       7550       7561       7560       7670       7671       7682       7681  
      7550       7551       7562       7561       7671       7672       7683       7682  
      7551       7552       7563       7562       7672       7673       7684       7683  
      7552       7553       7564       7563       7673       7674       7685       7684  
      7553       7554       7565       7564       7674       7675       7686       7685  
      7554       7555       7566       7565       7675       7676       7687       7686  
      7555       7556       7567       7566       7676       7677       7688       7687  
      7556       7557       7568       7567       7677       7678       7689       7688  
      7558       7559       7570       7569       7679       7680       7691       7690  
      7559       7560       7571       7570       7680       7681       7692       7691  
      7560       7561       7572       7571       7681       7682       7693       7692  
      7561       7562       7573       7572       7682       7683       7694       7693  
      7562       7563       7574       7573       7683       7684       7695       7694  
      7563       7564       7575       7574       7684       7685       7696       7695  
      7564       7565       7576       7575       7685       7686       7697       7696  
      7565       7566       7577       7576       7686       7687       7698       7697  
      7566       7567       7578       7577       7687       7688       7699       7698  
      7567       7568       7579       7578       7688       7689       7700       7699  
      7569       7570       7581       7580       7690       7691       7702       7701  
      7570       7571       7582       7581       7691       7692       7703       7702  
      7571       7572       7583       7582       7692       7693       7704       7703  
      7572       7573       7584       7583       7693       7694       7705       7704  
      7573       7574       7585       7584       7694       7695       7706       7705  
      7574       7575       7586       7585       7695       7696       7707       7706  
      7575       7576       7587       7586       7696       7697       7708       7707  
      7576       7577       7588       7587       7697       7698       7709       7708  
      7577       7578       7589       7588       7698       7699       7710       7709  
      7578       7579       7590       7589       7699       7700       7711       7710  
      7580       7581       7592       7591       7701       7702       7713       7712  
      7581       7582       7593       7592       7702       7703       7714       7713  
      7582       7583       7594       7593       7703       7704       7715       7714  
      7583       7584       7595       7594       7704       7705       7716       7715  
      7584       7585       7596       7595       7705       7706       7717       7716  
      7585       7586       7597       7596       7706       7707       7718       7717  
      7586       7587       7598       7597       7707       7708       7719       7718  
      7587       7588       7599       7598       7708       7709       7720       7719  
      7588       7589       7600       7599       7709       7710       7721       7720  
      7589       7590       7601       7600       7710       7711       7722       7721  
      7591       7592       7603       7602       7712       7713       7724       7723  
      7592       7593       7604       7603       7713       7714       7725       7724  
      7593       7594       7605       7604       7714       7715       7726       7725  
      7594       7595       7606       7605       7715       7716       7727       7726  
      7595       7596       7607       7606       7716       7717       7728       7727  
      7596       7597       7608       7607       7717       7718       7729       7728  
      7597       7598       7609       7608       7718       7719       7730       7729  
      7598       7599       7610       7609       7719       7720       7731       7730  
      7599       7600       7611       7610       7720       7721       7732       7731  
      7600       7601       7612       7611       7721       7722       7733       7732  
      7602       7603       7614       7613       7723       7724       7735       7734  
      7603       7604       7615       7614       7724       7725       7736       7735  
      7604       7605       7616       7615       7725       7726       7737       7736  
      7605       7606       7617       7616       7726       7727       7738       7737  
      7606       7607       7618       7617       7727       7728       7739       7738  
      7607       7608       7619       7618       7728       7729       7740       7739  
      7608       7609       7620       7619       7729       7730       7741       7740  
      7609       7610       7621       7620       7730       7731       7742       7741  
      7610       7611       7622       7621       7731       7732       7743       7742  
      7611       7612       7623       7622       7732       7733       7744       7743  
      7624       7625       7636       7635       7745       7746       7757       7756  
      7625       7626       7637       7636       7746       7747       7758       7757  
      7626       7627       7638       7637       7747       7748       7759       7758  
      7627       7628       7639       7638       7748       7749       7760       7759  
      7628       7629       7640       7639       7749       7750       7761       7760  
      7629       7630       7641       7640       7750       7751       7762       7761  
      7630       7631       7642       7641       7751       7752       7763       7762  
      7631       7632       7643       7642       7752       7753       7764       7763  
      7632       7633       7644       7643       7753       7754       7765       7764  
      7633       7634       7645       7644       7754       7755       7766       7765  
      7635       7636       7647       7646       7756       7757       7768       7767  
      7636       7637       7648       7647       7757       7758       7769       7768  
      7637       7638       7649       7648       7758       7759       7770       7769  
      7638       7639       7650       7649       7759       7760       7771       7770  
      7639       7640       7651       7650       7760       7761       7772       7771  
      7640       7641       7652       7651       7761       7762       7773       7772  
      7641       7642       7653       7652       7762       7763       7774       7773  
      7642       7643       7654       7653       7763       7764       7775       7774  
      7643       7644       7655       7654       7764       7765       7776       7775  
      7644       7645       7656       7655       7765       7766       7777       7776  
      7646       7647       7658       7657       7767       7768       7779       7778  
      7647       7648       7659       7658       7768       7769       7780       7779  
      7648       7649       7660       7659       7769       7770       7781       7780  
      7649       7650       7661       7660       7770       7771       7782       7781  
      7650       7651       7662       7661       7771       7772       7783       7782  
      7651       7652       7663       7662       7772       7773       7784       7783  
      7652       7653       7664       7663       7773       7774       7785       7784  
      7653       7654       7665       7664       7774       7775       7786       7785  
      7654       7655       7666       7665       7775       7776       7787       7786  
      7655       7656       7667       7666       7776       7777       7788       7787  
      7657       7658       7669       7668       7778       7779       7790       7789  
      7658       7659       7670       7669       7779       7780       7791       7790  
      7659       7660       7671       7670       7780       7781       7792       7791  
      7660       7661       7672       7671       7781       7782       7793       7792  
      7661       7662       7673       7672       7782       7783       7794       7793  
      7662       7663       7674       7673       7783       7784       7795       7794  
      7663       7664       7675       7674       7784       7785       7796       7795  
      7664       7665       7676       7675       7785       7786       7797       7796  
      7665       7666       7677       7676       7786       7787       7798       7797  
      7666       7667       7678       7677       7787       7788       7799       7798  
      7668       7669       7680       7679       7789       7790       7801       7800  
      7669       7670       7681       7680       7790       7791       7802       7801  
      7670       7671       7682       7681       7791       7792       7803       7802  
      7671       7672       7683       7682       7792       7793       7804       7803  
      7672       7673       7684       7683       7793       7794       7805       7804  
      7673       7674       7685       7684       7794       7795       7806       7805  
      7674       7675       7686       7685       7795       7796       7807       7806  
      7675       7676       7687       7686       7796       7797       7808       7807  
      7676       7677       7688       7687       7797       7798       7809       7808  
      7677       7678       7689       7688       7798       7799       7810       7809  
      7679       7680       7691       7690       7800       7801       7812       7811  
      7680       7681       7692       7691       7801       7802       7813       7812  
      7681       7682       7693       7692       7802       7803       7814       7813  
      7682       7683       7694       7693       7803       7804       7815       7814  
      7683       7684       7695       7694       7804       7805       7816       7815  
      7684       7685       7696       7695       7805       7806       7817       7816  
      7685       7686       7697       7696       7806       7807       7818       7817  
      7686       7687       7698       7697       7807       7808       7819       7818  
      7687       7688       7699       7698       7808       7809       7820       7819  
      7688       7689       7700       7699       7809       7810       7821       7820  
      7690       7691       7702       7701       7811       7812       7823       7822  
      7691       7692       7703       7702       7812       7813       7824       7823  
      7692       7693       7704       7703       7813       7814       7825       7824  
      7693       7694       7705       7704       7814       7815       7826       7825  
      7694       7695       7706       7705       7815       7816       7827       7826  
      7695       7696       7707       7706       7816       7817       7828       7827  
      7696       7697       7708       7707       7817       7818       7829       7828  
      7697       7698       7709       7708       7818       7819       7830       7829  
      7698       7699       7710       7709       7819       7820       7831       7830  
      7699       7700       7711       7710       7820       7821       7832       7831  
      7701       7702       7713       7712       7822       7823       7834       7833  
      7702       7703       7714       7713       7823       7824       7835       7834  
      7703       7704       7715       7714       7824       7825       7836       7835  
      7704       7705       7716       7715       7825       7826       7837       7836  
      7705       7706       7717       7716       7826       7827       7838       7837  
      7706       7707       7718       7717       7827       7828       7839       7838  
      7707       7708       7719       7718       7828       7829       7840       7839  
      7708       7709       7720       7719       7829       7830       7841       7840  
      7709       7710       7721       7720       7830       7831       7842       7841  
      7710       7711       7722       7721       7831       7832       7843       7842  
      7712       7713       7724       7723       7833       7834       7845       7844  
      7713       7714       7725       7724       7834       7835       7846       7845  
      7714       7715       7726       7725       7835       7836       7847       7846  
      7715       7716       7727       7726       7836       7837       7848       7847  
      7716       7717       7728       7727       7837       7838       7849       7848  
      7717       7718       7729       7728       7838       7839       7850       7849  
      7718       7719       7730       7729       7839       7840       7851       7850  
      7719       7720       7731       7730       7840       7841       7852       7851  
      7720       7721       7732       7731       7841       7842       7853       7852  
      7721       7722       7733       7732       7842       7843       7854       7853  
      7723       7724       7735       7734       7844       7845       7856       7855  
      7724       7725       7736       7735       7845       7846       7857       7856  
      7725       7726       7737       7736       7846       7847       7858       7857  
      7726       7727       7738       7737       7847       7848       7859       7858  
      7727       7728       7739       7738       7848       7849       7860       7859  
      7728       7729       7740       7739       7849       7850       7861       7860  
      7729       7730       7741       7740       7850       7851       7862       7861  
      7730       7731       7742       7741       7851       7852       7863       7862  
      7731       7732       7743       7742       7852       7853       7864       7863  
      7732       7733       7744       7743       7853       7854       7865       7864  
      7745       7746       7757       7756       7866       7867       7878       7877  
      7746       7747       7758       7757       7867       7868       7879       7878  
      7747       7748       7759       7758       7868       7869       7880       7879  
      7748       7749       7760       7759       7869       7870       7881       7880  
      7749       7750       7761       7760       7870       7871       7882       7881  
      7750       7751       7762       7761       7871       7872       7883       7882  
      7751       7752       7763       7762       7872       7873       7884       7883  
      7752       7753       7764       7763       7873       7874       7885       7884  
      7753       7754       7765       7764       7874       7875       7886       7885  
      7754       7755       7766       7765       7875       7876       7887       7886  
      7756       7757       7768       7767       7877       7878       7889       7888  
      7757       7758       7769       7768       7878       7879       7890       7889  
      7758       7759       7770       7769       7879       7880       7891       7890  
      7759       7760       7771       7770       7880       7881       7892       7891  
      7760       7761       7772       7771       7881       7882       7893       7892  
      7761       7762       7773       7772       7882       7883       7894       7893  
      7762       7763       7774       7773       7883       7884       7895       7894  
      7763       7764       7775       7774       7884       7885       7896       7895  
      7764       7765       7776       7775       7885       7886       7897       7896  
      7765       7766       7777       7776       7886       7887       7898       7897  
      7767       7768       7779       7778       7888       7889       7900       7899  
      7768       7769       7780       7779       7889       7890       7901       7900  
      7769       7770       7781       7780       7890       7891       7902       7901  
      7770       7771       7782       7781       7891       7892       7903       7902  
      7771       7772       7783       7782       7892       7893       7904       7903  
      7772       7773       7784       7783       7893       7894       7905       7904  
      7773       7774       7785       7784       7894       7895       7906       7905  
      7774       7775       7786       7785       7895       7896       7907       7906  
      7775       7776       7787       7786       7896       7897       7908       7907  
      7776       7777       7788       7787       7897       7898       7909       7908  
      7778       7779       7790       7789       7899       7900       7911       7910  
      7779       7780       7791       7790       7900       7901       7912       7911  
      7780       7781       7792       7791       7901       7902       7913       7912  
      7781       7782       7793       7792       7902       7903       7914       7913  
      7782       7783       7794       7793       7903       7904       7915       7914  
      7783       7784       7795       7794       7904       7905       7916       7915  
      7784       7785       7796       7795       7905       7906       7917       7916  
      7785       7786       7797       7796       7906       7907       7918       7917  
      7786       7787       7798       7797       7907       7908       7919       7918  
      7787       7788       7799       7798       7908       7909       7920       7919  
      7789       7790       7801       7800       7910       7911       7922       7921  
      7790       7791       7802       7801       7911       7912       7923       7922  
      7791       7792       7803       7802       7912       7913       7924       7923  
      7792       7793       7804       7803       7913       7914       7925       7924  
      7793       7794       7805       7804       7914       7915       7926       7925  
      7794       7795       7806       7805       7915       7916       7927       7926  
      7795       7796       7807       7806       7916       7917       7928       7927  
      7796       7797       7808       7807       7917       7918       7929       7928  
      7797       7798       7809       7808       7918       7919       7930       7929  
      7798       7799       7810       7809       7919       7920       7931       7930  
      7800       7801       7812       7811       7921       7922       7933       7932  
      7801       7802       7813       7812       7922       7923       7934       7933  
      7802       7803       7814       7813       7923       7924       7935       7934  
      7803       7804       7815       7814       7924       7925       7936       7935  
      7804       7805       7816       7815       7925       7926       7937       7936  
      7805       7806       7817       7816       7926       7927       7938       7937  
      7806       7807       7818       7817       7927       7928       7939       7938  
      7807       7808       7819       7818       7928       7929       7940       7939  
      7808       7809       7820       7819       7929       7930       7941       7940  
      7809       7810       7821       7820       7930       7931       7942       7941  
      7811       7812       7823       7822       7932       7933       7944       7943  
      7812       7813       7824       7823       7933       7934       7945       7944  
      7813       7814       7825       7824       7934       7935       7946       7945  
      7814       7815       7826       7825       7935       7936       7947       7946  
      7815       7816       7827       7826       7936       7937       7948       7947  
      7816       7817       7828       7827       7937       7938       7949       7948  
      7817       7818       7829       7828       7938       7939       7950       7949  
      7818       7819       7830       7829       7939       7940       7951       7950  
      7819       7820       7831       7830       7940       7941       7952       7951  
      7820       7821       7832       7831       7941       7942       7953       7952  
      7822       7823       7834       7833       7943       7944       7955       7954  
      7823       7824       7835       7834       7944       7945       7956       7955  
      7824       7825       7836       7835       7945       7946       7957       7956  
      7825       7826       7837       7836       7946       7947       7958       7957  
      7826       7827       7838       7837       7947       7948       7959       7958  
      7827       7828       7839       7838       7948       7949       7960       7959  
      7828       7829       7840       7839       7949       7950       7961       7960  
      7829       7830       7841       7840       7950       7951       7962       7961  
      7830       7831       7842       7841       7951       7952       7963       7962  
      7831       7832       7843       7842       7952       7953       7964       7963  
      7833       7834       7845       7844       7954       7955       7966       7965  
      7834       7835       7846       7845       7955       7956       7967       7966  
      7835       7836       7847       7846       7956       7957       7968       7967  
      7836       7837       7848       7847       7957       7958       7969       7968  
      7837       7838       7849       7848       7958       7959       7970       7969  
      7838       7839       7850       7849       7959       7960       7971       7970  
      7839       7840       7851       7850       7960       7961       7972       7971  
      7840       7841       7852       7851       7961       7962       7973       7972  
      7841       7842       7853       7852       7962       7963       7974       7973  
      7842       7843       7854       7853       7963       7964       7975       7974  
      7844       7845       7856       7855       7965       7966       7977       7976  
      7845       7846       7857       7856       7966       7967       7978       7977  
      7846       7847       7858       7857       7967       7968       7979       7978  
      7847       7848       7859       7858       7968       7969       7980       7979  
      7848       7849       7860       7859       7969       7970       7981       7980  
      7849       7850       7861       7860       7970       7971       7982       7981  
      7850       7851       7862       7861       7971       7972       7983       7982  
      7851       7852       7863       7862       7972       7973       7984       7983  
      7852       7853       7864       7863       7973       7974       7985       7984  
      7853       7854       7865       7864       7974       7975       7986       7985  
      7866       7867       7878       7877       7987       7988       7999       7998  
      7867       7868       7879       7878       7988       7989       8000       7999  
      7868       7869       7880       7879       7989       7990       8001       8000  
      7869       7870       7881       7880       7990       7991       8002       8001  
      7870       7871       7882       7881       7991       7992       8003       8002  
      7871       7872       7883       7882       7992       7993       8004       8003  
      7872       7873       7884       7883       7993       7994       8005       8004  
      7873       7874       7885       7884       7994       7995       8006       8005  
      7874       7875       7886       7885       7995       7996       8007       8006  
      7875       7876       7887       7886       7996       7997       8008       8007  
      7877       7878       7889       7888       7998       7999       8010       8009  
      7878       7879       7890       7889       7999       8000       8011       8010  
      7879       7880       7891       7890       8000       8001       8012       8011  
      7880       7881       7892       7891       8001       8002       8013       8012  
      7881       7882       7893       7892       8002       8003       8014       8013  
      7882       7883       7894       7893       8003       8004       8015       8014  
      7883       7884       7895       7894       8004       8005       8016       8015  
      7884       7885       7896       7895       8005       8006       8017       8016  
      7885       7886       7897       7896       8006       8007       8018       8017  
      7886       7887       7898       7897       8007       8008       8019       8018  
      7888       7889       7900       7899       8009       8010       8021       8020  
      7889       7890       7901       7900       8010       8011       8022       8021  
      7890       7891       7902       7901       8011       8012       8023       8022  
      7891       7892       7903       7902       8012       8013       8024       8023  
      7892       7893       7904       7903       8013       8014       8025       8024  
      7893       7894       7905       7904       8014       8015       8026       8025  
      7894       7895       7906       7905       8015       8016       8027       8026  
      7895       7896       7907       7906       8016       8017       8028       8027  
      7896       7897       7908       7907       8017       8018       8029       8028  
      7897       7898       7909       7908       8018       8019       8030       8029  
      7899       7900       7911       7910       8020       8021       8032       8031  
      7900       7901       7912       7911       8021       8022       8033       8032  
      7901       7902       7913       7912       8022       8023       8034       8033  
      7902       7903       7914       7913       8023       8024       8035       8034  
      7903       7904       7915       7914       8024       8025       8036       8035  
      7904       7905       7916       7915       8025       8026       8037       8036  
      7905       7906       7917       7916       8026       8027       8038       8037  
      7906       7907       7918       7917       8027       8028       8039       8038  
      7907       7908       7919       7918       8028       8029       8040       8039  
      7908       7909       7920       7919       8029       8030       8041       8040  
      7910       7911       7922       7921       8031       8032       8043       8042  
      7911       7912       7923       7922       8032       8033       8044       8043  
      7912       7913       7924       7923       8033       8034       8045       8044  
      7913       7914       7925       7924       8034       8035       8046       8045  
      7914       7915       7926       7925       8035       8036       8047       8046  
      7915       7916       7927       7926       8036       8037       8048       8047  
      7916       7917       7928       7927       8037       8038       8049       8048  
      7917       7918       7929       7928       8038       8039       8050       8049  
      7918       7919       7930       7929       8039       8040       8051       8050  
      7919       7920       7931       7930       8040       8041       8052       8051  
      7921       7922       7933       7932       8042       8043       8054       8053  
      7922       7923       7934       7933       8043       8044       8055       8054  
      7923       7924       7935       7934       8044       8045       8056       8055  
      7924       7925       7936       7935       8045       8046       8057       8056  
      7925       7926       7937       7936       8046       8047       8058       8057  
      7926       7927       7938       7937       8047       8048       8059       8058  
      7927       7928       7939       7938       8048       8049       8060       8059  
      7928       7929       7940       7939       8049       8050       8061       8060  
      7929       7930       7941       7940       8050       8051       8062       8061  
      7930       7931       7942       7941       8051       8052       8063       8062  
      7932       7933       7944       7943       8053       8054       8065       8064  
      7933       7934       7945       7944       8054       8055       8066       8065  
      7934       7935       7946       7945       8055       8056       8067       8066  
      7935       7936       7947       7946       8056       8057       8068       8067  
      7936       7937       7948       7947       8057       8058       8069       8068  
      7937       7938       7949       7948       8058       8059       8070       8069  
      7938       7939       7950       7949       8059       8060       8071       8070  
      7939       7940       7951       7950       8060       8061       8072       8071  
      7940       7941       7952       7951       8061       8062       8073       8072  
      7941       7942       7953       7952       8062       8063       8074       8073  
      7943       7944       7955       7954       8064       8065       8076       8075  
      7944       7945       7956       7955       8065       8066       8077       8076  
      7945       7946       7957       7956       8066       8067       8078       8077  
      7946       7947       7958       7957       8067       8068       8079       8078  
      7947       7948       7959       7958       8068       8069       8080       8079  
      7948       7949       7960       7959       8069       8070       8081       8080  
      7949       7950       7961       7960       8070       8071       8082       8081  
      7950       7951       7962       7961       8071       8072       8083       8082  
      7951       7952       7963       7962       8072       8073       8084       8083  
      7952       7953       7964       7963       8073       8074       8085       8084  
      7954       7955       7966       7965       8075       8076       8087       8086  
      7955       7956       7967       7966       8076       8077       8088       8087  
      7956       7957       7968       7967       8077       8078       8089       8088  
      7957       7958       7969       7968       8078       8079       8090       8089  
      7958       7959       7970       7969       8079       8080       8091       8090  
      7959       7960       7971       7970       8080       8081       8092       8091  
      7960       7961       7972       7971       8081       8082       8093       8092  
      7961       7962       7973       7972       8082       8083       8094       8093  
      7962       7963       7974       7973       8083       8084       8095       8094  
      7963       7964       7975       7974       8084       8085       8096       8095  
      7965       7966       7977       7976       8086       8087       8098       8097  
      7966       7967       7978       7977       8087       8088       8099       8098  
      7967       7968       7979       7978       8088       8089       8100       8099  
      7968       7969       7980       7979       8089       8090       8101       8100  
      7969       7970       7981       7980       8090       8091       8102       8101  
      7970       7971       7982       7981       8091       8092       8103       8102  
      7971       7972       7983       7982       8092       8093       8104       8103  
      7972       7973       7984       7983       8093       8094       8105       8104  
      7973       7974       7985       7984       8094       8095       8106       8105  
      7974       7975       7986       7985       8095       8096       8107       8106  
      7987       7988       7999       7998       8108       8109       8120       8119  
      7988       7989       8000       7999       8109       8110       8121       8120  
      7989       7990       8001       8000       8110       8111       8122       8121  
      7990       7991       8002       8001       8111       8112       8123       8122  
      7991       7992       8003       8002       8112       8113       8124       8123  
      7992       7993       8004       8003       8113       8114       8125       8124  
      7993       7994       8005       8004       8114       8115       8126       8125  
      7994       7995       8006       8005       8115       8116       8127       8126  
      7995       7996       8007       8006       8116       8117       8128       8127  
      7996       7997       8008       8007       8117       8118       8129       8128  
      7998       7999       8010       8009       8119       8120       8131       8130  
      7999       8000       8011       8010       8120       8121       8132       8131  
      8000       8001       8012       8011       8121       8122       8133       8132  
      8001       8002       8013       8012       8122       8123       8134       8133  
      8002       8003       8014       8013       8123       8124       8135       8134  
      8003       8004       8015       8014       8124       8125       8136       8135  
      8004       8005       8016       8015       8125       8126       8137       8136  
      8005       8006       8017       8016       8126       8127       8138       8137  
      8006       8007       8018       8017       8127       8128       8139       8138  
      8007       8008       8019       8018       8128       8129       8140       8139  
      8009       8010       8021       8020       8130       8131       8142       8141  
      8010       8011       8022       8021       8131       8132       8143       8142  
      8011       8012       8023       8022       8132       8133       8144       8143  
      8012       8013       8024       8023       8133       8134       8145       8144  
      8013       8014       8025       8024       8134       8135       8146       8145  
      8014       8015       8026       8025       8135       8136       8147       8146  
      8015       8016       8027       8026       8136       8137       8148       8147  
      8016       8017       8028       8027       8137       8138       8149       8148  
      8017       8018       8029       8028       8138       8139       8150       8149  
      8018       8019       8030       8029       8139       8140       8151       8150  
      8020       8021       8032       8031       8141       8142       8153       8152  
      8021       8022       8033       8032       8142       8143       8154       8153  
      8022       8023       8034       8033       8143       8144       8155       8154  
      8023       8024       8035       8034       8144       8145       8156       8155  
      8024       8025       8036       8035       8145       8146       8157       8156  
      8025       8026       8037       8036       8146       8147       8158       8157  
      8026       8027       8038       8037       8147       8148       8159       8158  
      8027       8028       8039       8038       8148       8149       8160       8159  
      8028       8029       8040       8039       8149       8150       8161       8160  
      8029       8030       8041       8040       8150       8151       8162       8161  
      8031       8032       8043       8042       8152       8153       8164       8163  
      8032       8033       8044       8043       8153       8154       8165       8164  
      8033       8034       8045       8044       8154       8155       8166       8165  
      8034       8035       8046       8045       8155       8156       8167       8166  
      8035       8036       8047       8046       8156       8157       8168       8167  
      8036       8037       8048       8047       8157       8158       8169       8168  
      8037       8038       8049       8048       8158       8159       8170       8169  
      8038       8039       8050       8049       8159       8160       8171       8170  
      8039       8040       8051       8050       8160       8161       8172       8171  
      8040       8041       8052       8051       8161       8162       8173       8172  
      8042       8043       8054       8053       8163       8164       8175       8174  
      8043       8044       8055       8054       8164       8165       8176       8175  
      8044       8045       8056       8055       8165       8166       8177       8176  
      8045       8046       8057       8056       8166       8167       8178       8177  
      8046       8047       8058       8057       8167       8168       8179       8178  
      8047       8048       8059       8058       8168       8169       8180       8179  
      8048       8049       8060       8059       8169       8170       8181       8180  
      8049       8050       8061       8060       8170       8171       8182       8181  
      8050       8051       8062       8061       8171       8172       8183       8182  
      8051       8052       8063       8062       8172       8173       8184       8183  
      8053       8054       8065       8064       8174       8175       8186       8185  
      8054       8055       8066       8065       8175       8176       8187       8186  
      8055       8056       8067       8066       8176       8177       8188       8187  
      8056       8057       8068       8067       8177       8178       8189       8188  
      8057       8058       8069       8068       8178       8179       8190       8189  
      8058       8059       8070       8069       8179       8180       8191       8190  
      8059       8060       8071       8070       8180       8181       8192       8191  
      8060       8061       8072       8071       8181       8182       8193       8192  
      8061       8062       8073       8072       8182       8183       8194       8193  
      8062       8063       8074       8073       8183       8184       8195       8194  
      8064       8065       8076       8075       8185       8186       8197       8196  
      8065       8066       8077       8076       8186       8187       8198       8197  
      8066       8067       8078       8077       8187       8188       8199       8198  
      8067       8068       8079       8078       8188       8189       8200       8199  
      8068       8069       8080       8079       8189       8190       8201       8200  
      8069       8070       8081       8080       8190       8191       8202       8201  
      8070       8071       8082       8081       8191       8192       8203       8202  
      8071       8072       8083       8082       8192       8193       8204       8203  
      8072       8073       8084       8083       8193       8194       8205       8204  
      8073       8074       8085       8084       8194       8195       8206       8205  
      8075       8076       8087       8086       8196       8197       8208       8207  
      8076       8077       8088       8087       8197       8198       8209       8208  
      8077       8078       8089       8088       8198       8199       8210       8209  
      8078       8079       8090       8089       8199       8200       8211       8210  
      8079       8080       8091       8090       8200       8201       8212       8211  
      8080       8081       8092       8091       8201       8202       8213       8212  
      8081       8082       8093       8092       8202       8203       8214       8213  
      8082       8083       8094       8093       8203       8204       8215       8214  
      8083       8084       8095       8094       8204       8205       8216       8215  
      8084       8085       8096       8095       8205       8206       8217       8216  
      8086       8087       8098       8097       8207       8208       8219       8218  
      8087       8088       8099       8098       8208       8209       8220       8219  
      8088       8089       8100       8099       8209       8210       8221       8220  
      8089       8090       8101       8100       8210       8211       8222       8221  
      8090       8091       8102       8101       8211       8212       8223       8222  
      8091       8092       8103       8102       8212       8213       8224       8223  
      8092       8093       8104       8103       8213       8214       8225       8224  
      8093       8094       8105       8104       8214       8215       8226       8225  
      8094       8095       8106       8105       8215       8216       8227       8226  
      8095       8096       8107       8106       8216       8217       8228       8227  
      8108       8109       8120       8119       8229       8230       8241       8240  
      8109       8110       8121       8120       8230       8231       8242       8241  
      8110       8111       8122       8121       8231       8232       8243       8242  
      8111       8112       8123       8122       8232       8233       8244       8243  
      8112       8113       8124       8123       8233       8234       8245       8244  
      8113       8114       8125       8124       8234       8235       8246       8245  
      8114       8115       8126       8125       8235       8236       8247       8246  
      8115       8116       8127       8126       8236       8237       8248       8247  
      8116       8117       8128       8127       8237       8238       8249       8248  
      8117       8118       8129       8128       8238       8239       8250       8249  
      8119       8120       8131       8130       8240       8241       8252       8251  
      8120       8121       8132       8131       8241       8242       8253       8252  
      8121       8122       8133       8132       8242       8243       8254       8253  
      8122       8123       8134       8133       8243       8244       8255       8254  
      8123       8124       8135       8134       8244       8245       8256       8255  
      8124       8125       8136       8135       8245       8246       8257       8256  
      8125       8126       8137       8136       8246       8247       8258       8257  
      8126       8127       8138       8137       8247       8248       8259       8258  
      8127       8128       8139       8138       8248       8249       8260       8259  
      8128       8129       8140       8139       8249       8250       8261       8260  
      8130       8131       8142       8141       8251       8252       8263       8262  
      8131       8132       8143       8142       8252       8253       8264       8263  
      8132       8133       8144       8143       8253       8254       8265       8264  
      8133       8134       8145       8144       8254       8255       8266       8265  
      8134       8135       8146       8145       8255       8256       8267       8266  
      8135       8136       8147       8146       8256       8257       8268       8267  
      8136       8137       8148       8147       8257       8258       8269       8268  
      8137       8138       8149       8148       8258       8259       8270       8269  
      8138       8139       8150       8149       8259       8260       8271       8270  
      8139       8140       8151       8150       8260       8261       8272       8271  
      8141       8142       8153       8152       8262       8263       8274       8273  
      8142       8143       8154       8153       8263       8264       8275       8274  
      8143       8144       8155       8154       8264       8265       8276       8275  
      8144       8145       8156       8155       8265       8266       8277       8276  
      8145       8146       8157       8156       8266       8267       8278       8277  
      8146       8147       8158       8157       8267       8268       8279       8278  
      8147       8148       8159       8158       8268       8269       8280       8279  
      8148       8149       8160       8159       8269       8270       8281       8280  
      8149       8150       8161       8160       8270       8271       8282       8281  
      8150       8151       8162       8161       8271       8272       8283       8282  
      8152       8153       8164       8163       8273       8274       8285       8284  
      8153       8154       8165       8164       8274       8275       8286       8285  
      8154       8155       8166       8165       8275       8276       8287       8286  
      8155       8156       8167       8166       8276       8277       8288       8287  
      8156       8157       8168       8167       8277       8278       8289       8288  
      8157       8158       8169       8168       8278       8279       8290       8289  
      8158       8159       8170       8169       8279       8280       8291       8290  
      8159       8160       8171       8170       8280       8281       8292       8291  
      8160       8161       8172       8171       8281       8282       8293       8292  
      8161       8162       8173       8172       8282       8283       8294       8293  
      8163       8164       8175       8174       8284       8285       8296       8295  
      8164       8165       8176       8175       8285       8286       8297       8296  
      8165       8166       8177       8176       8286       8287       8298       8297  
      8166       8167       8178       8177       8287       8288       8299       8298  
      8167       8168       8179       8178       8288       8289       8300       8299  
      8168       8169       8180       8179       8289       8290       8301       8300  
      8169       8170       8181       8180       8290       8291       8302       8301  
      8170       8171       8182       8181       8291       8292       8303       8302  
      8171       8172       8183       8182       8292       8293       8304       8303  
      8172       8173       8184       8183       8293       8294       8305       8304  
      8174       8175       8186       8185       8295       8296       8307       8306  
      8175       8176       8187       8186       8296       8297       8308       8307  
      8176       8177       8188       8187       8297       8298       8309       8308  
      8177       8178       8189       8188       8298       8299       8310       8309  
      8178       8179       8190       8189       8299       8300       8311       8310  
      8179       8180       8191       8190       8300       8301       8312       8311  
      8180       8181       8192       8191       8301       8302       8313       8312  
      8181       8182       8193       8192       8302       8303       8314       8313  
      8182       8183       8194       8193       8303       8304       8315       8314  
      8183       8184       8195       8194       8304       8305       8316       8315  
      8185       8186       8197       8196       8306       8307       8318       8317  
      8186       8187       8198       8197       8307       8308       8319       8318  
      8187       8188       8199       8198       8308       8309       8320       8319  
      8188       8189       8200       8199       8309       8310       8321       8320  
      8189       8190       8201       8200       8310       8311       8322       8321  
      8190       8191       8202       8201       8311       8312       8323       8322  
      8191       8192       8203       8202       8312       8313       8324       8323  
      8192       8193       8204       8203       8313       8314       8325       8324  
      8193       8194       8205       8204       8314       8315       8326       8325  
      8194       8195       8206       8205       8315       8316       8327       8326  
      8196       8197       8208       8207       8317       8318       8329       8328  
      8197       8198       8209       8208       8318       8319       8330       8329  
      8198       8199       8210       8209       8319       8320       8331       8330  
      8199       8200       8211       8210       8320       8321       8332       8331  
      8200       8201       8212       8211       8321       8322       8333       8332  
      8201       8202       8213       8212       8322       8323       8334       8333  
      8202       8203       8214       8213       8323       8324       8335       8334  
      8203       8204       8215       8214       8324       8325       8336       8335  
      8204       8205       8216       8215       8325       8326       8337       8336  
      8205       8206       8217       8216       8326       8327       8338       8337  
      8207       8208       8219       8218       8328       8329       8340       8339  
      8208       8209       8220       8219       8329       8330       8341       8340  
      8209       8210       8221       8220       8330       8331       8342       8341  
      8210       8211       8222       8221       8331       8332       8343       8342  
      8211       8212       8223       8222       8332       8333       8344       8343  
      8212       8213       8224       8223       8333       8334       8345       8344  
      8213       8214       8225       8224       8334       8335       8346       8345  
      8214       8215       8226       8225       8335       8336       8347       8346  
      8215       8216       8227       8226       8336       8337       8348       8347  
      8216       8217       8228       8227       8337       8338       8349       8348  
      8229       8230       8241       8240       8350       8351       8362       8361  
      8230       8231       8242       8241       8351       8352       8363       8362  
      8231       8232       8243       8242       8352       8353       8364       8363  
      8232       8233       8244       8243       8353       8354       8365       8364  
      8233       8234       8245       8244       8354       8355       8366       8365  
      8234       8235       8246       8245       8355       8356       8367       8366  
      8235       8236       8247       8246       8356       8357       8368       8367  
      8236       8237       8248       8247       8357       8358       8369       8368  
      8237       8238       8249       8248       8358       8359       8370       8369  
      8238       8239       8250       8249       8359       8360       8371       8370  
      8240       8241       8252       8251       8361       8362       8373       8372  
      8241       8242       8253       8252       8362       8363       8374       8373  
      8242       8243       8254       8253       8363       8364       8375       8374  
      8243       8244       8255       8254       8364       8365       8376       8375  
      8244       8245       8256       8255       8365       8366       8377       8376  
      8245       8246       8257       8256       8366       8367       8378       8377  
      8246       8247       8258       8257       8367       8368       8379       8378  
      8247       8248       8259       8258       8368       8369       8380       8379  
      8248       8249       8260       8259       8369       8370       8381       8380  
      8249       8250       8261       8260       8370       8371       8382       8381  
      8251       8252       8263       8262       8372       8373       8384       8383  
      8252       8253       8264       8263       8373       8374       8385       8384  
      8253       8254       8265       8264       8374       8375       8386       8385  
      8254       8255       8266       8265       8375       8376       8387       8386  
      8255       8256       8267       8266       8376       8377       8388       8387  
      8256       8257       8268       8267       8377       8378       8389       8388  
      8257       8258       8269       8268       8378       8379       8390       8389  
      8258       8259       8270       8269       8379       8380       8391       8390  
      8259       8260       8271       8270       8380       8381       8392       8391  
      8260       8261       8272       8271       8381       8382       8393       8392  
      8262       8263       8274       8273       8383       8384       8395       8394  
      8263       8264       8275       8274       8384       8385       8396       8395  
      8264       8265       8276       8275       8385       8386       8397       8396  
      8265       8266       8277       8276       8386       8387       8398       8397  
      8266       8267       8278       8277       8387       8388       8399       8398  
      8267       8268       8279       8278       8388       8389       8400       8399  
      8268       8269       8280       8279       8389       8390       8401       8400  
      8269       8270       8281       8280       8390       8391       8402       8401  
      8270       8271       8282       8281       8391       8392       8403       8402  
      8271       8272       8283       8282       8392       8393       8404       8403  
      8273       8274       8285       8284       8394       8395       8406       8405  
      8274       8275       8286       8285       8395       8396       8407       8406  
      8275       8276       8287       8286       8396       8397       8408       8407  
      8276       8277       8288       8287       8397       8398       8409       8408  
      8277       8278       8289       8288       8398       8399       8410       8409  
      8278       8279       8290       8289       8399       8400       8411       8410  
      8279       8280       8291       8290       8400       8401       8412       8411  
      8280       8281       8292       8291       8401       8402       8413       8412  
      8281       8282       8293       8292       8402       8403       8414       8413  
      8282       8283       8294       8293       8403       8404       8415       8414  
      8284       8285       8296       8295       8405       8406       8417       8416  
      8285       8286       8297       8296       8406       8407       8418       8417  
      8286       8287       8298       8297       8407       8408       8419       8418  
      8287       8288       8299       8298       8408       8409       8420       8419  
      8288       8289       8300       8299       8409       8410       8421       8420  
      8289       8290       8301       8300       8410       8411       8422       8421  
      8290       8291       8302       8301       8411       8412       8423       8422  
      8291       8292       8303       8302       8412       8413       8424       8423  
      8292       8293       8304       8303       8413       8414       8425       8424  
      8293       8294       8305       8304       8414       8415       8426       8425  
      8295       8296       8307       8306       8416       8417       8428       8427  
      8296       8297       8308       8307       8417       8418       8429       8428  
      8297       8298       8309       8308       8418       8419       8430       8429  
      8298       8299       8310       8309       8419       8420       8431       8430  
      8299       8300       8311       8310       8420       8421       8432       8431  
      8300       8301       8312       8311       8421       8422       8433       8432  
      8301       8302       8313       8312       8422       8423       8434       8433  
      8302       8303       8314       8313       8423       8424       8435       8434  
      8303       8304       8315       8314       8424       8425       8436       8435  
      8304       8305       8316       8315       8425       8426       8437       8436  
      8306       8307       8318       8317       8427       8428       8439       8438  
      8307       8308       8319       8318       8428       8429       8440       8439  
      8308       8309       8320       8319       8429       8430       8441       8440  
      8309       8310       8321       8320       8430       8431       8442       8441  
      8310       8311       8322       8321       8431       8432       8443       8442  
      8311       8312       8323       8322       8432       8433       8444       8443  
      8312       8313       8324       8323       8433       8434       8445       8444  
      8313       8314       8325       8324       8434       8435       8446       8445  
      8314       8315       8326       8325       8435       8436       8447       8446  
      8315       8316       8327       8326       8436       8437       8448       8447  
      8317       8318       8329       8328       8438       8439       8450       8449  
      8318       8319       8330       8329       8439       8440       8451       8450  
      8319       8320       8331       8330       8440       8441       8452       8451  
      8320       8321       8332       8331       8441       8442       8453       8452  
      8321       8322       8333       8332       8442       8443       8454       8453  
      8322       8323       8334       8333       8443       8444       8455       8454  
      8323       8324       8335       8334       8444       8445       8456       8455  
      8324       8325       8336       8335       8445       8446       8457       8456  
      8325       8326       8337       8336       8446       8447       8458       8457  
      8326       8327       8338       8337       8447       8448       8459       8458  
      8328       8329       8340       8339       8449       8450       8461       8460  
      8329       8330       8341       8340       8450       8451       8462       8461  
      8330       8331       8342       8341       8451       8452       8463       8462  
      8331       8332       8343       8342       8452       8453       8464       8463  
      8332       8333       8344       8343       8453       8454       8465       8464  
      8333       8334       8345       8344       8454       8455       8466       8465  
      8334       8335       8346       8345       8455       8456       8467       8466  
      8335       8336       8347       8346       8456       8457       8468       8467  
      8336       8337       8348       8347       8457       8458       8469       8468  
      8337       8338       8349       8348       8458       8459       8470       8469  
      8350       8351       8362       8361       8471       8472       8483       8482  
      8351       8352       8363       8362       8472       8473       8484       8483  
      8352       8353       8364       8363       8473       8474       8485       8484  
      8353       8354       8365       8364       8474       8475       8486       8485  
      8354       8355       8366       8365       8475       8476       8487       8486  
      8355       8356       8367       8366       8476       8477       8488       8487  
      8356       8357       8368       8367       8477       8478       8489       8488  
      8357       8358       8369       8368       8478       8479       8490       8489  
      8358       8359       8370       8369       8479       8480       8491       8490  
      8359       8360       8371       8370       8480       8481       8492       8491  
      8361       8362       8373       8372       8482       8483       8494       8493  
      8362       8363       8374       8373       8483       8484       8495       8494  
      8363       8364       8375       8374       8484       8485       8496       8495  
      8364       8365       8376       8375       8485       8486       8497       8496  
      8365       8366       8377       8376       8486       8487       8498       8497  
      8366       8367       8378       8377       8487       8488       8499       8498  
      8367       8368       8379       8378       8488       8489       8500       8499  
      8368       8369       8380       8379       8489       8490       8501       8500  
      8369       8370       8381       8380       8490       8491       8502       8501  
      8370       8371       8382       8381       8491       8492       8503       8502  
      8372       8373       8384       8383       8493       8494       8505       8504  
      8373       8374       8385       8384       8494       8495       8506       8505  
      8374       8375       8386       8385       8495       8496       8507       8506  
      8375       8376       8387       8386       8496       8497       8508       8507  
      8376       8377       8388       8387       8497       8498       8509       8508  
      8377       8378       8389       8388       8498       8499       8510       8509  
      8378       8379       8390       8389       8499       8500       8511       8510  
      8379       8380       8391       8390       8500       8501       8512       8511  
      8380       8381       8392       8391       8501       8502       8513       8512  
      8381       8382       8393       8392       8502       8503       8514       8513  
      8383       8384       8395       8394       8504       8505       8516       8515  
      8384       8385       8396       8395       8505       8506       8517       8516  
      8385       8386       8397       8396       8506       8507       8518       8517  
      8386       8387       8398       8397       8507       8508       8519       8518  
      8387       8388       8399       8398       8508       8509       8520       8519  
      8388       8389       8400       8399       8509       8510       8521       8520  
      8389       8390       8401       8400       8510       8511       8522       8521  
      8390       8391       8402       8401       8511       8512       8523       8522  
      8391       8392       8403       8402       8512       8513       8524       8523  
      8392       8393       8404       8403       8513       8514       8525       8524  
      8394       8395       8406       8405       8515       8516       8527       8526  
      8395       8396       8407       8406       8516       8517       8528       8527  
      8396       8397       8408       8407       8517       8518       8529       8528  
      8397       8398       8409       8408       8518       8519       8530       8529  
      8398       8399       8410       8409       8519       8520       8531       8530  
      8399       8400       8411       8410       8520       8521       8532       8531  
      8400       8401       8412       8411       8521       8522       8533       8532  
      8401       8402       8413       8412       8522       8523       8534       8533  
      8402       8403       8414       8413       8523       8524       8535       8534  
      8403       8404       8415       8414       8524       8525       8536       8535  
      8405       8406       8417       8416       8526       8527       8538       8537  
      8406       8407       8418       8417       8527       8528       8539       8538  
      8407       8408       8419       8418       8528       8529       8540       8539  
      8408       8409       8420       8419       8529       8530       8541       8540  
      8409       8410       8421       8420       8530       8531       8542       8541  
      8410       8411       8422       8421       8531       8532       8543       8542  
      8411       8412       8423       8422       8532       8533       8544       8543  
      8412       8413       8424       8423       8533       8534       8545       8544  
      8413       8414       8425       8424       8534       8535       8546       8545  
      8414       8415       8426       8425       8535       8536       8547       8546  
      8416       8417       8428       8427       8537       8538       8549       8548  
      8417       8418       8429       8428       8538       8539       8550       8549  
      8418       8419       8430       8429       8539       8540       8551       8550  
      8419       8420       8431       8430       8540       8541       8552       8551  
      8420       8421       8432       8431       8541       8542       8553       8552  
      8421       8422       8433       8432       8542       8543       8554       8553  
      8422       8423       8434       8433       8543       8544       8555       8554  
      8423       8424       8435       8434       8544       8545       8556       8555  
      8424       8425       8436       8435       8545       8546       8557       8556  
      8425       8426       8437       8436       8546       8547       8558       8557  
      8427       8428       8439       8438       8548       8549       8560       8559  
      8428       8429       8440       8439       8549       8550       8561       8560  
      8429       8430       8441       8440       8550       8551       8562       8561  
      8430       8431       8442       8441       8551       8552       8563       8562  
      8431       8432       8443       8442       8552       8553       8564       8563  
      8432       8433       8444       8443       8553       8554       8565       8564  
      8433       8434       8445       8444       8554       8555       8566       8565  
      8434       8435       8446       8445       8555       8556       8567       8566  
      8435       8436       8447       8446       8556       8557       8568       8567  
      8436       8437       8448       8447       8557       8558       8569       8568  
      8438       8439       8450       8449       8559       8560       8571       8570  
      8439       8440       8451       8450       8560       8561       8572       8571  
      8440       8441       8452       8451       8561       8562       8573       8572  
      8441       8442       8453       8452       8562       8563       8574       8573  
      8442       8443       8454       8453       8563       8564       8575       8574  
      8443       8444       8455       8454       8564       8565       8576       8575  
      8444       8445       8456       8455       8565       8566       8577       8576  
      8445       8446       8457       8456       8566       8567       8578       8577  
      8446       8447       8458       8457       8567       8568       8579       8578  
      8447       8448       8459       8458       8568       8569       8580       8579  
      8449       8450       8461       8460       8570       8571       8582       8581  
      8450       8451       8462       8461       8571       8572       8583       8582  
      8451       8452       8463       8462       8572       8573       8584       8583  
      8452       8453       8464       8463       8573       8574       8585       8584  
      8453       8454       8465       8464       8574       8575       8586       8585  
      8454       8455       8466       8465       8575       8576       8587       8586  
      8455       8456       8467       8466       8576       8577       8588       8587  
      8456       8457       8468       8467       8577       8578       8589       8588  
      8457       8458       8469       8468       8578       8579       8590       8589  
      8458       8459       8470       8469       8579       8580       8591       8590  
      8471       8472       8483       8482       8592       8593       8604       8603  
      8472       8473       8484       8483       8593       8594       8605       8604  
      8473       8474       8485       8484       8594       8595       8606       8605  
      8474       8475       8486       8485       8595       8596       8607       8606  
      8475       8476       8487       8486       8596       8597       8608       8607  
      8476       8477       8488       8487       8597       8598       8609       8608  
      8477       8478       8489       8488       8598       8599       8610       8609  
      8478       8479       8490       8489       8599       8600       8611       8610  
      8479       8480       8491       8490       8600       8601       8612       8611  
      8480       8481       8492       8491       8601       8602       8613       8612  
      8482       8483       8494       8493       8603       8604       8615       8614  
      8483       8484       8495       8494       8604       8605       8616       8615  
      8484       8485       8496       8495       8605       8606       8617       8616  
      8485       8486       8497       8496       8606       8607       8618       8617  
      8486       8487       8498       8497       8607       8608       8619       8618  
      8487       8488       8499       8498       8608       8609       8620       8619  
      8488       8489       8500       8499       8609       8610       8621       8620  
      8489       8490       8501       8500       8610       8611       8622       8621  
      8490       8491       8502       8501       8611       8612       8623       8622  
      8491       8492       8503       8502       8612       8613       8624       8623  
      8493       8494       8505       8504       8614       8615       8626       8625  
      8494       8495       8506       8505       8615       8616       8627       8626  
      8495       8496       8507       8506       8616       8617       8628       8627  
      8496       8497       8508       8507       8617       8618       8629       8628  
      8497       8498       8509       8508       8618       8619       8630       8629  
      8498       8499       8510       8509       8619       8620       8631       8630  
      8499       8500       8511       8510       8620       8621       8632       8631  
      8500       8501       8512       8511       8621       8622       8633       8632  
      8501       8502       8513       8512       8622       8623       8634       8633  
      8502       8503       8514       8513       8623       8624       8635       8634  
      8504       8505       8516       8515       8625       8626       8637       8636  
      8505       8506       8517       8516       8626       8627       8638       8637  
      8506       8507       8518       8517       8627       8628       8639       8638  
      8507       8508       8519       8518       8628       8629       8640       8639  
      8508       8509       8520       8519       8629       8630       8641       8640  
      8509       8510       8521       8520       8630       8631       8642       8641  
      8510       8511       8522       8521       8631       8632       8643       8642  
      8511       8512       8523       8522       8632       8633       8644       8643  
      8512       8513       8524       8523       8633       8634       8645       8644  
      8513       8514       8525       8524       8634       8635       8646       8645  
      8515       8516       8527       8526       8636       8637       8648       8647  
      8516       8517       8528       8527       8637       8638       8649       8648  
      8517       8518       8529       8528       8638       8639       8650       8649  
      8518       8519       8530       8529       8639       8640       8651       8650  
      8519       8520       8531       8530       8640       8641       8652       8651  
      8520       8521       8532       8531       8641       8642       8653       8652  
      8521       8522       8533       8532       8642       8643       8654       8653  
      8522       8523       8534       8533       8643       8644       8655       8654  
      8523       8524       8535       8534       8644       8645       8656       8655  
      8524       8525       8536       8535       8645       8646       8657       8656  
      8526       8527       8538       8537       8647       8648       8659       8658  
      8527       8528       8539       8538       8648       8649       8660       8659  
      8528       8529       8540       8539       8649       8650       8661       8660  
      8529       8530       8541       8540       8650       8651       8662       8661  
      8530       8531       8542       8541       8651       8652       8663       8662  
      8531       8532       8543       8542       8652       8653       8664       8663  
      8532       8533       8544       8543       8653       8654       8665       8664  
      8533       8534       8545       8544       8654       8655       8666       8665  
      8534       8535       8546       8545       8655       8656       8667       8666  
      8535       8536       8547       8546       8656       8657       8668       8667  
      8537       8538       8549       8548       8658       8659       8670       8669  
      8538       8539       8550       8549       8659       8660       8671       8670  
      8539       8540       8551       8550       8660       8661       8672       8671  
      8540       8541       8552       8551       8661       8662       8673       8672  
      8541       8542       8553       8552       8662       8663       8674       8673  
      8542       8543       8554       8553       8663       8664       8675       8674  
      8543       8544       8555       8554       8664       8665       8676       8675  
      8544       8545       8556       8555       8665       8666       8677       8676  
      8545       8546       8557       8556       8666       8667       8678       8677  
      8546       8547       8558       8557       8667       8668       8679       8678  
      8548       8549       8560       8559       8669       8670       8681       8680  
      8549       8550       8561       8560       8670       8671       8682       8681  
      8550       8551       8562       8561       8671       8672       8683       8682  
      8551       8552       8563       8562       8672       8673       8684       8683  
      8552       8553       8564       8563       8673       8674       8685       8684  
      8553       8554       8565       8564       8674       8675       8686       8685  
      8554       8555       8566       8565       8675       8676       8687       8686  
      8555       8556       8567       8566       8676       8677       8688       8687  
      8556       8557       8568       8567       8677       8678       8689       8688  
      8557       8558       8569       8568       8678       8679       8690       8689  
      8559       8560       8571       8570       8680       8681       8692       8691  
      8560       8561       8572       8571       8681       8682       8693       8692  
      8561       8562       8573       8572       8682       8683       8694       8693  
      8562       8563       8574       8573       8683       8684       8695       8694  
      8563       8564       8575       8574       8684       8685       8696       8695  
      8564       8565       8576       8575       8685       8686       8697       8696  
      8565       8566       8577       8576       8686       8687       8698       8697  
      8566       8567       8578       8577       8687       8688       8699       8698  
      8567       8568       8579       8578       8688       8689       8700       8699  
      8568       8569       8580       8579       8689       8690       8701       8700  
      8570       8571       8582       8581       8691       8692       8703       8702  
      8571       8572       8583       8582       8692       8693       8704       8703  
      8572       8573       8584       8583       8693       8694       8705       8704  
      8573       8574       8585       8584       8694       8695       8706       8705  
      8574       8575       8586       8585       8695       8696       8707       8706  
      8575       8576       8587       8586       8696       8697       8708       8707  
      8576       8577       8588       8587       8697       8698       8709       8708  
      8577       8578       8589       8588       8698       8699       8710       8709  
      8578       8579       8590       8589       8699       8700       8711       8710  
      8579       8580       8591       8590       8700       8701       8712       8711  
      8592       8593       8604       8603       8713       8714       8725       8724  
      8593       8594       8605       8604       8714       8715       8726       8725  
      8594       8595       8606       8605       8715       8716       8727       8726  
      8595       8596       8607       8606       8716       8717       8728       8727  
      8596       8597       8608       8607       8717       8718       8729       8728  
      8597       8598       8609       8608       8718       8719       8730       8729  
      8598       8599       8610       8609       8719       8720       8731       8730  
      8599       8600       8611       8610       8720       8721       8732       8731  
      8600       8601       8612       8611       8721       8722       8733       8732  
      8601       8602       8613       8612       8722       8723       8734       8733  
      8603       8604       8615       8614       8724       8725       8736       8735  
      8604       8605       8616       8615       8725       8726       8737       8736  
      8605       8606       8617       8616       8726       8727       8738       8737  
      8606       8607       8618       8617       8727       8728       8739       8738  
      8607       8608       8619       8618       8728       8729       8740       8739  
      8608       8609       8620       8619       8729       8730       8741       8740  
      8609       8610       8621       8620       8730       8731       8742       8741  
      8610       8611       8622       8621       8731       8732       8743       8742  
      8611       8612       8623       8622       8732       8733       8744       8743  
      8612       8613       8624       8623       8733       8734       8745       8744  
      8614       8615       8626       8625       8735       8736       8747       8746  
      8615       8616       8627       8626       8736       8737       8748       8747  
      8616       8617       8628       8627       8737       8738       8749       8748  
      8617       8618       8629       8628       8738       8739       8750       8749  
      8618       8619       8630       8629       8739       8740       8751       8750  
      8619       8620       8631       8630       8740       8741       8752       8751  
      8620       8621       8632       8631       8741       8742       8753       8752  
      8621       8622       8633       8632       8742       8743       8754       8753  
      8622       8623       8634       8633       8743       8744       8755       8754  
      8623       8624       8635       8634       8744       8745       8756       8755  
      8625       8626       8637       8636       8746       8747       8758       8757  
      8626       8627       8638       8637       8747       8748       8759       8758  
      8627       8628       8639       8638       8748       8749       8760       8759  
      8628       8629       8640       8639       8749       8750       8761       8760  
      8629       8630       8641       8640       8750       8751       8762       8761  
      8630       8631       8642       8641       8751       8752       8763       8762  
      8631       8632       8643       8642       8752       8753       8764       8763  
      8632       8633       8644       8643       8753       8754       8765       8764  
      8633       8634       8645       8644       8754       8755       8766       8765  
      8634       8635       8646       8645       8755       8756       8767       8766  
      8636       8637       8648       8647       8757       8758       8769       8768  
      8637       8638       8649       8648       8758       8759       8770       8769  
      8638       8639       8650       8649       8759       8760       8771       8770  
      8639       8640       8651       8650       8760       8761       8772       8771  
      8640       8641       8652       8651       8761       8762       8773       8772  
      8641       8642       8653       8652       8762       8763       8774       8773  
      8642       8643       8654       8653       8763       8764       8775       8774  
      8643       8644       8655       8654       8764       8765       8776       8775  
      8644       8645       8656       8655       8765       8766       8777       8776  
      8645       8646       8657       8656       8766       8767       8778       8777  
      8647       8648       8659       8658       8768       8769       8780       8779  
      8648       8649       8660       8659       8769       8770       8781       8780  
      8649       8650       8661       8660       8770       8771       8782       8781  
      8650       8651       8662       8661       8771       8772       8783       8782  
      8651       8652       8663       8662       8772       8773       8784       8783  
      8652       8653       8664       8663       8773       8774       8785       8784  
      8653       8654       8665       8664       8774       8775       8786       8785  
      8654       8655       8666       8665       8775       8776       8787       8786  
      8655       8656       8667       8666       8776       8777       8788       8787  
      8656       8657       8668       8667       8777       8778       8789       8788  
      8658       8659       8670       8669       8779       8780       8791       8790  
      8659       8660       8671       8670       8780       8781       8792       8791  
      8660       8661       8672       8671       8781       8782       8793       8792  
      8661       8662       8673       8672       8782       8783       8794       8793  
      8662       8663       8674       8673       8783       8784       8795       8794  
      8663       8664       8675       8674       8784       8785       8796       8795  
      8664       8665       8676       8675       8785       8786       8797       8796  
      8665       8666       8677       8676       8786       8787       8798       8797  
      8666       8667       8678       8677       8787       8788       8799       8798  
      8667       8668       8679       8678       8788       8789       8800       8799  
      8669       8670       8681       8680       8790       8791       8802       8801  
      8670       8671       8682       8681       8791       8792       8803       8802  
      8671       8672       8683       8682       8792       8793       8804       8803  
      8672       8673       8684       8683       8793       8794       8805       8804  
      8673       8674       8685       8684       8794       8795       8806       8805  
      8674       8675       8686       8685       8795       8796       8807       8806  
      8675       8676       8687       8686       8796       8797       8808       8807  
      8676       8677       8688       8687       8797       8798       8809       8808  
      8677       8678       8689       8688       8798       8799       8810       8809  
      8678       8679       8690       8689       8799       8800       8811       8810  
      8680       8681       8692       8691       8801       8802       8813       8812  
      8681       8682       8693       8692       8802       8803       8814       8813  
      8682       8683       8694       8693       8803       8804       8815       8814  
      8683       8684       8695       8694       8804       8805       8816       8815  
      8684       8685       8696       8695       8805       8806       8817       8816  
      8685       8686       8697       8696       8806       8807       8818       8817  
      8686       8687       8698       8697       8807       8808       8819       8818  
      8687       8688       8699       8698       8808       8809       8820       8819  
      8688       8689       8700       8699       8809       8810       8821       8820  
      8689       8690       8701       8700       8810       8811       8822       8821  
      8691       8692       8703       8702       8812       8813       8824       8823  
      8692       8693       8704       8703       8813       8814       8825       8824  
      8693       8694       8705       8704       8814       8815       8826       8825  
      8694       8695       8706       8705       8815       8816       8827       8826  
      8695       8696       8707       8706       8816       8817       8828       8827  
      8696       8697       8708       8707       8817       8818       8829       8828  
      8697       8698       8709       8708       8818       8819       8830       8829  
      8698       8699       8710       8709       8819       8820       8831       8830  
      8699       8700       8711       8710       8820       8821       8832       8831  
      8700       8701       8712       8711       8821       8822       8833       8832  
      8713       8714       8725       8724       8834       8835       8846       8845  
      8714       8715       8726       8725       8835       8836       8847       8846  
      8715       8716       8727       8726       8836       8837       8848       8847  
      8716       8717       8728       8727       8837       8838       8849       8848  
      8717       8718       8729       8728       8838       8839       8850       8849  
      8718       8719       8730       8729       8839       8840       8851       8850  
      8719       8720       8731       8730       8840       8841       8852       8851  
      8720       8721       8732       8731       8841       8842       8853       8852  
      8721       8722       8733       8732       8842       8843       8854       8853  
      8722       8723       8734       8733       8843       8844       8855       8854  
      8724       8725       8736       8735       8845       8846       8857       8856  
      8725       8726       8737       8736       8846       8847       8858       8857  
      8726       8727       8738       8737       8847       8848       8859       8858  
      8727       8728       8739       8738       8848       8849       8860       8859  
      8728       8729       8740       8739       8849       8850       8861       8860  
      8729       8730       8741       8740       8850       8851       8862       8861  
      8730       8731       8742       8741       8851       8852       8863       8862  
      8731       8732       8743       8742       8852       8853       8864       8863  
      8732       8733       8744       8743       8853       8854       8865       8864  
      8733       8734       8745       8744       8854       8855       8866       8865  
      8735       8736       8747       8746       8856       8857       8868       8867  
      8736       8737       8748       8747       8857       8858       8869       8868  
      8737       8738       8749       8748       8858       8859       8870       8869  
      8738       8739       8750       8749       8859       8860       8871       8870  
      8739       8740       8751       8750       8860       8861       8872       8871  
      8740       8741       8752       8751       8861       8862       8873       8872  
      8741       8742       8753       8752       8862       8863       8874       8873  
      8742       8743       8754       8753       8863       8864       8875       8874  
      8743       8744       8755       8754       8864       8865       8876       8875  
      8744       8745       8756       8755       8865       8866       8877       8876  
      8746       8747       8758       8757       8867       8868       8879       8878  
      8747       8748       8759       8758       8868       8869       8880       8879  
      8748       8749       8760       8759       8869       8870       8881       8880  
      8749       8750       8761       8760       8870       8871       8882       8881  
      8750       8751       8762       8761       8871       8872       8883       8882  
      8751       8752       8763       8762       8872       8873       8884       8883  
      8752       8753       8764       8763       8873       8874       8885       8884  
      8753       8754       8765       8764       8874       8875       8886       8885  
      8754       8755       8766       8765       8875       8876       8887       8886  
      8755       8756       8767       8766       8876       8877       8888       8887  
      8757       8758       8769       8768       8878       8879       8890       8889  
      8758       8759       8770       8769       8879       8880       8891       8890  
      8759       8760       8771       8770       8880       8881       8892       8891  
      8760       8761       8772       8771       8881       8882       8893       8892  
      8761       8762       8773       8772       8882       8883       8894       8893  
      8762       8763       8774       8773       8883       8884       8895       8894  
      8763       8764       8775       8774       8884       8885       8896       8895  
      8764       8765       8776       8775       8885       8886       8897       8896  
      8765       8766       8777       8776       8886       8887       8898       8897  
      8766       8767       8778       8777       8887       8888       8899       8898  
      8768       8769       8780       8779       8889       8890       8901       8900  
      8769       8770       8781       8780       8890       8891       8902       8901  
      8770       8771       8782       8781       8891       8892       8903       8902  
      8771       8772       8783       8782       8892       8893       8904       8903  
      8772       8773       8784       8783       8893       8894       8905       8904  
      8773       8774       8785       8784       8894       8895       8906       8905  
      8774       8775       8786       8785       8895       8896       8907       8906  
      8775       8776       8787       8786       8896       8897       8908       8907  
      8776       8777       8788       8787       8897       8898       8909       8908  
      8777       8778       8789       8788       8898       8899       8910       8909  
      8779       8780       8791       8790       8900       8901       8912       8911  
      8780       8781       8792       8791       8901       8902       8913       8912  
      8781       8782       8793       8792       8902       8903       8914       8913  
      8782       8783       8794       8793       8903       8904       8915       8914  
      8783       8784       8795       8794       8904       8905       8916       8915  
      8784       8785       8796       8795       8905       8906       8917       8916  
      8785       8786       8797       8796       8906       8907       8918       8917  
      8786       8787       8798       8797       8907       8908       8919       8918  
      8787       8788       8799       8798       8908       8909       8920       8919  
      8788       8789       8800       8799       8909       8910       8921       8920  
      8790       8791       8802       8801       8911       8912       8923       8922  
      8791       8792       8803       8802       8912       8913       8924       8923  
      8792       8793       8804       8803       8913       8914       8925       8924  
      8793       8794       8805       8804       8914       8915       8926       8925  
      8794       8795       8806       8805       8915       8916       8927       8926  
      8795       8796       8807       8806       8916       8917       8928       8927  
      8796       8797       8808       8807       8917       8918       8929       8928  
      8797       8798       8809       8808       8918       8919       8930       8929  
      8798       8799       8810       8809       8919       8920       8931       8930  
      8799       8800       8811       8810       8920       8921       8932       8931  
      8801       8802       8813       8812       8922       8923       8934       8933  
      8802       8803       8814       8813       8923       8924       8935       8934  
      8803       8804       8815       8814       8924       8925       8936       8935  
      8804       8805       8816       8815       8925       8926       8937       8936  
      8805       8806       8817       8816       8926       8927       8938       8937  
      8806       8807       8818       8817       8927       8928       8939       8938  
      8807       8808       8819       8818       8928       8929       8940       8939  
      8808       8809       8820       8819       8929       8930       8941       8940  
      8809       8810       8821       8820       8930       8931       8942       8941  
      8810       8811       8822       8821       8931       8932       8943       8942  
      8812       8813       8824       8823       8933       8934       8945       8944  
      8813       8814       8825       8824       8934       8935       8946       8945  
      8814       8815       8826       8825       8935       8936       8947       8946  
      8815       8816       8827       8826       8936       8937       8948       8947  
      8816       8817       8828       8827       8937       8938       8949       8948  
      8817       8818       8829       8828       8938       8939       8950       8949  
      8818       8819       8830       8829       8939       8940       8951       8950  
      8819       8820       8831       8830       8940       8941       8952       8951  
      8820       8821       8832       8831       8941       8942       8953       8952  
      8821       8822       8833       8832       8942       8943       8954       8953  
      8834       8835       8846       8845       8955       8956       8967       8966  
      8835       8836       8847       8846       8956       8957       8968       8967  
      8836       8837       8848       8847       8957       8958       8969       8968  
      8837       8838       8849       8848       8958       8959       8970       8969  
      8838       8839       8850       8849       8959       8960       8971       8970  
      8839       8840       8851       8850       8960       8961       8972       8971  
      8840       8841       8852       8851       8961       8962       8973       8972  
      8841       8842       8853       8852       8962       8963       8974       8973  
      8842       8843       8854       8853       8963       8964       8975       8974  
      8843       8844       8855       8854       8964       8965       8976       8975  
      8845       8846       8857       8856       8966       8967       8978       8977  
      8846       8847       8858       8857       8967       8968       8979       8978  
      8847       8848       8859       8858       8968       8969       8980       8979  
      8848       8849       8860       8859       8969       8970       8981       8980  
      8849       8850       8861       8860       8970       8971       8982       8981  
      8850       8851       8862       8861       8971       8972       8983       8982  
      8851       8852       8863       8862       8972       8973       8984       8983  
      8852       8853       8864       8863       8973       8974       8985       8984  
      8853       8854       8865       8864       8974       8975       8986       8985  
      8854       8855       8866       8865       8975       8976       8987       8986  
      8856       8857       8868       8867       8977       8978       8989       8988  
      8857       8858       8869       8868       8978       8979       8990       8989  
      8858       8859       8870       8869       8979       8980       8991       8990  
      8859       8860       8871       8870       8980       8981       8992       8991  
      8860       8861       8872       8871       8981       8982       8993       8992  
      8861       8862       8873       8872       8982       8983       8994       8993  
      8862       8863       8874       8873       8983       8984       8995       8994  
      8863       8864       8875       8874       8984       8985       8996       8995  
      8864       8865       8876       8875       8985       8986       8997       8996  
      8865       8866       8877       8876       8986       8987       8998       8997  
      8867       8868       8879       8878       8988       8989       9000       8999  
      8868       8869       8880       8879       8989       8990       9001       9000  
      8869       8870       8881       8880       8990       8991       9002       9001  
      8870       8871       8882       8881       8991       8992       9003       9002  
      8871       8872       8883       8882       8992       8993       9004       9003  
      8872       8873       8884       8883       8993       8994       9005       9004  
      8873       8874       8885       8884       8994       8995       9006       9005  
      8874       8875       8886       8885       8995       8996       9007       9006  
      8875       8876       8887       8886       8996       8997       9008       9007  
      8876       8877       8888       8887       8997       8998       9009       9008  
      8878       8879       8890       8889       8999       9000       9011       9010  
      8879       8880       8891       8890       9000       9001       9012       9011  
      8880       8881       8892       8891       9001       9002       9013       9012  
      8881       8882       8893       8892       9002       9003       9014       9013  
      8882       8883       8894       8893       9003       9004       9015       9014  
      8883       8884       8895       8894       9004       9005       9016       9015  
      8884       8885       8896       8895       9005       9006       9017       9016  
      8885       8886       8897       8896       9006       9007       9018       9017  
      8886       8887       8898       8897       9007       9008       9019       9018  
      8887       8888       8899       8898       9008       9009       9020       9019  
      8889       8890       8901       8900       9010       9011       9022       9021  
      8890       8891       8902       8901       9011       9012       9023       9022  
      8891       8892       8903       8902       9012       9013       9024       9023  
      8892       8893       8904       8903       9013       9014       9025       9024  
      8893       8894       8905       8904       9014       9015       9026       9025  
      8894       8895       8906       8905       9015       9016       9027       9026  
      8895       8896       8907       8906       9016       9017       9028       9027  
      8896       8897       8908       8907       9017       9018       9029       9028  
      8897       8898       8909       8908       9018       9019       9030       9029  
      8898       8899       8910       8909       9019       9020       9031       9030  
      8900       8901       8912       8911       9021       9022       9033       9032  
      8901       8902       8913       8912       9022       9023       9034       9033  
      8902       8903       8914       8913       9023       9024       9035       9034  
      8903       8904       8915       8914       9024       9025       9036       9035  
      8904       8905       8916       8915       9025       9026       9037       9036  
      8905       8906       8917       8916       9026       9027       9038       9037  
      8906       8907       8918       8917       9027       9028       9039       9038  
      8907       8908       8919       8918       9028       9029       9040       9039  
      8908       8909       8920       8919       9029       9030       9041       9040  
      8909       8910       8921       8920       9030       9031       9042       9041  
      8911       8912       8923       8922       9032       9033       9044       9043  
      8912       8913       8924       8923       9033       9034       9045       9044  
      8913       8914       8925       8924       9034       9035       9046       9045  
      8914       8915       8926       8925       9035       9036       9047       9046  
      8915       8916       8927       8926       9036       9037       9048       9047  
      8916       8917       8928       8927       9037       9038       9049       9048  
      8917       8918       8929       8928       9038       9039       9050       9049  
      8918       8919       8930       8929       9039       9040       9051       9050  
      8919       8920       8931       8930       9040       9041       9052       9051  
      8920       8921       8932       8931       9041       9042       9053       9052  
      8922       8923       8934       8933       9043       9044       9055       9054  
      8923       8924       8935       8934       9044       9045       9056       9055  
      8924       8925       8936       8935       9045       9046       9057       9056  
      8925       8926       8937       8936       9046       9047       9058       9057  
      8926       8927       8938       8937       9047       9048       9059       9058  
      8927       8928       8939       8938       9048       9049       9060       9059  
      8928       8929       8940       8939       9049       9050       9061       9060  
      8929       8930       8941       8940       9050       9051       9062       9061  
      8930       8931       8942       8941       9051       9052       9063       9062  
      8931       8932       8943       8942       9052       9053       9064       9063  
      8933       8934       8945       8944       9054       9055       9066       9065  
      8934       8935       8946       8945       9055       9056       9067       9066  
      8935       8936       8947       8946       9056       9057       9068       9067  
      8936       8937       8948       8947       9057       9058       9069       9068  
      8937       8938       8949       8948       9058       9059       9070       9069  
      8938       8939       8950       8949       9059       9060       9071       9070  
      8939       8940       8951       8950       9060       9061       9072       9071  
      8940       8941       8952       8951       9061       9062       9073       9072  
      8941       8942       8953       8952       9062       9063       9074       9073  
      8942       8943       8954       8953       9063       9064       9075       9074  
      8955       8956       8967       8966       9076       9077       9088       9087  
      8956       8957       8968       8967       9077       9078       9089       9088  
      8957       8958       8969       8968       9078       9079       9090       9089  
      8958       8959       8970       8969       9079       9080       9091       9090  
      8959       8960       8971       8970       9080       9081       9092       9091  
      8960       8961       8972       8971       9081       9082       9093       9092  
      8961       8962       8973       8972       9082       9083       9094       9093  
      8962       8963       8974       8973       9083       9084       9095       9094  
      8963       8964       8975       8974       9084       9085       9096       9095  
      8964       8965       8976       8975       9085       9086       9097       9096  
      8966       8967       8978       8977       9087       9088       9099       9098  
      8967       8968       8979       8978       9088       9089       9100       9099  
      8968       8969       8980       8979       9089       9090       9101       9100  
      8969       8970       8981       8980       9090       9091       9102       9101  
      8970       8971       8982       8981       9091       9092       9103       9102  
      8971       8972       8983       8982       9092       9093       9104       9103  
      8972       8973       8984       8983       9093       9094       9105       9104  
      8973       8974       8985       8984       9094       9095       9106       9105  
      8974       8975       8986       8985       9095       9096       9107       9106  
      8975       8976       8987       8986       9096       9097       9108       9107  
      8977       8978       8989       8988       9098       9099       9110       9109  
      8978       8979       8990       8989       9099       9100       9111       9110  
      8979       8980       8991       8990       9100       9101       9112       9111  
      8980       8981       8992       8991       9101       9102       9113       9112  
      8981       8982       8993       8992       9102       9103       9114       9113  
      8982       8983       8994       8993       9103       9104       9115       9114  
      8983       8984       8995       8994       9104       9105       9116       9115  
      8984       8985       8996       8995       9105       9106       9117       9116  
      8985       8986       8997       8996       9106       9107       9118       9117  
      8986       8987       8998       8997       9107       9108       9119       9118  
      8988       8989       9000       8999       9109       9110       9121       9120  
      8989       8990       9001       9000       9110       9111       9122       9121  
      8990       8991       9002       9001       9111       9112       9123       9122  
      8991       8992       9003       9002       9112       9113       9124       9123  
      8992       8993       9004       9003       9113       9114       9125       9124  
      8993       8994       9005       9004       9114       9115       9126       9125  
      8994       8995       9006       9005       9115       9116       9127       9126  
      8995       8996       9007       9006       9116       9117       9128       9127  
      8996       8997       9008       9007       9117       9118       9129       9128  
      8997       8998       9009       9008       9118       9119       9130       9129  
      8999       9000       9011       9010       9120       9121       9132       9131  
      9000       9001       9012       9011       9121       9122       9133       9132  
      9001       9002       9013       9012       9122       9123       9134       9133  
      9002       9003       9014       9013       9123       9124       9135       9134  
      9003       9004       9015       9014       9124       9125       9136       9135  
      9004       9005       9016       9015       9125       9126       9137       9136  
      9005       9006       9017       9016       9126       9127       9138       9137  
      9006       9007       9018       9017       9127       9128       9139       9138  
      9007       9008       9019       9018       9128       9129       9140       9139  
      9008       9009       9020       9019       9129       9130       9141       9140  
      9010       9011       9022       9021       9131       9132       9143       9142  
      9011       9012       9023       9022       9132       9133       9144       9143  
      9012       9013       9024       9023       9133       9134       9145       9144  
      9013       9014       9025       9024       9134       9135       9146       9145  
      9014       9015       9026       9025       9135       9136       9147       9146  
      9015       9016       9027       9026       9136       9137       9148       9147  
      9016       9017       9028       9027       9137       9138       9149       9148  
      9017       9018       9029       9028       9138       9139       9150       9149  
      9018       9019       9030       9029       9139       9140       9151       9150  
      9019       9020       9031       9030       9140       9141       9152       9151  
      9021       9022       9033       9032       9142       9143       9154       9153  
      9022       9023       9034       9033       9143       9144       9155       9154  
      9023       9024       9035       9034       9144       9145       9156       9155  
      9024       9025       9036       9035       9145       9146       9157       9156  
      9025       9026       9037       9036       9146       9147       9158       9157  
      9026       9027       9038       9037       9147       9148       9159       9158  
      9027       9028       9039       9038       9148       9149       9160       9159  
      9028       9029       9040       9039       9149       9150       9161       9160  
      9029       9030       9041       9040       9150       9151       9162       9161  
      9030       9031       9042       9041       9151       9152       9163       9162  
      9032       9033       9044       9043       9153       9154       9165       9164  
      9033       9034       9045       9044       9154       9155       9166       9165  
      9034       9035       9046       9045       9155       9156       9167       9166  
      9035       9036       9047       9046       9156       9157       9168       9167  
      9036       9037       9048       9047       9157       9158       9169       9168  
      9037       9038       9049       9048       9158       9159       9170       9169  
      9038       9039       9050       9049       9159       9160       9171       9170  
      9039       9040       9051       9050       9160       9161       9172       9171  
      9040       9041       9052       9051       9161       9162       9173       9172  
      9041       9042       9053       9052       9162       9163       9174       9173  
      9043       9044       9055       9054       9164       9165       9176       9175  
      9044       9045       9056       9055       9165       9166       9177       9176  
      9045       9046       9057       9056       9166       9167       9178       9177  
      9046       9047       9058       9057       9167       9168       9179       9178  
      9047       9048       9059       9058       9168       9169       9180       9179  
      9048       9049       9060       9059       9169       9170       9181       9180  
      9049       9050       9061       9060       9170       9171       9182       9181  
      9050       9051       9062       9061       9171       9172       9183       9182  
      9051       9052       9063       9062       9172       9173       9184       9183  
      9052       9053       9064       9063       9173       9174       9185       9184  
      9054       9055       9066       9065       9175       9176       9187       9186  
      9055       9056       9067       9066       9176       9177       9188       9187  
      9056       9057       9068       9067       9177       9178       9189       9188  
      9057       9058       9069       9068       9178       9179       9190       9189  
      9058       9059       9070       9069       9179       9180       9191       9190  
      9059       9060       9071       9070       9180       9181       9192       9191  
      9060       9061       9072       9071       9181       9182       9193       9192  
      9061       9062       9073       9072       9182       9183       9194       9193  
      9062       9063       9074       9073       9183       9184       9195       9194  
      9063       9064       9075       9074       9184       9185       9196       9195  
      9076       9077       9088       9087       9197       9198       9209       9208  
      9077       9078       9089       9088       9198       9199       9210       9209  
      9078       9079       9090       9089       9199       9200       9211       9210  
      9079       9080       9091       9090       9200       9201       9212       9211  
      9080       9081       9092       9091       9201       9202       9213       9212  
      9081       9082       9093       9092       9202       9203       9214       9213  
      9082       9083       9094       9093       9203       9204       9215       9214  
      9083       9084       9095       9094       9204       9205       9216       9215  
      9084       9085       9096       9095       9205       9206       9217       9216  
      9085       9086       9097       9096       9206       9207       9218       9217  
      9087       9088       9099       9098       9208       9209       9220       9219  
      9088       9089       9100       9099       9209       9210       9221       9220  
      9089       9090       9101       9100       9210       9211       9222       9221  
      9090       9091       9102       9101       9211       9212       9223       9222  
      9091       9092       9103       9102       9212       9213       9224       9223  
      9092       9093       9104       9103       9213       9214       9225       9224  
      9093       9094       9105       9104       9214       9215       9226       9225  
      9094       9095       9106       9105       9215       9216       9227       9226  
      9095       9096       9107       9106       9216       9217       9228       9227  
      9096       9097       9108       9107       9217       9218       9229       9228  
      9098       9099       9110       9109       9219       9220       9231       9230  
      9099       9100       9111       9110       9220       9221       9232       9231  
      9100       9101       9112       9111       9221       9222       9233       9232  
      9101       9102       9113       9112       9222       9223       9234       9233  
      9102       9103       9114       9113       9223       9224       9235       9234  
      9103       9104       9115       9114       9224       9225       9236       9235  
      9104       9105       9116       9115       9225       9226       9237       9236  
      9105       9106       9117       9116       9226       9227       9238       9237  
      9106       9107       9118       9117       9227       9228       9239       9238  
      9107       9108       9119       9118       9228       9229       9240       9239  
      9109       9110       9121       9120       9230       9231       9242       9241  
      9110       9111       9122       9121       9231       9232       9243       9242  
      9111       9112       9123       9122       9232       9233       9244       9243  
      9112       9113       9124       9123       9233       9234       9245       9244  
      9113       9114       9125       9124       9234       9235       9246       9245  
      9114       9115       9126       9125       9235       9236       9247       9246  
      9115       9116       9127       9126       9236       9237       9248       9247  
      9116       9117       9128       9127       9237       9238       9249       9248  
      9117       9118       9129       9128       9238       9239       9250       9249  
      9118       9119       9130       9129       9239       9240       9251       9250  
      9120       9121       9132       9131       9241       9242       9253       9252  
      9121       9122       9133       9132       9242       9243       9254       9253  
      9122       9123       9134       9133       9243       9244       9255       9254  
      9123       9124       9135       9134       9244       9245       9256       9255  
      9124       9125       9136       9135       9245       9246       9257       9256  
      9125       9126       9137       9136       9246       9247       9258       9257  
      9126       9127       9138       9137       9247       9248       9259       9258  
      9127       9128       9139       9138       9248       9249       9260       9259  
      9128       9129       9140       9139       9249       9250       9261       9260  
      9129       9130       9141       9140       9250       9251       9262       9261  
      9131       9132       9143       9142       9252       9253       9264       9263  
      9132       9133       9144       9143       9253       9254       9265       9264  
      9133       9134       9145       9144       9254       9255       9266       9265  
      9134       9135       9146       9145       9255       9256       9267       9266  
      9135       9136       9147       9146       9256       9257       9268       9267  
      9136       9137       9148       9147       9257       9258       9269       9268  
      9137       9138       9149       9148       9258       9259       9270       9269  
      9138       9139       9150       9149       9259       9260       9271       9270  
      9139       9140       9151       9150       9260       9261       9272       9271  
      9140       9141       9152       9151       9261       9262       9273       9272  
      9142       9143       9154       9153       9263       9264       9275       9274  
      9143       9144       9155       9154       9264       9265       9276       9275  
      9144       9145       9156       9155       9265       9266       9277       9276  
      9145       9146       9157       9156       9266       9267       9278       9277  
      9146       9147       9158       9157       9267       9268       9279       9278  
      9147       9148       9159       9158       9268       9269       9280       9279  
      9148       9149       9160       9159       9269       9270       9281       9280  
      9149       9150       9161       9160       9270       9271       9282       9281  
      9150       9151       9162       9161       9271       9272       9283       9282  
      9151       9152       9163       9162       9272       9273       9284       9283  
      9153       9154       9165       9164       9274       9275       9286       9285  
      9154       9155       9166       9165       9275       9276       9287       9286  
      9155       9156       9167       9166       9276       9277       9288       9287  
      9156       9157       9168       9167       9277       9278       9289       9288  
      9157       9158       9169       9168       9278       9279       9290       9289  
      9158       9159       9170       9169       9279       9280       9291       9290  
      9159       9160       9171       9170       9280       9281       9292       9291  
      9160       9161       9172       9171       9281       9282       9293       9292  
      9161       9162       9173       9172       9282       9283       9294       9293  
      9162       9163       9174       9173       9283       9284       9295       9294  
      9164       9165       9176       9175       9285       9286       9297       9296  
      9165       9166       9177       9176       9286       9287       9298       9297  
      9166       9167       9178       9177       9287       9288       9299       9298  
      9167       9168       9179       9178       9288       9289       9300       9299  
      9168       9169       9180       9179       9289       9290       9301       9300  
      9169       9170       9181       9180       9290       9291       9302       9301  
      9170       9171       9182       9181       9291       9292       9303       9302  
      9171       9172       9183       9182       9292       9293       9304       9303  
      9172       9173       9184       9183       9293       9294       9305       9304  
      9173       9174       9185       9184       9294       9295       9306       9305  
      9175       9176       9187       9186       9296       9297       9308       9307  
      9176       9177       9188       9187       9297       9298       9309       9308  
      9177       9178       9189       9188       9298       9299       9310       9309  
      9178       9179       9190       9189       9299       9300       9311       9310  
      9179       9180       9191       9190       9300       9301       9312       9311  
      9180       9181       9192       9191       9301       9302       9313       9312  
      9181       9182       9193       9192       9302       9303       9314       9313  
      9182       9183       9194       9193       9303       9304       9315       9314  
      9183       9184       9195       9194       9304       9305       9316       9315  
      9184       9185       9196       9195       9305       9306       9317       9316  
      9197       9198       9209       9208       9318       9319       9330       9329  
      9198       9199       9210       9209       9319       9320       9331       9330  
      9199       9200       9211       9210       9320       9321       9332       9331  
      9200       9201       9212       9211       9321       9322       9333       9332  
      9201       9202       9213       9212       9322       9323       9334       9333  
      9202       9203       9214       9213       9323       9324       9335       9334  
      9203       9204       9215       9214       9324       9325       9336       9335  
      9204       9205       9216       9215       9325       9326       9337       9336  
      9205       9206       9217       9216       9326       9327       9338       9337  
      9206       9207       9218       9217       9327       9328       9339       9338  
      9208       9209       9220       9219       9329       9330       9341       9340  
      9209       9210       9221       9220       9330       9331       9342       9341  
      9210       9211       9222       9221       9331       9332       9343       9342  
      9211       9212       9223       9222       9332       9333       9344       9343  
      9212       9213       9224       9223       9333       9334       9345       9344  
      9213       9214       9225       9224       9334       9335       9346       9345  
      9214       9215       9226       9225       9335       9336       9347       9346  
      9215       9216       9227       9226       9336       9337       9348       9347  
      9216       9217       9228       9227       9337       9338       9349       9348  
      9217       9218       9229       9228       9338       9339       9350       9349  
      9219       9220       9231       9230       9340       9341       9352       9351  
      9220       9221       9232       9231       9341       9342       9353       9352  
      9221       9222       9233       9232       9342       9343       9354       9353  
      9222       9223       9234       9233       9343       9344       9355       9354  
      9223       9224       9235       9234       9344       9345       9356       9355  
      9224       9225       9236       9235       9345       9346       9357       9356  
      9225       9226       9237       9236       9346       9347       9358       9357  
      9226       9227       9238       9237       9347       9348       9359       9358  
      9227       9228       9239       9238       9348       9349       9360       9359  
      9228       9229       9240       9239       9349       9350       9361       9360  
      9230       9231       9242       9241       9351       9352       9363       9362  
      9231       9232       9243       9242       9352       9353       9364       9363  
      9232       9233       9244       9243       9353       9354       9365       9364  
      9233       9234       9245       9244       9354       9355       9366       9365  
      9234       9235       9246       9245       9355       9356       9367       9366  
      9235       9236       9247       9246       9356       9357       9368       9367  
      9236       9237       9248       9247       9357       9358       9369       9368  
      9237       9238       9249       9248       9358       9359       9370       9369  
      9238       9239       9250       9249       9359       9360       9371       9370  
      9239       9240       9251       9250       9360       9361       9372       9371  
      9241       9242       9253       9252       9362       9363       9374       9373  
      9242       9243       9254       9253       9363       9364       9375       9374  
      9243       9244       9255       9254       9364       9365       9376       9375  
      9244       9245       9256       9255       9365       9366       9377       9376  
      9245       9246       9257       9256       9366       9367       9378       9377  
      9246       9247       9258       9257       9367       9368       9379       9378  
      9247       9248       9259       9258       9368       9369       9380       9379  
      9248       9249       9260       9259       9369       9370       9381       9380  
      9249       9250       9261       9260       9370       9371       9382       9381  
      9250       9251       9262       9261       9371       9372       9383       9382  
      9252       9253       9264       9263       9373       9374       9385       9384  
      9253       9254       9265       9264       9374       9375       9386       9385  
      9254       9255       9266       9265       9375       9376       9387       9386  
      9255       9256       9267       9266       9376       9377       9388       9387  
      9256       9257       9268       9267       9377       9378       9389       9388  
      9257       9258       9269       9268       9378       9379       9390       9389  
      9258       9259       9270       9269       9379       9380       9391       9390  
      9259       9260       9271       9270       9380       9381       9392       9391  
      9260       9261       9272       9271       9381       9382       9393       9392  
      9261       9262       9273       9272       9382       9383       9394       9393  
      9263       9264       9275       9274       9384       9385       9396       9395  
      9264       9265       9276       9275       9385       9386       9397       9396  
      9265       9266       9277       9276       9386       9387       9398       9397  
      9266       9267       9278       9277       9387       9388       9399       9398  
      9267       9268       9279       9278       9388       9389       9400       9399  
      9268       9269       9280       9279       9389       9390       9401       9400  
      9269       9270       9281       9280       9390       9391       9402       9401  
      9270       9271       9282       9281       9391       9392       9403       9402  
      9271       9272       9283       9282       9392       9393       9404       9403  
      9272       9273       9284       9283       9393       9394       9405       9404  
      9274       9275       9286       9285       9395       9396       9407       9406  
      9275       9276       9287       9286       9396       9397       9408       9407  
      9276       9277       9288       9287       9397       9398       9409       9408  
      9277       9278       9289       9288       9398       9399       9410       9409  
      9278       9279       9290       9289       9399       9400       9411       9410  
      9279       9280       9291       9290       9400       9401       9412       9411  
      9280       9281       9292       9291       9401       9402       9413       9412  
      9281       9282       9293       9292       9402       9403       9414       9413  
      9282       9283       9294       9293       9403       9404       9415       9414  
      9283       9284       9295       9294       9404       9405       9416       9415  
      9285       9286       9297       9296       9406       9407       9418       9417  
      9286       9287       9298       9297       9407       9408       9419       9418  
      9287       9288       9299       9298       9408       9409       9420       9419  
      9288       9289       9300       9299       9409       9410       9421       9420  
      9289       9290       9301       9300       9410       9411       9422       9421  
      9290       9291       9302       9301       9411       9412       9423       9422  
      9291       9292       9303       9302       9412       9413       9424       9423  
      9292       9293       9304       9303       9413       9414       9425       9424  
      9293       9294       9305       9304       9414       9415       9426       9425  
      9294       9295       9306       9305       9415       9416       9427       9426  
      9296       9297       9308       9307       9417       9418       9429       9428  
      9297       9298       9309       9308       9418       9419       9430       9429  
      9298       9299       9310       9309       9419       9420       9431       9430  
      9299       9300       9311       9310       9420       9421       9432       9431  
      9300       9301       9312       9311       9421       9422       9433       9432  
      9301       9302       9313       9312       9422       9423       9434       9433  
      9302       9303       9314       9313       9423       9424       9435       9434  
      9303       9304       9315       9314       9424       9425       9436       9435  
      9304       9305       9316       9315       9425       9426       9437       9436  
      9305       9306       9317       9316       9426       9427       9438       9437  
      9318       9319       9330       9329       9439       9440       9451       9450  
      9319       9320       9331       9330       9440       9441       9452       9451  
      9320       9321       9332       9331       9441       9442       9453       9452  
      9321       9322       9333       9332       9442       9443       9454       9453  
      9322       9323       9334       9333       9443       9444       9455       9454  
      9323       9324       9335       9334       9444       9445       9456       9455  
      9324       9325       9336       9335       9445       9446       9457       9456  
      9325       9326       9337       9336       9446       9447       9458       9457  
      9326       9327       9338       9337       9447       9448       9459       9458  
      9327       9328       9339       9338       9448       9449       9460       9459  
      9329       9330       9341       9340       9450       9451       9462       9461  
      9330       9331       9342       9341       9451       9452       9463       9462  
      9331       9332       9343       9342       9452       9453       9464       9463  
      9332       9333       9344       9343       9453       9454       9465       9464  
      9333       9334       9345       9344       9454       9455       9466       9465  
      9334       9335       9346       9345       9455       9456       9467       9466  
      9335       9336       9347       9346       9456       9457       9468       9467  
      9336       9337       9348       9347       9457       9458       9469       9468  
      9337       9338       9349       9348       9458       9459       9470       9469  
      9338       9339       9350       9349       9459       9460       9471       9470  
      9340       9341       9352       9351       9461       9462       9473       9472  
      9341       9342       9353       9352       9462       9463       9474       9473  
      9342       9343       9354       9353       9463       9464       9475       9474  
      9343       9344       9355       9354       9464       9465       9476       9475  
      9344       9345       9356       9355       9465       9466       9477       9476  
      9345       9346       9357       9356       9466       9467       9478       9477  
      9346       9347       9358       9357       9467       9468       9479       9478  
      9347       9348       9359       9358       9468       9469       9480       9479  
      9348       9349       9360       9359       9469       9470       9481       9480  
      9349       9350       9361       9360       9470       9471       9482       9481  
      9351       9352       9363       9362       9472       9473       9484       9483  
      9352       9353       9364       9363       9473       9474       9485       9484  
      9353       9354       9365       9364       9474       9475       9486       9485  
      9354       9355       9366       9365       9475       9476       9487       9486  
      9355       9356       9367       9366       9476       9477       9488       9487  
      9356       9357       9368       9367       9477       9478       9489       9488  
      9357       9358       9369       9368       9478       9479       9490       9489  
      9358       9359       9370       9369       9479       9480       9491       9490  
      9359       9360       9371       9370       9480       9481       9492       9491  
      9360       9361       9372       9371       9481       9482       9493       9492  
      9362       9363       9374       9373       9483       9484       9495       9494  
      9363       9364       9375       9374       9484       9485       9496       9495  
      9364       9365       9376       9375       9485       9486       9497       9496  
      9365       9366       9377       9376       9486       9487       9498       9497  
      9366       9367       9378       9377       9487       9488       9499       9498  
      9367       9368       9379       9378       9488       9489       9500       9499  
      9368       9369       9380       9379       9489       9490       9501       9500  
      9369       9370       9381       9380       9490       9491       9502       9501  
      9370       9371       9382       9381       9491       9492       9503       9502  
      9371       9372       9383       9382       9492       9493       9504       9503  
      9373       9374       9385       9384       9494       9495       9506       9505  
      9374       9375       9386       9385       9495       9496       9507       9506  
      9375       9376       9387       9386       9496       9497       9508       9507  
      9376       9377       9388       9387       9497       9498       9509       9508  
      9377       9378       9389       9388       9498       9499       9510       9509  
      9378       9379       9390       9389       9499       9500       9511       9510  
      9379       9380       9391       9390       9500       9501       9512       9511  
      9380       9381       9392       9391       9501       9502       9513       9512  
      9381       9382       9393       9392       9502       9503       9514       9513  
      9382       9383       9394       9393       9503       9504       9515       9514  
      9384       9385       9396       9395       9505       9506       9517       9516  
      9385       9386       9397       9396       9506       9507       9518       9517  
      9386       9387       9398       9397       9507       9508       9519       9518  
      9387       9388       9399       9398       9508       9509       9520       9519  
      9388       9389       9400       9399       9509       9510       9521       9520  
      9389       9390       9401       9400       9510       9511       9522       9521  
      9390       9391       9402       9401       9511       9512       9523       9522  
      9391       9392       9403       9402       9512       9513       9524       9523  
      9392       9393       9404       9403       9513       9514       9525       9524  
      9393       9394       9405       9404       9514       9515       9526       9525  
      9395       9396       9407       9406       9516       9517       9528       9527  
      9396       9397       9408       9407       9517       9518       9529       9528  
      9397       9398       9409       9408       9518       9519       9530       9529  
      9398       9399       9410       9409       9519       9520       9531       9530  
      9399       9400       9411       9410       9520       9521       9532       9531  
      9400       9401       9412       9411       9521       9522       9533       9532  
      9401       9402       9413       9412       9522       9523       9534       9533  
      9402       9403       9414       9413       9523       9524       9535       9534  
      9403       9404       9415       9414       9524       9525       9536       9535  
      9404       9405       9416       9415       9525       9526       9537       9536  
      9406       9407       9418       9417       9527       9528       9539       9538  
      9407       9408       9419       9418       9528       9529       9540       9539  
      9408       9409       9420       9419       9529       9530       9541       9540  
      9409       9410       9421       9420       9530       9531       9542       9541  
      9410       9411       9422       9421       9531       9532       9543       9542  
      9411       9412       9423       9422       9532       9533       9544       9543  
      9412       9413       9424       9423       9533       9534       9545       9544  
      9413       9414       9425       9424       9534       9535       9546       9545  
      9414       9415       9426       9425       9535       9536       9547       9546  
      9415       9416       9427       9426       9536       9537       9548       9547  
      9417       9418       9429       9428       9538       9539       9550       9549  
      9418       9419       9430       9429       9539       9540       9551       9550  
      9419       9420       9431       9430       9540       9541       9552       9551  
      9420       9421       9432       9431       9541       9542       9553       9552  
      9421       9422       9433       9432       9542       9543       9554       9553  
      9422       9423       9434       9433       9543       9544       9555       9554  
      9423       9424       9435       9434       9544       9545       9556       9555  
      9424       9425       9436       9435       9545       9546       9557       9556  
      9425       9426       9437       9436       9546       9547       9558       9557  
      9426       9427       9438       9437       9547       9548       9559       9558  
      9439       9440       9451       9450       9560       9561       9572       9571  
      9440       9441       9452       9451       9561       9562       9573       9572  
      9441       9442       9453       9452       9562       9563       9574       9573  
      9442       9443       9454       9453       9563       9564       9575       9574  
      9443       9444       9455       9454       9564       9565       9576       9575  
      9444       9445       9456       9455       9565       9566       9577       9576  
      9445       9446       9457       9456       9566       9567       9578       9577  
      9446       9447       9458       9457       9567       9568       9579       9578  
      9447       9448       9459       9458       9568       9569       9580       9579  
      9448       9449       9460       9459       9569       9570       9581       9580  
      9450       9451       9462       9461       9571       9572       9583       9582  
      9451       9452       9463       9462       9572       9573       9584       9583  
      9452       9453       9464       9463       9573       9574       9585       9584  
      9453       9454       9465       9464       9574       9575       9586       9585  
      9454       9455       9466       9465       9575       9576       9587       9586  
      9455       9456       9467       9466       9576       9577       9588       9587  
      9456       9457       9468       9467       9577       9578       9589       9588  
      9457       9458       9469       9468       9578       9579       9590       9589  
      9458       9459       9470       9469       9579       9580       9591       9590  
      9459       9460       9471       9470       9580       9581       9592       9591  
      9461       9462       9473       9472       9582       9583       9594       9593  
      9462       9463       9474       9473       9583       9584       9595       9594  
      9463       9464       9475       9474       9584       9585       9596       9595  
      9464       9465       9476       9475       9585       9586       9597       9596  
      9465       9466       9477       9476       9586       9587       9598       9597  
      9466       9467       9478       9477       9587       9588       9599       9598  
      9467       9468       9479       9478       9588       9589       9600       9599  
      9468       9469       9480       9479       9589       9590       9601       9600  
      9469       9470       9481       9480       9590       9591       9602       9601  
      9470       9471       9482       9481       9591       9592       9603       9602  
      9472       9473       9484       9483       9593       9594       9605       9604  
      9473       9474       9485       9484       9594       9595       9606       9605  
      9474       9475       9486       9485       9595       9596       9607       9606  
      9475       9476       9487       9486       9596       9597       9608       9607  
      9476       9477       9488       9487       9597       9598       9609       9608  
      9477       9478       9489       9488       9598       9599       9610       9609  
      9478       9479       9490       9489       9599       9600       9611       9610  
      9479       9480       9491       9490       9600       9601       9612       9611  
      9480       9481       9492       9491       9601       9602       9613       9612  
      9481       9482       9493       9492       9602       9603       9614       9613  
      9483       9484       9495       9494       9604       9605       9616       9615  
      9484       9485       9496       9495       9605       9606       9617       9616  
      9485       9486       9497       9496       9606       9607       9618       9617  
      9486       9487       9498       9497       9607       9608       9619       9618  
      9487       9488       9499       9498       9608       9609       9620       9619  
      9488       9489       9500       9499       9609       9610       9621       9620  
      9489       9490       9501       9500       9610       9611       9622       9621  
      9490       9491       9502       9501       9611       9612       9623       9622  
      9491       9492       9503       9502       9612       9613       9624       9623  
      9492       9493       9504       9503       9613       9614       9625       9624  
      9494       9495       9506       9505       9615       9616       9627       9626  
      9495       9496       9507       9506       9616       9617       9628       9627  
      9496       9497       9508       9507       9617       9618       9629       9628  
      9497       9498       9509       9508       9618       9619       9630       9629  
      9498       9499       9510       9509       9619       9620       9631       9630  
      9499       9500       9511       9510       9620       9621       9632       9631  
      9500       9501       9512       9511       9621       9622       9633       9632  
      9501       9502       9513       9512       9622       9623       9634       9633  
      9502       9503       9514       9513       9623       9624       9635       9634  
      9503       9504       9515       9514       9624       9625       9636       9635  
      9505       9506       9517       9516       9626       9627       9638       9637  
      9506       9507       9518       9517       9627       9628       9639       9638  
      9507       9508       9519       9518       9628       9629       9640       9639  
      9508       9509       9520       9519       9629       9630       9641       9640  
      9509       9510       9521       9520       9630       9631       9642       9641  
      9510       9511       9522       9521       9631       9632       9643       9642  
      9511       9512       9523       9522       9632       9633       9644       9643  
      9512       9513       9524       9523       9633       9634       9645       9644  
      9513       9514       9525       9524       9634       9635       9646       9645  
      9514       9515       9526       9525       9635       9636       9647       9646  
      9516       9517       9528       9527       9637       9638       9649       9648  
      9517       9518       9529       9528       9638       9639       9650       9649  
      9518       9519       9530       9529       9639       9640       9651       9650  
      9519       9520       9531       9530       9640       9641       9652       9651  
      9520       9521       9532       9531       9641       9642       9653       9652  
      9521       9522       9533       9532       9642       9643       9654       9653  
      9522       9523       9534       9533       9643       9644       9655       9654  
      9523       9524       9535       9534       9644       9645       9656       9655  
      9524       9525       9536       9535       9645       9646       9657       9656  
      9525       9526       9537       9536       9646       9647       9658       9657  
      9527       9528       9539       9538       9648       9649       9660       9659  
      9528       9529       9540       9539       9649       9650       9661       9660  
      9529       9530       9541       9540       9650       9651       9662       9661  
      9530       9531       9542       9541       9651       9652       9663       9662  
      9531       9532       9543       9542       9652       9653       9664       9663  
      9532       9533       9544       9543       9653       9654       9665       9664  
      9533       9534       9545       9544       9654       9655       9666       9665  
      9534       9535       9546       9545       9655       9656       9667       9666  
      9535       9536       9547       9546       9656       9657       9668       9667  
      9536       9537       9548       9547       9657       9658       9669       9668  
      9538       9539       9550       9549       9659       9660       9671       9670  
      9539       9540       9551       9550       9660       9661       9672       9671  
      9540       9541       9552       9551       9661       9662       9673       9672  
      9541       9542       9553       9552       9662       9663       9674       9673  
      9542       9543       9554       9553       9663       9664       9675       9674  
      9543       9544       9555       9554       9664       9665       9676       9675  
      9544       9545       9556       9555       9665       9666       9677       9676  
      9545       9546       9557       9556       9666       9667       9678       9677  
      9546       9547       9558       9557       9667       9668       9679       9678  
      9547       9548       9559       9558       9668       9669       9680       9679  
      9560       9561       9572       9571       9681       9682       9693       9692  
      9561       9562       9573       9572       9682       9683       9694       9693  
      9562       9563       9574       9573       9683       9684       9695       9694  
      9563       9564       9575       9574       9684       9685       9696       9695  
      9564       9565       9576       9575       9685       9686       9697       9696  
      9565       9566       9577       9576       9686       9687       9698       9697  
      9566       9567       9578       9577       9687       9688       9699       9698  
      9567       9568       9579       9578       9688       9689       9700       9699  
      9568       9569       9580       9579       9689       9690       9701       9700  
      9569       9570       9581       9580       9690       9691       9702       9701  
      9571       9572       9583       9582       9692       9693       9704       9703  
      9572       9573       9584       9583       9693       9694       9705       9704  
      9573       9574       9585       9584       9694       9695       9706       9705  
      9574       9575       9586       9585       9695       9696       9707       9706  
      9575       9576       9587       9586       9696       9697       9708       9707  
      9576       9577       9588       9587       9697       9698       9709       9708  
      9577       9578       9589       9588       9698       9699       9710       9709  
      9578       9579       9590       9589       9699       9700       9711       9710  
      9579       9580       9591       9590       9700       9701       9712       9711  
      9580       9581       9592       9591       9701       9702       9713       9712  
      9582       9583       9594       9593       9703       9704       9715       9714  
      9583       9584       9595       9594       9704       9705       9716       9715  
      9584       9585       9596       9595       9705       9706       9717       9716  
      9585       9586       9597       9596       9706       9707       9718       9717  
      9586       9587       9598       9597       9707       9708       9719       9718  
      9587       9588       9599       9598       9708       9709       9720       9719  
      9588       9589       9600       9599       9709       9710       9721       9720  
      9589       9590       9601       9600       9710       9711       9722       9721  
      9590       9591       9602       9601       9711       9712       9723       9722  
      9591       9592       9603       9602       9712       9713       9724       9723  
      9593       9594       9605       9604       9714       9715       9726       9725  
      9594       9595       9606       9605       9715       9716       9727       9726  
      9595       9596       9607       9606       9716       9717       9728       9727  
      9596       9597       9608       9607       9717       9718       9729       9728  
      9597       9598       9609       9608       9718       9719       9730       9729  
      9598       9599       9610       9609       9719       9720       9731       9730  
      9599       9600       9611       9610       9720       9721       9732       9731  
      9600       9601       9612       9611       9721       9722       9733       9732  
      9601       9602       9613       9612       9722       9723       9734       9733  
      9602       9603       9614       9613       9723       9724       9735       9734  
      9604       9605       9616       9615       9725       9726       9737       9736  
      9605       9606       9617       9616       9726       9727       9738       9737  
      9606       9607       9618       9617       9727       9728       9739       9738  
      9607       9608       9619       9618       9728       9729       9740       9739  
      9608       9609       9620       9619       9729       9730       9741       9740  
      9609       9610       9621       9620       9730       9731       9742       9741  
      9610       9611       9622       9621       9731       9732       9743       9742  
      9611       9612       9623       9622       9732       9733       9744       9743  
      9612       9613       9624       9623       9733       9734       9745       9744  
      9613       9614       9625       9624       9734       9735       9746       9745  
      9615       9616       9627       9626       9736       9737       9748       9747  
      9616       9617       9628       9627       9737       9738       9749       9748  
      9617       9618       9629       9628       9738       9739       9750       9749  
      9618       9619       9630       9629       9739       9740       9751       9750  
      9619       9620       9631       9630       9740       9741       9752       9751  
      9620       9621       9632       9631       9741       9742       9753       9752  
      9621       9622       9633       9632       9742       9743       9754       9753  
      9622       9623       9634       9633       9743       9744       9755       9754  
      9623       9624       9635       9634       9744       9745       9756       9755  
      9624       9625       9636       9635       9745       9746       9757       9756  
      9626       9627       9638       9637       9747       9748       9759       9758  
      9627       9628       9639       9638       9748       9749       9760       9759  
      9628       9629       9640       9639       9749       9750       9761       9760  
      9629       9630       9641       9640       9750       9751       9762       9761  
      9630       9631       9642       9641       9751       9752       9763       9762  
      9631       9632       9643       9642       9752       9753       9764       9763  
      9632       9633       9644       9643       9753       9754       9765       9764  
      9633       9634       9645       9644       9754       9755       9766       9765  
      9634       9635       9646       9645       9755       9756       9767       9766  
      9635       9636       9647       9646       9756       9757       9768       9767  
      9637       9638       9649       9648       9758       9759       9770       9769  
      9638       9639       9650       9649       9759       9760       9771       9770  
      9639       9640       9651       9650       9760       9761       9772       9771  
      9640       9641       9652       9651       9761       9762       9773       9772  
      9641       9642       9653       9652       9762       9763       9774       9773  
      9642       9643       9654       9653       9763       9764       9775       9774  
      9643       9644       9655       9654       9764       9765       9776       9775  
      9644       9645       9656       9655       9765       9766       9777       9776  
      9645       9646       9657       9656       9766       9767       9778       9777  
      9646       9647       9658       9657       9767       9768       9779       9778  
      9648       9649       9660       9659       9769       9770       9781       9780  
      9649       9650       9661       9660       9770       9771       9782       9781  
      9650       9651       9662       9661       9771       9772       9783       9782  
      9651       9652       9663       9662       9772       9773       9784       9783  
      9652       9653       9664       9663       9773       9774       9785       9784  
      9653       9654       9665       9664       9774       9775       9786       9785  
      9654       9655       9666       9665       9775       9776       9787       9786  
      9655       9656       9667       9666       9776       9777       9788       9787  
      9656       9657       9668       9667       9777       9778       9789       9788  
      9657       9658       9669       9668       9778       9779       9790       9789  
      9659       9660       9671       9670       9780       9781       9792       9791  
      9660       9661       9672       9671       9781       9782       9793       9792  
      9661       9662       9673       9672       9782       9783       9794       9793  
      9662       9663       9674       9673       9783       9784       9795       9794  
      9663       9664       9675       9674       9784       9785       9796       9795  
      9664       9665       9676       9675       9785       9786       9797       9796  
      9665       9666       9677       9676       9786       9787       9798       9797  
      9666       9667       9678       9677       9787       9788       9799       9798  
      9667       9668       9679       9678       9788       9789       9800       9799  
      9668       9669       9680       9679       9789       9790       9801       9800  
      9681       9682       9693       9692       9802       9803       9814       9813  
      9682       9683       9694       9693       9803       9804       9815       9814  
      9683       9684       9695       9694       9804       9805       9816       9815  
      9684       9685       9696       9695       9805       9806       9817       9816  
      9685       9686       9697       9696       9806       9807       9818       9817  
      9686       9687       9698       9697       9807       9808       9819       9818  
      9687       9688       9699       9698       9808       9809       9820       9819  
      9688       9689       9700       9699       9809       9810       9821       9820  
      9689       9690       9701       9700       9810       9811       9822       9821  
      9690       9691       9702       9701       9811       9812       9823       9822  
      9692       9693       9704       9703       9813       9814       9825       9824  
      9693       9694       9705       9704       9814       9815       9826       9825  
      9694       9695       9706       9705       9815       9816       9827       9826  
      9695       9696       9707       9706       9816       9817       9828       9827  
      9696       9697       9708       9707       9817       9818       9829       9828  
      9697       9698       9709       9708       9818       9819       9830       9829  
      9698       9699       9710       9709       9819       9820       9831       9830  
      9699       9700       9711       9710       9820       9821       9832       9831  
      9700       9701       9712       9711       9821       9822       9833       9832  
      9701       9702       9713       9712       9822       9823       9834       9833  
      9703       9704       9715       9714       9824       9825       9836       9835  
      9704       9705       9716       9715       9825       9826       9837       9836  
      9705       9706       9717       9716       9826       9827       9838       9837  
      9706       9707       9718       9717       9827       9828       9839       9838  
      9707       9708       9719       9718       9828       9829       9840       9839  
      9708       9709       9720       9719       9829       9830       9841       9840  
      9709       9710       9721       9720       9830       9831       9842       9841  
      9710       9711       9722       9721       9831       9832       9843       9842  
      9711       9712       9723       9722       9832       9833       9844       9843  
      9712       9713       9724       9723       9833       9834       9845       9844  
      9714       9715       9726       9725       9835       9836       9847       9846  
      9715       9716       9727       9726       9836       9837       9848       9847  
      9716       9717       9728       9727       9837       9838       9849       9848  
      9717       9718       9729       9728       9838       9839       9850       9849  
      9718       9719       9730       9729       9839       9840       9851       9850  
      9719       9720       9731       9730       9840       9841       9852       9851  
      9720       9721       9732       9731       9841       9842       9853       9852  
      9721       9722       9733       9732       9842       9843       9854       9853  
      9722       9723       9734       9733       9843       9844       9855       9854  
      9723       9724       9735       9734       9844       9845       9856       9855  
      9725       9726       9737       9736       9846       9847       9858       9857  
      9726       9727       9738       9737       9847       9848       9859       9858  
      9727       9728       9739       9738       9848       9849       9860       9859  
      9728       9729       9740       9739       9849       9850       9861       9860  
      9729       9730       9741       9740       9850       9851       9862       9861  
      9730       9731       9742       9741       9851       9852       9863       9862  
      9731       9732       9743       9742       9852       9853       9864       9863  
      9732       9733       9744       9743       9853       9854       9865       9864  
      9733       9734       9745       9744       9854       9855       9866       9865  
      9734       9735       9746       9745       9855       9856       9867       9866  
      9736       9737       9748       9747       9857       9858       9869       9868  
      9737       9738       9749       9748       9858       9859       9870       9869  
      9738       9739       9750       9749       9859       9860       9871       9870  
      9739       9740       9751       9750       9860       9861       9872       9871  
      9740       9741       9752       9751       9861       9862       9873       9872  
      9741       9742       9753       9752       9862       9863       9874       9873  
      9742       9743       9754       9753       9863       9864       9875       9874  
      9743       9744       9755       9754       9864       9865       9876       9875  
      9744       9745       9756       9755       9865       9866       9877       9876  
      9745       9746       9757       9756       9866       9867       9878       9877  
      9747       9748       9759       9758       9868       9869       9880       9879  
      9748       9749       9760       9759       9869       9870       9881       9880  
      9749       9750       9761       9760       9870       9871       9882       9881  
      9750       9751       9762       9761       9871       9872       9883       9882  
      9751       9752       9763       9762       9872       9873       9884       9883  
      9752       9753       9764       9763       9873       9874       9885       9884  
      9753       9754       9765       9764       9874       9875       9886       9885  
      9754       9755       9766       9765       9875       9876       9887       9886  
      9755       9756       9767       9766       9876       9877       9888       9887  
      9756       9757       9768       9767       9877       9878       9889       9888  
      9758       9759       9770       9769       9879       9880       9891       9890  
      9759       9760       9771       9770       9880       9881       9892       9891  
      9760       9761       9772       9771       9881       9882       9893       9892  
      9761       9762       9773       9772       9882       9883       9894       9893  
      9762       9763       9774       9773       9883       9884       9895       9894  
      9763       9764       9775       9774       9884       9885       9896       9895  
      9764       9765       9776       9775       9885       9886       9897       9896  
      9765       9766       9777       9776       9886       9887       9898       9897  
      9766       9767       9778       9777       9887       9888       9899       9898  
      9767       9768       9779       9778       9888       9889       9900       9899  
      9769       9770       9781       9780       9890       9891       9902       9901  
      9770       9771       9782       9781       9891       9892       9903       9902  
      9771       9772       9783       9782       9892       9893       9904       9903  
      9772       9773       9784       9783       9893       9894       9905       9904  
      9773       9774       9785       9784       9894       9895       9906       9905  
      9774       9775       9786       9785       9895       9896       9907       9906  
      9775       9776       9787       9786       9896       9897       9908       9907  
      9776       9777       9788       9787       9897       9898       9909       9908  
      9777       9778       9789       9788       9898       9899       9910       9909  
      9778       9779       9790       9789       9899       9900       9911       9910  
      9780       9781       9792       9791       9901       9902       9913       9912  
      9781       9782       9793       9792       9902       9903       9914       9913  
      9782       9783       9794       9793       9903       9904       9915       9914  
      9783       9784       9795       9794       9904       9905       9916       9915  
      9784       9785       9796       9795       9905       9906       9917       9916  
      9785       9786       9797       9796       9906       9907       9918       9917  
      9786       9787       9798       9797       9907       9908       9919       9918  
      9787       9788       9799       9798       9908       9909       9920       9919  
      9788       9789       9800       9799       9909       9910       9921       9920  
      9789       9790       9801       9800       9910       9911       9922       9921  
      9802       9803       9814       9813       9923       9924       9935       9934  
      9803       9804       9815       9814       9924       9925       9936       9935  
      9804       9805       9816       9815       9925       9926       9937       9936  
      9805       9806       9817       9816       9926       9927       9938       9937  
      9806       9807       9818       9817       9927       9928       9939       9938  
      9807       9808       9819       9818       9928       9929       9940       9939  
      9808       9809       9820       9819       9929       9930       9941       9940  
      9809       9810       9821       9820       9930       9931       9942       9941  
      9810       9811       9822       9821       9931       9932       9943       9942  
      9811       9812       9823       9822       9932       9933       9944       9943  
      9813       9814       9825       9824       9934       9935       9946       9945  
      9814       9815       9826       9825       9935       9936       9947       9946  
      9815       9816       9827       9826       9936       9937       9948       9947  
      9816       9817       9828       9827       9937       9938       9949       9948  
      9817       9818       9829       9828       9938       9939       9950       9949  
      9818       9819       9830       9829       9939       9940       9951       9950  
      9819       9820       9831       9830       9940       9941       9952       9951  
      9820       9821       9832       9831       9941       9942       9953       9952  
      9821       9822       9833       9832       9942       9943       9954       9953  
      9822       9823       9834       9833       9943       9944       9955       9954  
      9824       9825       9836       9835       9945       9946       9957       9956  
      9825       9826       9837       9836       9946       9947       9958       9957  
      9826       9827       9838       9837       9947       9948       9959       9958  
      9827       9828       9839       9838       9948       9949       9960       9959  
      9828       9829       9840       9839       9949       9950       9961       9960  
      9829       9830       9841       9840       9950       9951       9962       9961  
      9830       9831       9842       9841       9951       9952       9963       9962  
      9831       9832       9843       9842       9952       9953       9964       9963  
      9832       9833       9844       9843       9953       9954       9965       9964  
      9833       9834       9845       9844       9954       9955       9966       9965  
      9835       9836       9847       9846       9956       9957       9968       9967  
      9836       9837       9848       9847       9957       9958       9969       9968  
      9837       9838       9849       9848       9958       9959       9970       9969  
      9838       9839       9850       9849       9959       9960       9971       9970  
      9839       9840       9851       9850       9960       9961       9972       9971  
      9840       9841       9852       9851       9961       9962       9973       9972  
      9841       9842       9853       9852       9962       9963       9974       9973  
      9842       9843       9854       9853       9963       9964       9975       9974  
      9843       9844       9855       9854       9964       9965       9976       9975  
      9844       9845       9856       9855       9965       9966       9977       9976  
      9846       9847       9858       9857       9967       9968       9979       9978  
      9847       9848       9859       9858       9968       9969       9980       9979  
      9848       9849       9860       9859       9969       9970       9981       9980  
      9849       9850       9861       9860       9970       9971       9982       9981  
      9850       9851       9862       9861       9971       9972       9983       9982  
      9851       9852       9863       9862       9972       9973       9984       9983  
      9852       9853       9864       9863       9973       9974       9985       9984  
      9853       9854       9865       9864       9974       9975       9986       9985  
      9854       9855       9866       9865       9975       9976       9987       9986  
      9855       9856       9867       9866       9976       9977       9988       9987  
      9857       9858       9869       9868       9978       9979       9990       9989  
      9858       9859       9870       9869       9979       9980       9991       9990  
      9859       9860       9871       9870       9980       9981       9992       9991  
      9860       9861       9872       9871       9981       9982       9993       9992  
      9861       9862       9873       9872       9982       9983       9994       9993  
      9862       9863       9874       9873       9983       9984       9995       9994  
      9863       9864       9875       9874       9984       9985       9996       9995  
      9864       9865       9876       9875       9985       9986       9997       9996  
      9865       9866       9877       9876       9986       9987       9998       9997  
      9866       9867       9878       9877       9987       9988       9999       9998  
      9868       9869       9880       9879       9989       9990      10001      10000  
      9869       9870       9881       9880       9990       9991      10002      10001  
      9870       9871       9882       9881       9991       9992      10003      10002  
      9871       9872       9883       9882       9992       9993      10004      10003  
      9872       9873       9884       9883       9993       9994      10005      10004  
      9873       9874       9885       9884       9994       9995      10006      10005  
      9874       9875       9886       9885       9995       9996      10007      10006  
      9875       9876       9887       9886       9996       9997      10008      10007  
      9876       9877       9888       9887       9997       9998      10009      10008  
      9877       9878       9889       9888       9998       9999      10010      10009  
      9879       9880       9891       9890      10000      10001      10012      10011  
      9880       9881       9892       9891      10001      10002      10013      10012  
      9881       9882       9893       9892      10002      10003      10014      10013  
      9882       9883       9894       9893      10003      10004      10015      10014  
      9883       9884       9895       9894      10004      10005      10016      10015  
      9884       9885       9896       9895      10005      10006      10017      10016  
      9885       9886       9897       9896      10006      10007      10018      10017  
      9886       9887       9898       9897      10007      10008      10019      10018  
      9887       9888       9899       9898      10008      10009      10020      10019  
      9888       9889       9900       9899      10009      10010      10021      10020  
      9890       9891       9902       9901      10011      10012      10023      10022  
      9891       9892       9903       9902      10012      10013      10024      10023  
      9892       9893       9904       9903      10013      10014      10025      10024  
      9893       9894       9905       9904      10014      10015      10026      10025  
      9894       9895       9906       9905      10015      10016      10027      10026  
      9895       9896       9907       9906      10016      10017      10028      10027  
      9896       9897       9908       9907      10017      10018      10029      10028  
      9897       9898       9909       9908      10018      10019      10030      10029  
      9898       9899       9910       9909      10019      10020      10031      10030  
      9899       9900       9911       9910      10020      10021      10032      10031  
      9901       9902       9913       9912      10022      10023      10034      10033  
      9902       9903       9914       9913      10023      10024      10035      10034  
      9903       9904       9915       9914      10024      10025      10036      10035  
      9904       9905       9916       9915      10025      10026      10037      10036  
      9905       9906       9917       9916      10026      10027      10038      10037  
      9906       9907       9918       9917      10027      10028      10039      10038  
      9907       9908       9919       9918      10028      10029      10040      10039  
      9908       9909       9920       9919      10029      10030      10041      10040  
      9909       9910       9921       9920      10030      10031      10042      10041  
      9910       9911       9922       9921      10031      10032      10043      10042  
      9923       9924       9935       9934      10044      10045      10056      10055  
      9924       9925       9936       9935      10045      10046      10057      10056  
      9925       9926       9937       9936      10046      10047      10058      10057  
      9926       9927       9938       9937      10047      10048      10059      10058  
      9927       9928       9939       9938      10048      10049      10060      10059  
      9928       9929       9940       9939      10049      10050      10061      10060  
      9929       9930       9941       9940      10050      10051      10062      10061  
      9930       9931       9942       9941      10051      10052      10063      10062  
      9931       9932       9943       9942      10052      10053      10064      10063  
      9932       9933       9944       9943      10053      10054      10065      10064  
      9934       9935       9946       9945      10055      10056      10067      10066  
      9935       9936       9947       9946      10056      10057      10068      10067  
      9936       9937       9948       9947      10057      10058      10069      10068  
      9937       9938       9949       9948      10058      10059      10070      10069  
      9938       9939       9950       9949      10059      10060      10071      10070  
      9939       9940       9951       9950      10060      10061      10072      10071  
      9940       9941       9952       9951      10061      10062      10073      10072  
      9941       9942       9953       9952      10062      10063      10074      10073  
      9942       9943       9954       9953      10063      10064      10075      10074  
      9943       9944       9955       9954      10064      10065      10076      10075  
      9945       9946       9957       9956      10066      10067      10078      10077  
      9946       9947       9958       9957      10067      10068      10079      10078  
      9947       9948       9959       9958      10068      10069      10080      10079  
      9948       9949       9960       9959      10069      10070      10081      10080  
      9949       9950       9961       9960      10070      10071      10082      10081  
      9950       9951       9962       9961      10071      10072      10083      10082  
      9951       9952       9963       9962      10072      10073      10084      10083  
      9952       9953       9964       9963      10073      10074      10085      10084  
      9953       9954       9965       9964      10074      10075      10086      10085  
      9954       9955       9966       9965      10075      10076      10087      10086  
      9956       9957       9968       9967      10077      10078      10089      10088  
      9957       9958       9969       9968      10078      10079      10090      10089  
      9958       9959       9970       9969      10079      10080      10091      10090  
      9959       9960       9971       9970      10080      10081      10092      10091  
      9960       9961       9972       9971      10081      10082      10093      10092  
      9961       9962       9973       9972      10082      10083      10094      10093  
      9962       9963       9974       9973      10083      10084      10095      10094  
      9963       9964       9975       9974      10084      10085      10096      10095  
      9964       9965       9976       9975      10085      10086      10097      10096  
      9965       9966       9977       9976      10086      10087      10098      10097  
      9967       9968       9979       9978      10088      10089      10100      10099  
      9968       9969       9980       9979      10089      10090      10101      10100  
      9969       9970       9981       9980      10090      10091      10102      10101  
      9970       9971       9982       9981      10091      10092      10103      10102  
      9971       9972       9983       9982      10092      10093      10104      10103  
      9972       9973       9984       9983      10093      10094      10105      10104  
      9973       9974       9985       9984      10094      10095      10106      10105  
      9974       9975       9986       9985      10095      10096      10107      10106  
      9975       9976       9987       9986      10096      10097      10108      10107  
      9976       9977       9988       9987      10097      10098      10109      10108  
      9978       9979       9990       9989      10099      10100      10111      10110  
      9979       9980       9991       9990      10100      10101      10112      10111  
      9980       9981       9992       9991      10101      10102      10113      10112  
      9981       9982       9993       9992      10102      10103      10114      10113  
      9982       9983       9994       9993      10103      10104      10115      10114  
      9983       9984       9995       9994      10104      10105      10116      10115  
      9984       9985       9996       9995      10105      10106      10117      10116  
      9985       9986       9997       9996      10106      10107      10118      10117  
      9986       9987       9998       9997      10107      10108      10119      10118  
      9987       9988       9999       9998      10108      10109      10120      10119  
      9989       9990      10001      10000      10110      10111      10122      10121  
      9990       9991      10002      10001      10111      10112      10123      10122  
      9991       9992      10003      10002      10112      10113      10124      10123  
      9992       9993      10004      10003      10113      10114      10125      10124  
      9993       9994      10005      10004      10114      10115      10126      10125  
      9994       9995      10006      10005      10115      10116      10127      10126  
      9995       9996      10007      10006      10116      10117      10128      10127  
      9996       9997      10008      10007      10117      10118      10129      10128  
      9997       9998      10009      10008      10118      10119      10130      10129  
      9998       9999      10010      10009      10119      10120      10131      10130  
     10000      10001      10012      10011      10121      10122      10133      10132  
     10001      10002      10013      10012      10122      10123      10134      10133  
     10002      10003      10014      10013      10123      10124      10135      10134  
     10003      10004      10015      10014      10124      10125      10136      10135  
     10004      10005      10016      10015      10125      10126      10137      10136  
     10005      10006      10017      10016      10126      10127      10138      10137  
     10006      10007      10018      10017      10127      10128      10139      10138  
     10007      10008      10019      10018      10128      10129      10140      10139  
     10008      10009      10020      10019      10129      10130      10141      10140  
     10009      10010      10021      10020      10130      10131      10142      10141  
     10011      10012      10023      10022      10132      10133      10144      10143  
     10012      10013      10024      10023      10133      10134      10145      10144  
     10013      10014      10025      10024      10134      10135      10146      10145  
     10014      10015      10026      10025      10135      10136      10147      10146  
     10015      10016      10027      10026      10136      10137      10148      10147  
     10016      10017      10028      10027      10137      10138      10149      10148  
     10017      10018      10029      10028      10138      10139      10150      10149  
     10018      10019      10030      10029      10139      10140      10151      10150  
     10019      10020      10031      10030      10140      10141      10152      10151  
     10020      10021      10032      10031      10141      10142      10153      10152  
     10022      10023      10034      10033      10143      10144      10155      10154  
     10023      10024      10035      10034      10144      10145      10156      10155  
     10024      10025      10036      10035      10145      10146      10157      10156  
     10025      10026      10037      10036      10146      10147      10158      10157  
     10026      10027      10038      10037      10147      10148      10159      10158  
     10027      10028      10039      10038      10148      10149      10160      10159  
     10028      10029      10040      10039      10149      10150      10161      10160  
     10029      10030      10041      10040      10150      10151      10162      10161  
     10030      10031      10042      10041      10151      10152      10163      10162  
     10031      10032      10043      10042      10152      10153      10164      10163  
     10044      10045      10056      10055      10165      10166      10177      10176  
     10045      10046      10057      10056      10166      10167      10178      10177  
     10046      10047      10058      10057      10167      10168      10179      10178  
     10047      10048      10059      10058      10168      10169      10180      10179  
     10048      10049      10060      10059      10169      10170      10181      10180  
     10049      10050      10061      10060      10170      10171      10182      10181  
     10050      10051      10062      10061      10171      10172      10183      10182  
     10051      10052      10063      10062      10172      10173      10184      10183  
     10052      10053      10064      10063      10173      10174      10185      10184  
     10053      10054      10065      10064      10174      10175      10186      10185  
     10055      10056      10067      10066      10176      10177      10188      10187  
     10056      10057      10068      10067      10177      10178      10189      10188  
     10057      10058      10069      10068      10178      10179      10190      10189  
     10058      10059      10070      10069      10179      10180      10191      10190  
     10059      10060      10071      10070      10180      10181      10192      10191  
     10060      10061      10072      10071      10181      10182      10193      10192  
     10061      10062      10073      10072      10182      10183      10194      10193  
     10062      10063      10074      10073      10183      10184      10195      10194  
     10063      10064      10075      10074      10184      10185      10196      10195  
     10064      10065      10076      10075      10185      10186      10197      10196  
     10066      10067      10078      10077      10187      10188      10199      10198  
     10067      10068      10079      10078      10188      10189      10200      10199  
     10068      10069      10080      10079      10189      10190      10201      10200  
     10069      10070      10081      10080      10190      10191      10202      10201  
     10070      10071      10082      10081      10191      10192      10203      10202  
     10071      10072      10083      10082      10192      10193      10204      10203  
     10072      10073      10084      10083      10193      10194      10205      10204  
     10073      10074      10085      10084      10194      10195      10206      10205  
     10074      10075      10086      10085      10195      10196      10207      10206  
     10075      10076      10087      10086      10196      10197      10208      10207  
     10077      10078      10089      10088      10198      10199      10210      10209  
     10078      10079      10090      10089      10199      10200      10211      10210  
     10079      10080      10091      10090      10200      10201      10212      10211  
     10080      10081      10092      10091      10201      10202      10213      10212  
     10081      10082      10093      10092      10202      10203      10214      10213  
     10082      10083      10094      10093      10203      10204      10215      10214  
     10083      10084      10095      10094      10204      10205      10216      10215  
     10084      10085      10096      10095      10205      10206      10217      10216  
     10085      10086      10097      10096      10206      10207      10218      10217  
     10086      10087      10098      10097      10207      10208      10219      10218  
     10088      10089      10100      10099      10209      10210      10221      10220  
     10089      10090      10101      10100      10210      10211      10222      10221  
     10090      10091      10102      10101      10211      10212      10223      10222  
     10091      10092      10103      10102      10212      10213      10224      10223  
     10092      10093      10104      10103      10213      10214      10225      10224  
     10093      10094      10105      10104      10214      10215      10226      10225  
     10094      10095      10106      10105      10215      10216      10227      10226  
     10095      10096      10107      10106      10216      10217      10228      10227  
     10096      10097      10108      10107      10217      10218      10229      10228  
     10097      10098      10109      10108      10218      10219      10230      10229  
     10099      10100      10111      10110      10220      10221      10232      10231  
     10100      10101      10112      10111      10221      10222      10233      10232  
     10101      10102      10113      10112      10222      10223      10234      10233  
     10102      10103      10114      10113      10223      10224      10235      10234  
     10103      10104      10115      10114      10224      10225      10236      10235  
     10104      10105      10116      10115      10225      10226      10237      10236  
     10105      10106      10117      10116      10226      10227      10238      10237  
     10106      10107      10118      10117      10227      10228      10239      10238  
     10107      10108      10119      10118      10228      10229      10240      10239  
     10108      10109      10120      10119      10229      10230      10241      10240  
     10110      10111      10122      10121      10231      10232      10243      10242  
     10111      10112      10123      10122      10232      10233      10244      10243  
     10112      10113      10124      10123      10233      10234      10245      10244  
     10113      10114      10125      10124      10234      10235      10246      10245  
     10114      10115      10126      10125      10235      10236      10247      10246  
     10115      10116      10127      10126      10236      10237      10248      10247  
     10116      10117      10128      10127      10237      10238      10249      10248  
     10117      10118      10129      10128      10238      10239      10250      10249  
     10118      10119      10130      10129      10239      10240      10251      10250  
     10119      10120      10131      10130      10240      10241      10252      10251  
     10121      10122      10133      10132      10242      10243      10254      10253  
     10122      10123      10134      10133      10243      10244      10255      10254  
     10123      10124      10135      10134      10244      10245      10256      10255  
     10124      10125      10136      10135      10245      10246      10257      10256  
     10125      10126      10137      10136      10246      10247      10258      10257  
     10126      10127      10138      10137      10247      10248      10259      10258  
     10127      10128      10139      10138      10248      10249      10260      10259  
     10128      10129      10140      10139      10249      10250      10261      10260  
     10129      10130      10141      10140      10250      10251      10262      10261  
     10130      10131      10142      10141      10251      10252      10263      10262  
     10132      10133      10144      10143      10253      10254      10265      10264  
     10133      10134      10145      10144      10254      10255      10266      10265  
     10134      10135      10146      10145      10255      10256      10267      10266  
     10135      10136      10147      10146      10256      10257      10268      10267  
     10136      10137      10148      10147      10257      10258      10269      10268  
     10137      10138      10149      10148      10258      10259      10270      10269  
     10138      10139      10150      10149      10259      10260      10271      10270  
     10139      10140      10151      10150      10260      10261      10272      10271  
     10140      10141      10152      10151      10261      10262      10273      10272  
     10141      10142      10153      10152      10262      10263      10274      10273  
     10143      10144      10155      10154      10264      10265      10276      10275  
     10144      10145      10156      10155      10265      10266      10277      10276  
     10145      10146      10157      10156      10266      10267      10278      10277  
     10146      10147      10158      10157      10267      10268      10279      10278  
     10147      10148      10159      10158      10268      10269      10280      10279  
     10148      10149      10160      10159      10269      10270      10281      10280  
     10149      10150      10161      10160      10270      10271      10282      10281  
     10150      10151      10162      10161      10271      10272      10283      10282  
     10151      10152      10163      10162      10272      10273      10284      10283  
     10152      10153      10164      10163      10273      10274      10285      10284  
     10165      10166      10177      10176      10286      10287      10298      10297  
     10166      10167      10178      10177      10287      10288      10299      10298  
     10167      10168      10179      10178      10288      10289      10300      10299  
     10168      10169      10180      10179      10289      10290      10301      10300  
     10169      10170      10181      10180      10290      10291      10302      10301  
     10170      10171      10182      10181      10291      10292      10303      10302  
     10171      10172      10183      10182      10292      10293      10304      10303  
     10172      10173      10184      10183      10293      10294      10305      10304  
     10173      10174      10185      10184      10294      10295      10306      10305  
     10174      10175      10186      10185      10295      10296      10307      10306  
     10176      10177      10188      10187      10297      10298      10309      10308  
     10177      10178      10189      10188      10298      10299      10310      10309  
     10178      10179      10190      10189      10299      10300      10311      10310  
     10179      10180      10191      10190      10300      10301      10312      10311  
     10180      10181      10192      10191      10301      10302      10313      10312  
     10181      10182      10193      10192      10302      10303      10314      10313  
     10182      10183      10194      10193      10303      10304      10315      10314  
     10183      10184      10195      10194      10304      10305      10316      10315  
     10184      10185      10196      10195      10305      10306      10317      10316  
     10185      10186      10197      10196      10306      10307      10318      10317  
     10187      10188      10199      10198      10308      10309      10320      10319  
     10188      10189      10200      10199      10309      10310      10321      10320  
     10189      10190      10201      10200      10310      10311      10322      10321  
     10190      10191      10202      10201      10311      10312      10323      10322  
     10191      10192      10203      10202      10312      10313      10324      10323  
     10192      10193      10204      10203      10313      10314      10325      10324  
     10193      10194      10205      10204      10314      10315      10326      10325  
     10194      10195      10206      10205      10315      10316      10327      10326  
     10195      10196      10207      10206      10316      10317      10328      10327  
     10196      10197      10208      10207      10317      10318      10329      10328  
     10198      10199      10210      10209      10319      10320      10331      10330  
     10199      10200      10211      10210      10320      10321      10332      10331  
     10200      10201      10212      10211      10321      10322      10333      10332  
     10201      10202      10213      10212      10322      10323      10334      10333  
     10202      10203      10214      10213      10323      10324      10335      10334  
     10203      10204      10215      10214      10324      10325      10336      10335  
     10204      10205      10216      10215      10325      10326      10337      10336  
     10205      10206      10217      10216      10326      10327      10338      10337  
     10206      10207      10218      10217      10327      10328      10339      10338  
     10207      10208      10219      10218      10328      10329      10340      10339  
     10209      10210      10221      10220      10330      10331      10342      10341  
     10210      10211      10222      10221      10331      10332      10343      10342  
     10211      10212      10223      10222      10332      10333      10344      10343  
     10212      10213      10224      10223      10333      10334      10345      10344  
     10213      10214      10225      10224      10334      10335      10346      10345  
     10214      10215      10226      10225      10335      10336      10347      10346  
     10215      10216      10227      10226      10336      10337      10348      10347  
     10216      10217      10228      10227      10337      10338      10349      10348  
     10217      10218      10229      10228      10338      10339      10350      10349  
     10218      10219      10230      10229      10339      10340      10351      10350  
     10220      10221      10232      10231      10341      10342      10353      10352  
     10221      10222      10233      10232      10342      10343      10354      10353  
     10222      10223      10234      10233      10343      10344      10355      10354  
     10223      10224      10235      10234      10344      10345      10356      10355  
     10224      10225      10236      10235      10345      10346      10357      10356  
     10225      10226      10237      10236      10346      10347      10358      10357  
     10226      10227      10238      10237      10347      10348      10359      10358  
     10227      10228      10239      10238      10348      10349      10360      10359  
     10228      10229      10240      10239      10349      10350      10361      10360  
     10229      10230      10241      10240      10350      10351      10362      10361  
     10231      10232      10243      10242      10352      10353      10364      10363  
     10232      10233      10244      10243      10353      10354      10365      10364  
     10233      10234      10245      10244      10354      10355      10366      10365  
     10234      10235      10246      10245      10355      10356      10367      10366  
     10235      10236      10247      10246      10356      10357      10368      10367  
     10236      10237      10248      10247      10357      10358      10369      10368  
     10237      10238      10249      10248      10358      10359      10370      10369  
     10238      10239      10250      10249      10359      10360      10371      10370  
     10239      10240      10251      10250      10360      10361      10372      10371  
     10240      10241      10252      10251      10361      10362      10373      10372  
     10242      10243      10254      10253      10363      10364      10375      10374  
     10243      10244      10255      10254      10364      10365      10376      10375  
     10244      10245      10256      10255      10365      10366      10377      10376  
     10245      10246      10257      10256      10366      10367      10378      10377  
     10246      10247      10258      10257      10367      10368      10379      10378  
     10247      10248      10259      10258      10368      10369      10380      10379  
     10248      10249      10260      10259      10369      10370      10381      10380  
     10249      10250      10261      10260      10370      10371      10382      10381  
     10250      10251      10262      10261      10371      10372      10383      10382  
     10251      10252      10263      10262      10372      10373      10384      10383  
     10253      10254      10265      10264      10374      10375      10386      10385  
     10254      10255      10266      10265      10375      10376      10387      10386  
     10255      10256      10267      10266      10376      10377      10388      10387  
     10256      10257      10268      10267      10377      10378      10389      10388  
     10257      10258      10269      10268      10378      10379      10390      10389  
     10258      10259      10270      10269      10379      10380      10391      10390  
     10259      10260      10271      10270      10380      10381      10392      10391  
     10260      10261      10272      10271      10381      10382      10393      10392  
     10261      10262      10273      10272      10382      10383      10394      10393  
     10262      10263      10274      10273      10383      10384      10395      10394  
     10264      10265      10276      10275      10385      10386      10397      10396  
     10265      10266      10277      10276      10386      10387      10398      10397  
     10266      10267      10278      10277      10387      10388      10399      10398  
     10267      10268      10279      10278      10388      10389      10400      10399  
     10268      10269      10280      10279      10389      10390      10401      10400  
     10269      10270      10281      10280      10390      10391      10402      10401  
     10270      10271      10282      10281      10391      10392      10403      10402  
     10271      10272      10283      10282      10392      10393      10404      10403  
     10272      10273      10284      10283      10393      10394      10405      10404  
     10273      10274      10285      10284      10394      10395      10406      10405  
     10286      10287      10298      10297      10407      10408      10419      10418  
     10287      10288      10299      10298      10408      10409      10420      10419  
     10288      10289      10300      10299      10409      10410      10421      10420  
     10289      10290      10301      10300      10410      10411      10422      10421  
     10290      10291      10302      10301      10411      10412      10423      10422  
     10291      10292      10303      10302      10412      10413      10424      10423  
     10292      10293      10304      10303      10413      10414      10425      10424  
     10293      10294      10305      10304      10414      10415      10426      10425  
     10294      10295      10306      10305      10415      10416      10427      10426  
     10295      10296      10307      10306      10416      10417      10428      10427  
     10297      10298      10309      10308      10418      10419      10430      10429  
     10298      10299      10310      10309      10419      10420      10431      10430  
     10299      10300      10311      10310      10420      10421      10432      10431  
     10300      10301      10312      10311      10421      10422      10433      10432  
     10301      10302      10313      10312      10422      10423      10434      10433  
     10302      10303      10314      10313      10423      10424      10435      10434  
     10303      10304      10315      10314      10424      10425      10436      10435  
     10304      10305      10316      10315      10425      10426      10437      10436  
     10305      10306      10317      10316      10426      10427      10438      10437  
     10306      10307      10318      10317      10427      10428      10439      10438  
     10308      10309      10320      10319      10429      10430      10441      10440  
     10309      10310      10321      10320      10430      10431      10442      10441  
     10310      10311      10322      10321      10431      10432      10443      10442  
     10311      10312      10323      10322      10432      10433      10444      10443  
     10312      10313      10324      10323      10433      10434      10445      10444  
     10313      10314      10325      10324      10434      10435      10446      10445  
     10314      10315      10326      10325      10435      10436      10447      10446  
     10315      10316      10327      10326      10436      10437      10448      10447  
     10316      10317      10328      10327      10437      10438      10449      10448  
     10317      10318      10329      10328      10438      10439      10450      10449  
     10319      10320      10331      10330      10440      10441      10452      10451  
     10320      10321      10332      10331      10441      10442      10453      10452  
     10321      10322      10333      10332      10442      10443      10454      10453  
     10322      10323      10334      10333      10443      10444      10455      10454  
     10323      10324      10335      10334      10444      10445      10456      10455  
     10324      10325      10336      10335      10445      10446      10457      10456  
     10325      10326      10337      10336      10446      10447      10458      10457  
     10326      10327      10338      10337      10447      10448      10459      10458  
     10327      10328      10339      10338      10448      10449      10460      10459  
     10328      10329      10340      10339      10449      10450      10461      10460  
     10330      10331      10342      10341      10451      10452      10463      10462  
     10331      10332      10343      10342      10452      10453      10464      10463  
     10332      10333      10344      10343      10453      10454      10465      10464  
     10333      10334      10345      10344      10454      10455      10466      10465  
     10334      10335      10346      10345      10455      10456      10467      10466  
     10335      10336      10347      10346      10456      10457      10468      10467  
     10336      10337      10348      10347      10457      10458      10469      10468  
     10337      10338      10349      10348      10458      10459      10470      10469  
     10338      10339      10350      10349      10459      10460      10471      10470  
     10339      10340      10351      10350      10460      10461      10472      10471  
     10341      10342      10353      10352      10462      10463      10474      10473  
     10342      10343      10354      10353      10463      10464      10475      10474  
     10343      10344      10355      10354      10464      10465      10476      10475  
     10344      10345      10356      10355      10465      10466      10477      10476  
     10345      10346      10357      10356      10466      10467      10478      10477  
     10346      10347      10358      10357      10467      10468      10479      10478  
     10347      10348      10359      10358      10468      10469      10480      10479  
     10348      10349      10360      10359      10469      10470      10481      10480  
     10349      10350      10361      10360      10470      10471      10482      10481  
     10350      10351      10362      10361      10471      10472      10483      10482  
     10352      10353      10364      10363      10473      10474      10485      10484  
     10353      10354      10365      10364      10474      10475      10486      10485  
     10354      10355      10366      10365      10475      10476      10487      10486  
     10355      10356      10367      10366      10476      10477      10488      10487  
     10356      10357      10368      10367      10477      10478      10489      10488  
     10357      10358      10369      10368      10478      10479      10490      10489  
     10358      10359      10370      10369      10479      10480      10491      10490  
     10359      10360      10371      10370      10480      10481      10492      10491  
     10360      10361      10372      10371      10481      10482      10493      10492  
     10361      10362      10373      10372      10482      10483      10494      10493  
     10363      10364      10375      10374      10484      10485      10496      10495  
     10364      10365      10376      10375      10485      10486      10497      10496  
     10365      10366      10377      10376      10486      10487      10498      10497  
     10366      10367      10378      10377      10487      10488      10499      10498  
     10367      10368      10379      10378      10488      10489      10500      10499  
     10368      10369      10380      10379      10489      10490      10501      10500  
     10369      10370      10381      10380      10490      10491      10502      10501  
     10370      10371      10382      10381      10491      10492      10503      10502  
     10371      10372      10383      10382      10492      10493      10504      10503  
     10372      10373      10384      10383      10493      10494      10505      10504  
     10374      10375      10386      10385      10495      10496      10507      10506  
     10375      10376      10387      10386      10496      10497      10508      10507  
     10376      10377      10388      10387      10497      10498      10509      10508  
     10377      10378      10389      10388      10498      10499      10510      10509  
     10378      10379      10390      10389      10499      10500      10511      10510  
     10379      10380      10391      10390      10500      10501      10512      10511  
     10380      10381      10392      10391      10501      10502      10513      10512  
     10381      10382      10393      10392      10502      10503      10514      10513  
     10382      10383      10394      10393      10503      10504      10515      10514  
     10383      10384      10395      10394      10504      10505      10516      10515  
     10385      10386      10397      10396      10506      10507      10518      10517  
     10386      10387      10398      10397      10507      10508      10519      10518  
     10387      10388      10399      10398      10508      10509      10520      10519  
     10388      10389      10400      10399      10509      10510      10521      10520  
     10389      10390      10401      10400      10510      10511      10522      10521  
     10390      10391      10402      10401      10511      10512      10523      10522  
     10391      10392      10403      10402      10512      10513      10524      10523  
     10392      10393      10404      10403      10513      10514      10525      10524  
     10393      10394      10405      10404      10514      10515      10526      10525  
     10394      10395      10406      10405      10515      10516      10527      10526  
     10407      10408      10419      10418      10528      10529      10540      10539  
     10408      10409      10420      10419      10529      10530      10541      10540  
     10409      10410      10421      10420      10530      10531      10542      10541  
     10410      10411      10422      10421      10531      10532      10543      10542  
     10411      10412      10423      10422      10532      10533      10544      10543  
     10412      10413      10424      10423      10533      10534      10545      10544  
     10413      10414      10425      10424      10534      10535      10546      10545  
     10414      10415      10426      10425      10535      10536      10547      10546  
     10415      10416      10427      10426      10536      10537      10548      10547  
     10416      10417      10428      10427      10537      10538      10549      10548  
     10418      10419      10430      10429      10539      10540      10551      10550  
     10419      10420      10431      10430      10540      10541      10552      10551  
     10420      10421      10432      10431      10541      10542      10553      10552  
     10421      10422      10433      10432      10542      10543      10554      10553  
     10422      10423      10434      10433      10543      10544      10555      10554  
     10423      10424      10435      10434      10544      10545      10556      10555  
     10424      10425      10436      10435      10545      10546      10557      10556  
     10425      10426      10437      10436      10546      10547      10558      10557  
     10426      10427      10438      10437      10547      10548      10559      10558  
     10427      10428      10439      10438      10548      10549      10560      10559  
     10429      10430      10441      10440      10550      10551      10562      10561  
     10430      10431      10442      10441      10551      10552      10563      10562  
     10431      10432      10443      10442      10552      10553      10564      10563  
     10432      10433      10444      10443      10553      10554      10565      10564  
     10433      10434      10445      10444      10554      10555      10566      10565  
     10434      10435      10446      10445      10555      10556      10567      10566  
     10435      10436      10447      10446      10556      10557      10568      10567  
     10436      10437      10448      10447      10557      10558      10569      10568  
     10437      10438      10449      10448      10558      10559      10570      10569  
     10438      10439      10450      10449      10559      10560      10571      10570  
     10440      10441      10452      10451      10561      10562      10573      10572  
     10441      10442      10453      10452      10562      10563      10574      10573  
     10442      10443      10454      10453      10563      10564      10575      10574  
     10443      10444      10455      10454      10564      10565      10576      10575  
     10444      10445      10456      10455      10565      10566      10577      10576  
     10445      10446      10457      10456      10566      10567      10578      10577  
     10446      10447      10458      10457      10567      10568      10579      10578  
     10447      10448      10459      10458      10568      10569      10580      10579  
     10448      10449      10460      10459      10569      10570      10581      10580  
     10449      10450      10461      10460      10570      10571      10582      10581  
     10451      10452      10463      10462      10572      10573      10584      10583  
     10452      10453      10464      10463      10573      10574      10585      10584  
     10453      10454      10465      10464      10574      10575      10586      10585  
     10454      10455      10466      10465      10575      10576      10587      10586  
     10455      10456      10467      10466      10576      10577      10588      10587  
     10456      10457      10468      10467      10577      10578      10589      10588  
     10457      10458      10469      10468      10578      10579      10590      10589  
     10458      10459      10470      10469      10579      10580      10591      10590  
     10459      10460      10471      10470      10580      10581      10592      10591  
     10460      10461      10472      10471      10581      10582      10593      10592  
     10462      10463      10474      10473      10583      10584      10595      10594  
     10463      10464      10475      10474      10584      10585      10596      10595  
     10464      10465      10476      10475      10585      10586      10597      10596  
     10465      10466      10477      10476      10586      10587      10598      10597  
     10466      10467      10478      10477      10587      10588      10599      10598  
     10467      10468      10479      10478      10588      10589      10600      10599  
     10468      10469      10480      10479      10589      10590      10601      10600  
     10469      10470      10481      10480      10590      10591      10602      10601  
     10470      10471      10482      10481      10591      10592      10603      10602  
     10471      10472      10483      10482      10592      10593      10604      10603  
     10473      10474      10485      10484      10594      10595      10606      10605  
     10474      10475      10486      10485      10595      10596      10607      10606  
     10475      10476      10487      10486      10596      10597      10608      10607  
     10476      10477      10488      10487      10597      10598      10609      10608  
     10477      10478      10489      10488      10598      10599      10610      10609  
     10478      10479      10490      10489      10599      10600      10611      10610  
     10479      10480      10491      10490      10600      10601      10612      10611  
     10480      10481      10492      10491      10601      10602      10613      10612  
     10481      10482      10493      10492      10602      10603      10614      10613  
     10482      10483      10494      10493      10603      10604      10615      10614  
     10484      10485      10496      10495      10605      10606      10617      10616  
     10485      10486      10497      10496      10606      10607      10618      10617  
     10486      10487      10498      10497      10607      10608      10619      10618  
     10487      10488      10499      10498      10608      10609      10620      10619  
     10488      10489      10500      10499      10609      10610      10621      10620  
     10489      10490      10501      10500      10610      10611      10622      10621  
     10490      10491      10502      10501      10611      10612      10623      10622  
     10491      10492      10503      10502      10612      10613      10624      10623  
     10492      10493      10504      10503      10613      10614      10625      10624  
     10493      10494      10505      10504      10614      10615      10626      10625  
     10495      10496      10507      10506      10616      10617      10628      10627  
     10496      10497      10508      10507      10617      10618      10629      10628  
     10497      10498      10509      10508      10618      10619      10630      10629  
     10498      10499      10510      10509      10619      10620      10631      10630  
     10499      10500      10511      10510      10620      10621      10632      10631  
     10500      10501      10512      10511      10621      10622      10633      10632  
     10501      10502      10513      10512      10622      10623      10634      10633  
     10502      10503      10514      10513      10623      10624      10635      10634  
     10503      10504      10515      10514      10624      10625      10636      10635  
     10504      10505      10516      10515      10625      10626      10637      10636  
     10506      10507      10518      10517      10627      10628      10639      10638  
     10507      10508      10519      10518      10628      10629      10640      10639  
     10508      10509      10520      10519      10629      10630      10641      10640  
     10509      10510      10521      10520      10630      10631      10642      10641  
     10510      10511      10522      10521      10631      10632      10643      10642  
     10511      10512      10523      10522      10632      10633      10644      10643  
     10512      10513      10524      10523      10633      10634      10645      10644  
     10513      10514      10525      10524      10634      10635      10646      10645  
     10514      10515      10526      10525      10635      10636      10647      10646  
     10515      10516      10527      10526      10636      10637      10648      10647  
     10528      10529      10540      10539      10649      10650      10661      10660  
     10529      10530      10541      10540      10650      10651      10662      10661  
     10530      10531      10542      10541      10651      10652      10663      10662  
     10531      10532      10543      10542      10652      10653      10664      10663  
     10532      10533      10544      10543      10653      10654      10665      10664  
     10533      10534      10545      10544      10654      10655      10666      10665  
     10534      10535      10546      10545      10655      10656      10667      10666  
     10535      10536      10547      10546      10656      10657      10668      10667  
     10536      10537      10548      10547      10657      10658      10669      10668  
     10537      10538      10549      10548      10658      10659      10670      10669  
     10539      10540      10551      10550      10660      10661      10672      10671  
     10540      10541      10552      10551      10661      10662      10673      10672  
     10541      10542      10553      10552      10662      10663      10674      10673  
     10542      10543      10554      10553      10663      10664      10675      10674  
     10543      10544      10555      10554      10664      10665      10676      10675  
     10544      10545      10556      10555      10665      10666      10677      10676  
     10545      10546      10557      10556      10666      10667      10678      10677  
     10546      10547      10558      10557      10667      10668      10679      10678  
     10547      10548      10559      10558      10668      10669      10680      10679  
     10548      10549      10560      10559      10669      10670      10681      10680  
     10550      10551      10562      10561      10671      10672      10683      10682  
     10551      10552      10563      10562      10672      10673      10684      10683  
     10552      10553      10564      10563      10673      10674      10685      10684  
     10553      10554      10565      10564      10674      10675      10686      10685  
     10554      10555      10566      10565      10675      10676      10687      10686  
     10555      10556      10567      10566      10676      10677      10688      10687  
     10556      10557      10568      10567      10677      10678      10689      10688  
     10557      10558      10569      10568      10678      10679      10690      10689  
     10558      10559      10570      10569      10679      10680      10691      10690  
     10559      10560      10571      10570      10680      10681      10692      10691  
     10561      10562      10573      10572      10682      10683      10694      10693  
     10562      10563      10574      10573      10683      10684      10695      10694  
     10563      10564      10575      10574      10684      10685      10696      10695  
     10564      10565      10576      10575      10685      10686      10697      10696  
     10565      10566      10577      10576      10686      10687      10698      10697  
     10566      10567      10578      10577      10687      10688      10699      10698  
     10567      10568      10579      10578      10688      10689      10700      10699  
     10568      10569      10580      10579      10689      10690      10701      10700  
     10569      10570      10581      10580      10690      10691      10702      10701  
     10570      10571      10582      10581      10691      10692      10703      10702  
     10572      10573      10584      10583      10693      10694      10705      10704  
     10573      10574      10585      10584      10694      10695      10706      10705  
     10574      10575      10586      10585      10695      10696      10707      10706  
     10575      10576      10587      10586      10696      10697      10708      10707  
     10576      10577      10588      10587      10697      10698      10709      10708  
     10577      10578      10589      10588      10698      10699      10710      10709  
     10578      10579      10590      10589      10699      10700      10711      10710  
     10579      10580      10591      10590      10700      10701      10712      10711  
     10580      10581      10592      10591      10701      10702      10713      10712  
     10581      10582      10593      10592      10702      10703      10714      10713  
     10583      10584      10595      10594      10704      10705      10716      10715  
     10584      10585      10596      10595      10705      10706      10717      10716  
     10585      10586      10597      10596      10706      10707      10718      10717  
     10586      10587      10598      10597      10707      10708      10719      10718  
     10587      10588      10599      10598      10708      10709      10720      10719  
     10588      10589      10600      10599      10709      10710      10721      10720  
     10589      10590      10601      10600      10710      10711      10722      10721  
     10590      10591      10602      10601      10711      10712      10723      10722  
     10591      10592      10603      10602      10712      10713      10724      10723  
     10592      10593      10604      10603      10713      10714      10725      10724  
     10594      10595      10606      10605      10715      10716      10727      10726  
     10595      10596      10607      10606      10716      10717      10728      10727  
     10596      10597      10608      10607      10717      10718      10729      10728  
     10597      10598      10609      10608      10718      10719      10730      10729  
     10598      10599      10610      10609      10719      10720      10731      10730  
     10599      10600      10611      10610      10720      10721      10732      10731  
     10600      10601      10612      10611      10721      10722      10733      10732  
     10601      10602      10613      10612      10722      10723      10734      10733  
     10602      10603      10614      10613      10723      10724      10735      10734  
     10603      10604      10615      10614      10724      10725      10736      10735  
     10605      10606      10617      10616      10726      10727      10738      10737  
     10606      10607      10618      10617      10727      10728      10739      10738  
     10607      10608      10619      10618      10728      10729      10740      10739  
     10608      10609      10620      10619      10729      10730      10741      10740  
     10609      10610      10621      10620      10730      10731      10742      10741  
     10610      10611      10622      10621      10731      10732      10743      10742  
     10611      10612      10623      10622      10732      10733      10744      10743  
     10612      10613      10624      10623      10733      10734      10745      10744  
     10613      10614      10625      10624      10734      10735      10746      10745  
     10614      10615      10626      10625      10735      10736      10747      10746  
     10616      10617      10628      10627      10737      10738      10749      10748  
     10617      10618      10629      10628      10738      10739      10750      10749  
     10618      10619      10630      10629      10739      10740      10751      10750  
     10619      10620      10631      10630      10740      10741      10752      10751  
     10620      10621      10632      10631      10741      10742      10753      10752  
     10621      10622      10633      10632      10742      10743      10754      10753  
     10622      10623      10634      10633      10743      10744      10755      10754  
     10623      10624      10635      10634      10744      10745      10756      10755  
     10624      10625      10636      10635      10745      10746      10757      10756  
     10625      10626      10637      10636      10746      10747      10758      10757  
     10627      10628      10639      10638      10748      10749      10760      10759  
     10628      10629      10640      10639      10749      10750      10761      10760  
     10629      10630      10641      10640      10750      10751      10762      10761  
     10630      10631      10642      10641      10751      10752      10763      10762  
     10631      10632      10643      10642      10752      10753      10764      10763  
     10632      10633      10644      10643      10753      10754      10765      10764  
     10633      10634      10645      10644      10754      10755      10766      10765  
     10634      10635      10646      10645      10755      10756      10767      10766  
     10635      10636      10647      10646      10756      10757      10768      10767  
     10636      10637      10648      10647      10757      10758      10769      10768  
     10649      10650      10661      10660      10770      10771      10782      10781  
     10650      10651      10662      10661      10771      10772      10783      10782  
     10651      10652      10663      10662      10772      10773      10784      10783  
     10652      10653      10664      10663      10773      10774      10785      10784  
     10653      10654      10665      10664      10774      10775      10786      10785  
     10654      10655      10666      10665      10775      10776      10787      10786  
     10655      10656      10667      10666      10776      10777      10788      10787  
     10656      10657      10668      10667      10777      10778      10789      10788  
     10657      10658      10669      10668      10778      10779      10790      10789  
     10658      10659      10670      10669      10779      10780      10791      10790  
     10660      10661      10672      10671      10781      10782      10793      10792  
     10661      10662      10673      10672      10782      10783      10794      10793  
     10662      10663      10674      10673      10783      10784      10795      10794  
     10663      10664      10675      10674      10784      10785      10796      10795  
     10664      10665      10676      10675      10785      10786      10797      10796  
     10665      10666      10677      10676      10786      10787      10798      10797  
     10666      10667      10678      10677      10787      10788      10799      10798  
     10667      10668      10679      10678      10788      10789      10800      10799  
     10668      10669      10680      10679      10789      10790      10801      10800  
     10669      10670      10681      10680      10790      10791      10802      10801  
     10671      10672      10683      10682      10792      10793      10804      10803  
     10672      10673      10684      10683      10793      10794      10805      10804  
     10673      10674      10685      10684      10794      10795      10806      10805  
     10674      10675      10686      10685      10795      10796      10807      10806  
     10675      10676      10687      10686      10796      10797      10808      10807  
     10676      10677      10688      10687      10797      10798      10809      10808  
     10677      10678      10689      10688      10798      10799      10810      10809  
     10678      10679      10690      10689      10799      10800      10811      10810  
     10679      10680      10691      10690      10800      10801      10812      10811  
     10680      10681      10692      10691      10801      10802      10813      10812  
     10682      10683      10694      10693      10803      10804      10815      10814  
     10683      10684      10695      10694      10804      10805      10816      10815  
     10684      10685      10696      10695      10805      10806      10817      10816  
     10685      10686      10697      10696      10806      10807      10818      10817  
     10686      10687      10698      10697      10807      10808      10819      10818  
     10687      10688      10699      10698      10808      10809      10820      10819  
     10688      10689      10700      10699      10809      10810      10821      10820  
     10689      10690      10701      10700      10810      10811      10822      10821  
     10690      10691      10702      10701      10811      10812      10823      10822  
     10691      10692      10703      10702      10812      10813      10824      10823  
     10693      10694      10705      10704      10814      10815      10826      10825  
     10694      10695      10706      10705      10815      10816      10827      10826  
     10695      10696      10707      10706      10816      10817      10828      10827  
     10696      10697      10708      10707      10817      10818      10829      10828  
     10697      10698      10709      10708      10818      10819      10830      10829  
     10698      10699      10710      10709      10819      10820      10831      10830  
     10699      10700      10711      10710      10820      10821      10832      10831  
     10700      10701      10712      10711      10821      10822      10833      10832  
     10701      10702      10713      10712      10822      10823      10834      10833  
     10702      10703      10714      10713      10823      10824      10835      10834  
     10704      10705      10716      10715      10825      10826      10837      10836  
     10705      10706      10717      10716      10826      10827      10838      10837  
     10706      10707      10718      10717      10827      10828      10839      10838  
     10707      10708      10719      10718      10828      10829      10840      10839  
     10708      10709      10720      10719      10829      10830      10841      10840  
     10709      10710      10721      10720      10830      10831      10842      10841  
     10710      10711      10722      10721      10831      10832      10843      10842  
     10711      10712      10723      10722      10832      10833      10844      10843  
     10712      10713      10724      10723      10833      10834      10845      10844  
     10713      10714      10725      10724      10834      10835      10846      10845  
     10715      10716      10727      10726      10836      10837      10848      10847  
     10716      10717      10728      10727      10837      10838      10849      10848  
     10717      10718      10729      10728      10838      10839      10850      10849  
     10718      10719      10730      10729      10839      10840      10851      10850  
     10719      10720      10731      10730      10840      10841      10852      10851  
     10720      10721      10732      10731      10841      10842      10853      10852  
     10721      10722      10733      10732      10842      10843      10854      10853  
     10722      10723      10734      10733      10843      10844      10855      10854  
     10723      10724      10735      10734      10844      10845      10856      10855  
     10724      10725      10736      10735      10845      10846      10857      10856  
     10726      10727      10738      10737      10847      10848      10859      10858  
     10727      10728      10739      10738      10848      10849      10860      10859  
     10728      10729      10740      10739      10849      10850      10861      10860  
     10729      10730      10741      10740      10850      10851      10862      10861  
     10730      10731      10742      10741      10851      10852      10863      10862  
     10731      10732      10743      10742      10852      10853      10864      10863  
     10732      10733      10744      10743      10853      10854      10865      10864  
     10733      10734      10745      10744      10854      10855      10866      10865  
     10734      10735      10746      10745      10855      10856      10867      10866  
     10735      10736      10747      10746      10856      10857      10868      10867  
     10737      10738      10749      10748      10858      10859      10870      10869  
     10738      10739      10750      10749      10859      10860      10871      10870  
     10739      10740      10751      10750      10860      10861      10872      10871  
     10740      10741      10752      10751      10861      10862      10873      10872  
     10741      10742      10753      10752      10862      10863      10874      10873  
     10742      10743      10754      10753      10863      10864      10875      10874  
     10743      10744      10755      10754      10864      10865      10876      10875  
     10744      10745      10756      10755      10865      10866      10877      10876  
     10745      10746      10757      10756      10866      10867      10878      10877  
     10746      10747      10758      10757      10867      10868      10879      10878  
     10748      10749      10760      10759      10869      10870      10881      10880  
     10749      10750      10761      10760      10870      10871      10882      10881  
     10750      10751      10762      10761      10871      10872      10883      10882  
     10751      10752      10763      10762      10872      10873      10884      10883  
     10752      10753      10764      10763      10873      10874      10885      10884  
     10753      10754      10765      10764      10874      10875      10886      10885  
     10754      10755      10766      10765      10875      10876      10887      10886  
     10755      10756      10767      10766      10876      10877      10888      10887  
     10756      10757      10768      10767      10877      10878      10889      10888  
     10757      10758      10769      10768      10878      10879      10890      10889  
     10770      10771      10782      10781      10891      10892      10903      10902  
     10771      10772      10783      10782      10892      10893      10904      10903  
     10772      10773      10784      10783      10893      10894      10905      10904  
     10773      10774      10785      10784      10894      10895      10906      10905  
     10774      10775      10786      10785      10895      10896      10907      10906  
     10775      10776      10787      10786      10896      10897      10908      10907  
     10776      10777      10788      10787      10897      10898      10909      10908  
     10777      10778      10789      10788      10898      10899      10910      10909  
     10778      10779      10790      10789      10899      10900      10911      10910  
     10779      10780      10791      10790      10900      10901      10912      10911  
     10781      10782      10793      10792      10902      10903      10914      10913  
     10782      10783      10794      10793      10903      10904      10915      10914  
     10783      10784      10795      10794      10904      10905      10916      10915  
     10784      10785      10796      10795      10905      10906      10917      10916  
     10785      10786      10797      10796      10906      10907      10918      10917  
     10786      10787      10798      10797      10907      10908      10919      10918  
     10787      10788      10799      10798      10908      10909      10920      10919  
     10788      10789      10800      10799      10909      10910      10921      10920  
     10789      10790      10801      10800      10910      10911      10922      10921  
     10790      10791      10802      10801      10911      10912      10923      10922  
     10792      10793      10804      10803      10913      10914      10925      10924  
     10793      10794      10805      10804      10914      10915      10926      10925  
     10794      10795      10806      10805      10915      10916      10927      10926  
     10795      10796      10807      10806      10916      10917      10928      10927  
     10796      10797      10808      10807      10917      10918      10929      10928  
     10797      10798      10809      10808      10918      10919      10930      10929  
     10798      10799      10810      10809      10919      10920      10931      10930  
     10799      10800      10811      10810      10920      10921      10932      10931  
     10800      10801      10812      10811      10921      10922      10933      10932  
     10801      10802      10813      10812      10922      10923      10934      10933  
     10803      10804      10815      10814      10924      10925      10936      10935  
     10804      10805      10816      10815      10925      10926      10937      10936  
     10805      10806      10817      10816      10926      10927      10938      10937  
     10806      10807      10818      10817      10927      10928      10939      10938  
     10807      10808      10819      10818      10928      10929      10940      10939  
     10808      10809      10820      10819      10929      10930      10941      10940  
     10809      10810      10821      10820      10930      10931      10942      10941  
     10810      10811      10822      10821      10931      10932      10943      10942  
     10811      10812      10823      10822      10932      10933      10944      10943  
     10812      10813      10824      10823      10933      10934      10945      10944  
     10814      10815      10826      10825      10935      10936      10947      10946  
     10815      10816      10827      10826      10936      10937      10948      10947  
     10816      10817      10828      10827      10937      10938      10949      10948  
     10817      10818      10829      10828      10938      10939      10950      10949  
     10818      10819      10830      10829      10939      10940      10951      10950  
     10819      10820      10831      10830      10940      10941      10952      10951  
     10820      10821      10832      10831      10941      10942      10953      10952  
     10821      10822      10833      10832      10942      10943      10954      10953  
     10822      10823      10834      10833      10943      10944      10955      10954  
     10823      10824      10835      10834      10944      10945      10956      10955  
     10825      10826      10837      10836      10946      10947      10958      10957  
     10826      10827      10838      10837      10947      10948      10959      10958  
     10827      10828      10839      10838      10948      10949      10960      10959  
     10828      10829      10840      10839      10949      10950      10961      10960  
     10829      10830      10841      10840      10950      10951      10962      10961  
     10830      10831      10842      10841      10951      10952      10963      10962  
     10831      10832      10843      10842      10952      10953      10964      10963  
     10832      10833      10844      10843      10953      10954      10965      10964  
     10833      10834      10845      10844      10954      10955      10966      10965  
     10834      10835      10846      10845      10955      10956      10967      10966  
     10836      10837      10848      10847      10957      10958      10969      10968  
     10837      10838      10849      10848      10958      10959      10970      10969  
     10838      10839      10850      10849      10959      10960      10971      10970  
     10839      10840      10851      10850      10960      10961      10972      10971  
     10840      10841      10852      10851      10961      10962      10973      10972  
     10841      10842      10853      10852      10962      10963      10974      10973  
     10842      10843      10854      10853      10963      10964      10975      10974  
     10843      10844      10855      10854      10964      10965      10976      10975  
     10844      10845      10856      10855      10965      10966      10977      10976  
     10845      10846      10857      10856      10966      10967      10978      10977  
     10847      10848      10859      10858      10968      10969      10980      10979  
     10848      10849      10860      10859      10969      10970      10981      10980  
     10849      10850      10861      10860      10970      10971      10982      10981  
     10850      10851      10862      10861      10971      10972      10983      10982  
     10851      10852      10863      10862      10972      10973      10984      10983  
     10852      10853      10864      10863      10973      10974      10985      10984  
     10853      10854      10865      10864      10974      10975      10986      10985  
     10854      10855      10866      10865      10975      10976      10987      10986  
     10855      10856      10867      10866      10976      10977      10988      10987  
     10856      10857      10868      10867      10977      10978      10989      10988  
     10858      10859      10870      10869      10979      10980      10991      10990  
     10859      10860      10871      10870      10980      10981      10992      10991  
     10860      10861      10872      10871      10981      10982      10993      10992  
     10861      10862      10873      10872      10982      10983      10994      10993  
     10862      10863      10874      10873      10983      10984      10995      10994  
     10863      10864      10875      10874      10984      10985      10996      10995  
     10864      10865      10876      10875      10985      10986      10997      10996  
     10865      10866      10877      10876      10986      10987      10998      10997  
     10866      10867      10878      10877      10987      10988      10999      10998  
     10867      10868      10879      10878      10988      10989      11000      10999  
     10869      10870      10881      10880      10990      10991      11002      11001  
     10870      10871      10882      10881      10991      10992      11003      11002  
     10871      10872      10883      10882      10992      10993      11004      11003  
     10872      10873      10884      10883      10993      10994      11005      11004  
     10873      10874      10885      10884      10994      10995      11006      11005  
     10874      10875      10886      10885      10995      10996      11007      11006  
     10875      10876      10887      10886      10996      10997      11008      11007  
     10876      10877      10888      10887      10997      10998      11009      11008  
     10877      10878      10889      10888      10998      10999      11010      11009  
     10878      10879      10890      10889      10999      11000      11011      11010  
     10891      10892      10903      10902      11012      11013      11024      11023  
     10892      10893      10904      10903      11013      11014      11025      11024  
     10893      10894      10905      10904      11014      11015      11026      11025  
     10894      10895      10906      10905      11015      11016      11027      11026  
     10895      10896      10907      10906      11016      11017      11028      11027  
     10896      10897      10908      10907      11017      11018      11029      11028  
     10897      10898      10909      10908      11018      11019      11030      11029  
     10898      10899      10910      10909      11019      11020      11031      11030  
     10899      10900      10911      10910      11020      11021      11032      11031  
     10900      10901      10912      10911      11021      11022      11033      11032  
     10902      10903      10914      10913      11023      11024      11035      11034  
     10903      10904      10915      10914      11024      11025      11036      11035  
     10904      10905      10916      10915      11025      11026      11037      11036  
     10905      10906      10917      10916      11026      11027      11038      11037  
     10906      10907      10918      10917      11027      11028      11039      11038  
     10907      10908      10919      10918      11028      11029      11040      11039  
     10908      10909      10920      10919      11029      11030      11041      11040  
     10909      10910      10921      10920      11030      11031      11042      11041  
     10910      10911      10922      10921      11031      11032      11043      11042  
     10911      10912      10923      10922      11032      11033      11044      11043  
     10913      10914      10925      10924      11034      11035      11046      11045  
     10914      10915      10926      10925      11035      11036      11047      11046  
     10915      10916      10927      10926      11036      11037      11048      11047  
     10916      10917      10928      10927      11037      11038      11049      11048  
     10917      10918      10929      10928      11038      11039      11050      11049  
     10918      10919      10930      10929      11039      11040      11051      11050  
     10919      10920      10931      10930      11040      11041      11052      11051  
     10920      10921      10932      10931      11041      11042      11053      11052  
     10921      10922      10933      10932      11042      11043      11054      11053  
     10922      10923      10934      10933      11043      11044      11055      11054  
     10924      10925      10936      10935      11045      11046      11057      11056  
     10925      10926      10937      10936      11046      11047      11058      11057  
     10926      10927      10938      10937      11047      11048      11059      11058  
     10927      10928      10939      10938      11048      11049      11060      11059  
     10928      10929      10940      10939      11049      11050      11061      11060  
     10929      10930      10941      10940      11050      11051      11062      11061  
     10930      10931      10942      10941      11051      11052      11063      11062  
     10931      10932      10943      10942      11052      11053      11064      11063  
     10932      10933      10944      10943      11053      11054      11065      11064  
     10933      10934      10945      10944      11054      11055      11066      11065  
     10935      10936      10947      10946      11056      11057      11068      11067  
     10936      10937      10948      10947      11057      11058      11069      11068  
     10937      10938      10949      10948      11058      11059      11070      11069  
     10938      10939      10950      10949      11059      11060      11071      11070  
     10939      10940      10951      10950      11060      11061      11072      11071  
     10940      10941      10952      10951      11061      11062      11073      11072  
     10941      10942      10953      10952      11062      11063      11074      11073  
     10942      10943      10954      10953      11063      11064      11075      11074  
     10943      10944      10955      10954      11064      11065      11076      11075  
     10944      10945      10956      10955      11065      11066      11077      11076  
     10946      10947      10958      10957      11067      11068      11079      11078  
     10947      10948      10959      10958      11068      11069      11080      11079  
     10948      10949      10960      10959      11069      11070      11081      11080  
     10949      10950      10961      10960      11070      11071      11082      11081  
     10950      10951      10962      10961      11071      11072      11083      11082  
     10951      10952      10963      10962      11072      11073      11084      11083  
     10952      10953      10964      10963      11073      11074      11085      11084  
     10953      10954      10965      10964      11074      11075      11086      11085  
     10954      10955      10966      10965      11075      11076      11087      11086  
     10955      10956      10967      10966      11076      11077      11088      11087  
     10957      10958      10969      10968      11078      11079      11090      11089  
     10958      10959      10970      10969      11079      11080      11091      11090  
     10959      10960      10971      10970      11080      11081      11092      11091  
     10960      10961      10972      10971      11081      11082      11093      11092  
     10961      10962      10973      10972      11082      11083      11094      11093  
     10962      10963      10974      10973      11083      11084      11095      11094  
     10963      10964      10975      10974      11084      11085      11096      11095  
     10964      10965      10976      10975      11085      11086      11097      11096  
     10965      10966      10977      10976      11086      11087      11098      11097  
     10966      10967      10978      10977      11087      11088      11099      11098  
     10968      10969      10980      10979      11089      11090      11101      11100  
     10969      10970      10981      10980      11090      11091      11102      11101  
     10970      10971      10982      10981      11091      11092      11103      11102  
     10971      10972      10983      10982      11092      11093      11104      11103  
     10972      10973      10984      10983      11093      11094      11105      11104  
     10973      10974      10985      10984      11094      11095      11106      11105  
     10974      10975      10986      10985      11095      11096      11107      11106  
     10975      10976      10987      10986      11096      11097      11108      11107  
     10976      10977      10988      10987      11097      11098      11109      11108  
     10977      10978      10989      10988      11098      11099      11110      11109  
     10979      10980      10991      10990      11100      11101      11112      11111  
     10980      10981      10992      10991      11101      11102      11113      11112  
     10981      10982      10993      10992      11102      11103      11114      11113  
     10982      10983      10994      10993      11103      11104      11115      11114  
     10983      10984      10995      10994      11104      11105      11116      11115  
     10984      10985      10996      10995      11105      11106      11117      11116  
     10985      10986      10997      10996      11106      11107      11118      11117  
     10986      10987      10998      10997      11107      11108      11119      11118  
     10987      10988      10999      10998      11108      11109      11120      11119  
     10988      10989      11000      10999      11109      11110      11121      11120  
     10990      10991      11002      11001      11111      11112      11123      11122  
     10991      10992      11003      11002      11112      11113      11124      11123  
     10992      10993      11004      11003      11113      11114      11125      11124  
     10993      10994      11005      11004      11114      11115      11126      11125  
     10994      10995      11006      11005      11115      11116      11127      11126  
     10995      10996      11007      11006      11116      11117      11128      11127  
     10996      10997      11008      11007      11117      11118      11129      11128  
     10997      10998      11009      11008      11118      11119      11130      11129  
     10998      10999      11010      11009      11119      11120      11131      11130  
     10999      11000      11011      11010      11120      11121      11132      11131  
     11012      11013      11024      11023      11133      11134      11145      11144  
     11013      11014      11025      11024      11134      11135      11146      11145  
     11014      11015      11026      11025      11135      11136      11147      11146  
     11015      11016      11027      11026      11136      11137      11148      11147  
     11016      11017      11028      11027      11137      11138      11149      11148  
     11017      11018      11029      11028      11138      11139      11150      11149  
     11018      11019      11030      11029      11139      11140      11151      11150  
     11019      11020      11031      11030      11140      11141      11152      11151  
     11020      11021      11032      11031      11141      11142      11153      11152  
     11021      11022      11033      11032      11142      11143      11154      11153  
     11023      11024      11035      11034      11144      11145      11156      11155  
     11024      11025      11036      11035      11145      11146      11157      11156  
     11025      11026      11037      11036      11146      11147      11158      11157  
     11026      11027      11038      11037      11147      11148      11159      11158  
     11027      11028      11039      11038      11148      11149      11160      11159  
     11028      11029      11040      11039      11149      11150      11161      11160  
     11029      11030      11041      11040      11150      11151      11162      11161  
     11030      11031      11042      11041      11151      11152      11163      11162  
     11031      11032      11043      11042      11152      11153      11164      11163  
     11032      11033      11044      11043      11153      11154      11165      11164  
     11034      11035      11046      11045      11155      11156      11167      11166  
     11035      11036      11047      11046      11156      11157      11168      11167  
     11036      11037      11048      11047      11157      11158      11169      11168  
     11037      11038      11049      11048      11158      11159      11170      11169  
     11038      11039      11050      11049      11159      11160      11171      11170  
     11039      11040      11051      11050      11160      11161      11172      11171  
     11040      11041      11052      11051      11161      11162      11173      11172  
     11041      11042      11053      11052      11162      11163      11174      11173  
     11042      11043      11054      11053      11163      11164      11175      11174  
     11043      11044      11055      11054      11164      11165      11176      11175  
     11045      11046      11057      11056      11166      11167      11178      11177  
     11046      11047      11058      11057      11167      11168      11179      11178  
     11047      11048      11059      11058      11168      11169      11180      11179  
     11048      11049      11060      11059      11169      11170      11181      11180  
     11049      11050      11061      11060      11170      11171      11182      11181  
     11050      11051      11062      11061      11171      11172      11183      11182  
     11051      11052      11063      11062      11172      11173      11184      11183  
     11052      11053      11064      11063      11173      11174      11185      11184  
     11053      11054      11065      11064      11174      11175      11186      11185  
     11054      11055      11066      11065      11175      11176      11187      11186  
     11056      11057      11068      11067      11177      11178      11189      11188  
     11057      11058      11069      11068      11178      11179      11190      11189  
     11058      11059      11070      11069      11179      11180      11191      11190  
     11059      11060      11071      11070      11180      11181      11192      11191  
     11060      11061      11072      11071      11181      11182      11193      11192  
     11061      11062      11073      11072      11182      11183      11194      11193  
     11062      11063      11074      11073      11183      11184      11195      11194  
     11063      11064      11075      11074      11184      11185      11196      11195  
     11064      11065      11076      11075      11185      11186      11197      11196  
     11065      11066      11077      11076      11186      11187      11198      11197  
     11067      11068      11079      11078      11188      11189      11200      11199  
     11068      11069      11080      11079      11189      11190      11201      11200  
     11069      11070      11081      11080      11190      11191      11202      11201  
     11070      11071      11082      11081      11191      11192      11203      11202  
     11071      11072      11083      11082      11192      11193      11204      11203  
     11072      11073      11084      11083      11193      11194      11205      11204  
     11073      11074      11085      11084      11194      11195      11206      11205  
     11074      11075      11086      11085      11195      11196      11207      11206  
     11075      11076      11087      11086      11196      11197      11208      11207  
     11076      11077      11088      11087      11197      11198      11209      11208  
     11078      11079      11090      11089      11199      11200      11211      11210  
     11079      11080      11091      11090      11200      11201      11212      11211  
     11080      11081      11092      11091      11201      11202      11213      11212  
     11081      11082      11093      11092      11202      11203      11214      11213  
     11082      11083      11094      11093      11203      11204      11215      11214  
     11083      11084      11095      11094      11204      11205      11216      11215  
     11084      11085      11096      11095      11205      11206      11217      11216  
     11085      11086      11097      11096      11206      11207      11218      11217  
     11086      11087      11098      11097      11207      11208      11219      11218  
     11087      11088      11099      11098      11208      11209      11220      11219  
     11089      11090      11101      11100      11210      11211      11222      11221  
     11090      11091      11102      11101      11211      11212      11223      11222  
     11091      11092      11103      11102      11212      11213      11224      11223  
     11092      11093      11104      11103      11213      11214      11225      11224  
     11093      11094      11105      11104      11214      11215      11226      11225  
     11094      11095      11106      11105      11215      11216      11227      11226  
     11095      11096      11107      11106      11216      11217      11228      11227  
     11096      11097      11108      11107      11217      11218      11229      11228  
     11097      11098      11109      11108      11218      11219      11230      11229  
     11098      11099      11110      11109      11219      11220      11231      11230  
     11100      11101      11112      11111      11221      11222      11233      11232  
     11101      11102      11113      11112      11222      11223      11234      11233  
     11102      11103      11114      11113      11223      11224      11235      11234  
     11103      11104      11115      11114      11224      11225      11236      11235  
     11104      11105      11116      11115      11225      11226      11237      11236  
     11105      11106      11117      11116      11226      11227      11238      11237  
     11106      11107      11118      11117      11227      11228      11239      11238  
     11107      11108      11119      11118      11228      11229      11240      11239  
     11108      11109      11120      11119      11229      11230      11241      11240  
     11109      11110      11121      11120      11230      11231      11242      11241  
     11111      11112      11123      11122      11232      11233      11244      11243  
     11112      11113      11124      11123      11233      11234      11245      11244  
     11113      11114      11125      11124      11234      11235      11246      11245  
     11114      11115      11126      11125      11235      11236      11247      11246  
     11115      11116      11127      11126      11236      11237      11248      11247  
     11116      11117      11128      11127      11237      11238      11249      11248  
     11117      11118      11129      11128      11238      11239      11250      11249  
     11118      11119      11130      11129      11239      11240      11251      11250  
     11119      11120      11131      11130      11240      11241      11252      11251  
     11120      11121      11132      11131      11241      11242      11253      11252  
     11133      11134      11145      11144      11254      11255      11266      11265  
     11134      11135      11146      11145      11255      11256      11267      11266  
     11135      11136      11147      11146      11256      11257      11268      11267  
     11136      11137      11148      11147      11257      11258      11269      11268  
     11137      11138      11149      11148      11258      11259      11270      11269  
     11138      11139      11150      11149      11259      11260      11271      11270  
     11139      11140      11151      11150      11260      11261      11272      11271  
     11140      11141      11152      11151      11261      11262      11273      11272  
     11141      11142      11153      11152      11262      11263      11274      11273  
     11142      11143      11154      11153      11263      11264      11275      11274  
     11144      11145      11156      11155      11265      11266      11277      11276  
     11145      11146      11157      11156      11266      11267      11278      11277  
     11146      11147      11158      11157      11267      11268      11279      11278  
     11147      11148      11159      11158      11268      11269      11280      11279  
     11148      11149      11160      11159      11269      11270      11281      11280  
     11149      11150      11161      11160      11270      11271      11282      11281  
     11150      11151      11162      11161      11271      11272      11283      11282  
     11151      11152      11163      11162      11272      11273      11284      11283  
     11152      11153      11164      11163      11273      11274      11285      11284  
     11153      11154      11165      11164      11274      11275      11286      11285  
     11155      11156      11167      11166      11276      11277      11288      11287  
     11156      11157      11168      11167      11277      11278      11289      11288  
     11157      11158      11169      11168      11278      11279      11290      11289  
     11158      11159      11170      11169      11279      11280      11291      11290  
     11159      11160      11171      11170      11280      11281      11292      11291  
     11160      11161      11172      11171      11281      11282      11293      11292  
     11161      11162      11173      11172      11282      11283      11294      11293  
     11162      11163      11174      11173      11283      11284      11295      11294  
     11163      11164      11175      11174      11284      11285      11296      11295  
     11164      11165      11176      11175      11285      11286      11297      11296  
     11166      11167      11178      11177      11287      11288      11299      11298  
     11167      11168      11179      11178      11288      11289      11300      11299  
     11168      11169      11180      11179      11289      11290      11301      11300  
     11169      11170      11181      11180      11290      11291      11302      11301  
     11170      11171      11182      11181      11291      11292      11303      11302  
     11171      11172      11183      11182      11292      11293      11304      11303  
     11172      11173      11184      11183      11293      11294      11305      11304  
     11173      11174      11185      11184      11294      11295      11306      11305  
     11174      11175      11186      11185      11295      11296      11307      11306  
     11175      11176      11187      11186      11296      11297      11308      11307  
     11177      11178      11189      11188      11298      11299      11310      11309  
     11178      11179      11190      11189      11299      11300      11311      11310  
     11179      11180      11191      11190      11300      11301      11312      11311  
     11180      11181      11192      11191      11301      11302      11313      11312  
     11181      11182      11193      11192      11302      11303      11314      11313  
     11182      11183      11194      11193      11303      11304      11315      11314  
     11183      11184      11195      11194      11304      11305      11316      11315  
     11184      11185      11196      11195      11305      11306      11317      11316  
     11185      11186      11197      11196      11306      11307      11318      11317  
     11186      11187      11198      11197      11307      11308      11319      11318  
     11188      11189      11200      11199      11309      11310      11321      11320  
     11189      11190      11201      11200      11310      11311      11322      11321  
     11190      11191      11202      11201      11311      11312      11323      11322  
     11191      11192      11203      11202      11312      11313      11324      11323  
     11192      11193      11204      11203      11313      11314      11325      11324  
     11193      11194      11205      11204      11314      11315      11326      11325  
     11194      11195      11206      11205      11315      11316      11327      11326  
     11195      11196      11207      11206      11316      11317      11328      11327  
     11196      11197      11208      11207      11317      11318      11329      11328  
     11197      11198      11209      11208      11318      11319      11330      11329  
     11199      11200      11211      11210      11320      11321      11332      11331  
     11200      11201      11212      11211      11321      11322      11333      11332  
     11201      11202      11213      11212      11322      11323      11334      11333  
     11202      11203      11214      11213      11323      11324      11335      11334  
     11203      11204      11215      11214      11324      11325      11336      11335  
     11204      11205      11216      11215      11325      11326      11337      11336  
     11205      11206      11217      11216      11326      11327      11338      11337  
     11206      11207      11218      11217      11327      11328      11339      11338  
     11207      11208      11219      11218      11328      11329      11340      11339  
     11208      11209      11220      11219      11329      11330      11341      11340  
     11210      11211      11222      11221      11331      11332      11343      11342  
     11211      11212      11223      11222      11332      11333      11344      11343  
     11212      11213      11224      11223      11333      11334      11345      11344  
     11213      11214      11225      11224      11334      11335      11346      11345  
     11214      11215      11226      11225      11335      11336      11347      11346  
     11215      11216      11227      11226      11336      11337      11348      11347  
     11216      11217      11228      11227      11337      11338      11349      11348  
     11217      11218      11229      11228      11338      11339      11350      11349  
     11218      11219      11230      11229      11339      11340      11351      11350  
     11219      11220      11231      11230      11340      11341      11352      11351  
     11221      11222      11233      11232      11342      11343      11354      11353  
     11222      11223      11234      11233      11343      11344      11355      11354  
     11223      11224      11235      11234      11344      11345      11356      11355  
     11224      11225      11236      11235      11345      11346      11357      11356  
     11225      11226      11237      11236      11346      11347      11358      11357  
     11226      11227      11238      11237      11347      11348      11359      11358  
     11227      11228      11239      11238      11348      11349      11360      11359  
     11228      11229      11240      11239      11349      11350      11361      11360  
     11229      11230      11241      11240      11350      11351      11362      11361  
     11230      11231      11242      11241      11351      11352      11363      11362  
     11232      11233      11244      11243      11353      11354      11365      11364  
     11233      11234      11245      11244      11354      11355      11366      11365  
     11234      11235      11246      11245      11355      11356      11367      11366  
     11235      11236      11247      11246      11356      11357      11368      11367  
     11236      11237      11248      11247      11357      11358      11369      11368  
     11237      11238      11249      11248      11358      11359      11370      11369  
     11238      11239      11250      11249      11359      11360      11371      11370  
     11239      11240      11251      11250      11360      11361      11372      11371  
     11240      11241      11252      11251      11361      11362      11373      11372  
     11241      11242      11253      11252      11362      11363      11374      11373  
     11254      11255      11266      11265      11375      11376      11387      11386  
     11255      11256      11267      11266      11376      11377      11388      11387  
     11256      11257      11268      11267      11377      11378      11389      11388  
     11257      11258      11269      11268      11378      11379      11390      11389  
     11258      11259      11270      11269      11379      11380      11391      11390  
     11259      11260      11271      11270      11380      11381      11392      11391  
     11260      11261      11272      11271      11381      11382      11393      11392  
     11261      11262      11273      11272      11382      11383      11394      11393  
     11262      11263      11274      11273      11383      11384      11395      11394  
     11263      11264      11275      11274      11384      11385      11396      11395  
     11265      11266      11277      11276      11386      11387      11398      11397  
     11266      11267      11278      11277      11387      11388      11399      11398  
     11267      11268      11279      11278      11388      11389      11400      11399  
     11268      11269      11280      11279      11389      11390      11401      11400  
     11269      11270      11281      11280      11390      11391      11402      11401  
     11270      11271      11282      11281      11391      11392      11403      11402  
     11271      11272      11283      11282      11392      11393      11404      11403  
     11272      11273      11284      11283      11393      11394      11405      11404  
     11273      11274      11285      11284      11394      11395      11406      11405  
     11274      11275      11286      11285      11395      11396      11407      11406  
     11276      11277      11288      11287      11397      11398      11409      11408  
     11277      11278      11289      11288      11398      11399      11410      11409  
     11278      11279      11290      11289      11399      11400      11411      11410  
     11279      11280      11291      11290      11400      11401      11412      11411  
     11280      11281      11292      11291      11401      11402      11413      11412  
     11281      11282      11293      11292      11402      11403      11414      11413  
     11282      11283      11294      11293      11403      11404      11415      11414  
     11283      11284      11295      11294      11404      11405      11416      11415  
     11284      11285      11296      11295      11405      11406      11417      11416  
     11285      11286      11297      11296      11406      11407      11418      11417  
     11287      11288      11299      11298      11408      11409      11420      11419  
     11288      11289      11300      11299      11409      11410      11421      11420  
     11289      11290      11301      11300      11410      11411      11422      11421  
     11290      11291      11302      11301      11411      11412      11423      11422  
     11291      11292      11303      11302      11412      11413      11424      11423  
     11292      11293      11304      11303      11413      11414      11425      11424  
     11293      11294      11305      11304      11414      11415      11426      11425  
     11294      11295      11306      11305      11415      11416      11427      11426  
     11295      11296      11307      11306      11416      11417      11428      11427  
     11296      11297      11308      11307      11417      11418      11429      11428  
     11298      11299      11310      11309      11419      11420      11431      11430  
     11299      11300      11311      11310      11420      11421      11432      11431  
     11300      11301      11312      11311      11421      11422      11433      11432  
     11301      11302      11313      11312      11422      11423      11434      11433  
     11302      11303      11314      11313      11423      11424      11435      11434  
     11303      11304      11315      11314      11424      11425      11436      11435  
     11304      11305      11316      11315      11425      11426      11437      11436  
     11305      11306      11317      11316      11426      11427      11438      11437  
     11306      11307      11318      11317      11427      11428      11439      11438  
     11307      11308      11319      11318      11428      11429      11440      11439  
     11309      11310      11321      11320      11430      11431      11442      11441  
     11310      11311      11322      11321      11431      11432      11443      11442  
     11311      11312      11323      11322      11432      11433      11444      11443  
     11312      11313      11324      11323      11433      11434      11445      11444  
     11313      11314      11325      11324      11434      11435      11446      11445  
     11314      11315      11326      11325      11435      11436      11447      11446  
     11315      11316      11327      11326      11436      11437      11448      11447  
     11316      11317      11328      11327      11437      11438      11449      11448  
     11317      11318      11329      11328      11438      11439      11450      11449  
     11318      11319      11330      11329      11439      11440      11451      11450  
     11320      11321      11332      11331      11441      11442      11453      11452  
     11321      11322      11333      11332      11442      11443      11454      11453  
     11322      11323      11334      11333      11443      11444      11455      11454  
     11323      11324      11335      11334      11444      11445      11456      11455  
     11324      11325      11336      11335      11445      11446      11457      11456  
     11325      11326      11337      11336      11446      11447      11458      11457  
     11326      11327      11338      11337      11447      11448      11459      11458  
     11327      11328      11339      11338      11448      11449      11460      11459  
     11328      11329      11340      11339      11449      11450      11461      11460  
     11329      11330      11341      11340      11450      11451      11462      11461  
     11331      11332      11343      11342      11452      11453      11464      11463  
     11332      11333      11344      11343      11453      11454      11465      11464  
     11333      11334      11345      11344      11454      11455      11466      11465  
     11334      11335      11346      11345      11455      11456      11467      11466  
     11335      11336      11347      11346      11456      11457      11468      11467  
     11336      11337      11348      11347      11457      11458      11469      11468  
     11337      11338      11349      11348      11458      11459      11470      11469  
     11338      11339      11350      11349      11459      11460      11471      11470  
     11339      11340      11351      11350      11460      11461      11472      11471  
     11340      11341      11352      11351      11461      11462      11473      11472  
     11342      11343      11354      11353      11463      11464      11475      11474  
     11343      11344      11355      11354      11464      11465      11476      11475  
     11344      11345      11356      11355      11465      11466      11477      11476  
     11345      11346      11357      11356      11466      11467      11478      11477  
     11346      11347      11358      11357      11467      11468      11479      11478  
     11347      11348      11359      11358      11468      11469      11480      11479  
     11348      11349      11360      11359      11469      11470      11481      11480  
     11349      11350      11361      11360      11470      11471      11482      11481  
     11350      11351      11362      11361      11471      11472      11483      11482  
     11351      11352      11363      11362      11472      11473      11484      11483  
     11353      11354      11365      11364      11474      11475      11486      11485  
     11354      11355      11366      11365      11475      11476      11487      11486  
     11355      11356      11367      11366      11476      11477      11488      11487  
     11356      11357      11368      11367      11477      11478      11489      11488  
     11357      11358      11369      11368      11478      11479      11490      11489  
     11358      11359      11370      11369      11479      11480      11491      11490  
     11359      11360      11371      11370      11480      11481      11492      11491  
     11360      11361      11372      11371      11481      11482      11493      11492  
     11361      11362      11373      11372      11482      11483      11494      11493  
     11362      11363      11374      11373      11483      11484      11495      11494  
     11375      11376      11387      11386      11496      11497      11508      11507  
     11376      11377      11388      11387      11497      11498      11509      11508  
     11377      11378      11389      11388      11498      11499      11510      11509  
     11378      11379      11390      11389      11499      11500      11511      11510  
     11379      11380      11391      11390      11500      11501      11512      11511  
     11380      11381      11392      11391      11501      11502      11513      11512  
     11381      11382      11393      11392      11502      11503      11514      11513  
     11382      11383      11394      11393      11503      11504      11515      11514  
     11383      11384      11395      11394      11504      11505      11516      11515  
     11384      11385      11396      11395      11505      11506      11517      11516  
     11386      11387      11398      11397      11507      11508      11519      11518  
     11387      11388      11399      11398      11508      11509      11520      11519  
     11388      11389      11400      11399      11509      11510      11521      11520  
     11389      11390      11401      11400      11510      11511      11522      11521  
     11390      11391      11402      11401      11511      11512      11523      11522  
     11391      11392      11403      11402      11512      11513      11524      11523  
     11392      11393      11404      11403      11513      11514      11525      11524  
     11393      11394      11405      11404      11514      11515      11526      11525  
     11394      11395      11406      11405      11515      11516      11527      11526  
     11395      11396      11407      11406      11516      11517      11528      11527  
     11397      11398      11409      11408      11518      11519      11530      11529  
     11398      11399      11410      11409      11519      11520      11531      11530  
     11399      11400      11411      11410      11520      11521      11532      11531  
     11400      11401      11412      11411      11521      11522      11533      11532  
     11401      11402      11413      11412      11522      11523      11534      11533  
     11402      11403      11414      11413      11523      11524      11535      11534  
     11403      11404      11415      11414      11524      11525      11536      11535  
     11404      11405      11416      11415      11525      11526      11537      11536  
     11405      11406      11417      11416      11526      11527      11538      11537  
     11406      11407      11418      11417      11527      11528      11539      11538  
     11408      11409      11420      11419      11529      11530      11541      11540  
     11409      11410      11421      11420      11530      11531      11542      11541  
     11410      11411      11422      11421      11531      11532      11543      11542  
     11411      11412      11423      11422      11532      11533      11544      11543  
     11412      11413      11424      11423      11533      11534      11545      11544  
     11413      11414      11425      11424      11534      11535      11546      11545  
     11414      11415      11426      11425      11535      11536      11547      11546  
     11415      11416      11427      11426      11536      11537      11548      11547  
     11416      11417      11428      11427      11537      11538      11549      11548  
     11417      11418      11429      11428      11538      11539      11550      11549  
     11419      11420      11431      11430      11540      11541      11552      11551  
     11420      11421      11432      11431      11541      11542      11553      11552  
     11421      11422      11433      11432      11542      11543      11554      11553  
     11422      11423      11434      11433      11543      11544      11555      11554  
     11423      11424      11435      11434      11544      11545      11556      11555  
     11424      11425      11436      11435      11545      11546      11557      11556  
     11425      11426      11437      11436      11546      11547      11558      11557  
     11426      11427      11438      11437      11547      11548      11559      11558  
     11427      11428      11439      11438      11548      11549      11560      11559  
     11428      11429      11440      11439      11549      11550      11561      11560  
     11430      11431      11442      11441      11551      11552      11563      11562  
     11431      11432      11443      11442      11552      11553      11564      11563  
     11432      11433      11444      11443      11553      11554      11565      11564  
     11433      11434      11445      11444      11554      11555      11566      11565  
     11434      11435      11446      11445      11555      11556      11567      11566  
     11435      11436      11447      11446      11556      11557      11568      11567  
     11436      11437      11448      11447      11557      11558      11569      11568  
     11437      11438      11449      11448      11558      11559      11570      11569  
     11438      11439      11450      11449      11559      11560      11571      11570  
     11439      11440      11451      11450      11560      11561      11572      11571  
     11441      11442      11453      11452      11562      11563      11574      11573  
     11442      11443      11454      11453      11563      11564      11575      11574  
     11443      11444      11455      11454      11564      11565      11576      11575  
     11444      11445      11456      11455      11565      11566      11577      11576  
     11445      11446      11457      11456      11566      11567      11578      11577  
     11446      11447      11458      11457      11567      11568      11579      11578  
     11447      11448      11459      11458      11568      11569      11580      11579  
     11448      11449      11460      11459      11569      11570      11581      11580  
     11449      11450      11461      11460      11570      11571      11582      11581  
     11450      11451      11462      11461      11571      11572      11583      11582  
     11452      11453      11464      11463      11573      11574      11585      11584  
     11453      11454      11465      11464      11574      11575      11586      11585  
     11454      11455      11466      11465      11575      11576      11587      11586  
     11455      11456      11467      11466      11576      11577      11588      11587  
     11456      11457      11468      11467      11577      11578      11589      11588  
     11457      11458      11469      11468      11578      11579      11590      11589  
     11458      11459      11470      11469      11579      11580      11591      11590  
     11459      11460      11471      11470      11580      11581      11592      11591  
     11460      11461      11472      11471      11581      11582      11593      11592  
     11461      11462      11473      11472      11582      11583      11594      11593  
     11463      11464      11475      11474      11584      11585      11596      11595  
     11464      11465      11476      11475      11585      11586      11597      11596  
     11465      11466      11477      11476      11586      11587      11598      11597  
     11466      11467      11478      11477      11587      11588      11599      11598  
     11467      11468      11479      11478      11588      11589      11600      11599  
     11468      11469      11480      11479      11589      11590      11601      11600  
     11469      11470      11481      11480      11590      11591      11602      11601  
     11470      11471      11482      11481      11591      11592      11603      11602  
     11471      11472      11483      11482      11592      11593      11604      11603  
     11472      11473      11484      11483      11593      11594      11605      11604  
     11474      11475      11486      11485      11595      11596      11607      11606  
     11475      11476      11487      11486      11596      11597      11608      11607  
     11476      11477      11488      11487      11597      11598      11609      11608  
     11477      11478      11489      11488      11598      11599      11610      11609  
     11478      11479      11490      11489      11599      11600      11611      11610  
     11479      11480      11491      11490      11600      11601      11612      11611  
     11480      11481      11492      11491      11601      11602      11613      11612  
     11481      11482      11493      11492      11602      11603      11614      11613  
     11482      11483      11494      11493      11603      11604      11615      11614  
     11483      11484      11495      11494      11604      11605      11616      11615  
     11496      11497      11508      11507      11617      11618      11629      11628  
     11497      11498      11509      11508      11618      11619      11630      11629  
     11498      11499      11510      11509      11619      11620      11631      11630  
     11499      11500      11511      11510      11620      11621      11632      11631  
     11500      11501      11512      11511      11621      11622      11633      11632  
     11501      11502      11513      11512      11622      11623      11634      11633  
     11502      11503      11514      11513      11623      11624      11635      11634  
     11503      11504      11515      11514      11624      11625      11636      11635  
     11504      11505      11516      11515      11625      11626      11637      11636  
     11505      11506      11517      11516      11626      11627      11638      11637  
     11507      11508      11519      11518      11628      11629      11640      11639  
     11508      11509      11520      11519      11629      11630      11641      11640  
     11509      11510      11521      11520      11630      11631      11642      11641  
     11510      11511      11522      11521      11631      11632      11643      11642  
     11511      11512      11523      11522      11632      11633      11644      11643  
     11512      11513      11524      11523      11633      11634      11645      11644  
     11513      11514      11525      11524      11634      11635      11646      11645  
     11514      11515      11526      11525      11635      11636      11647      11646  
     11515      11516      11527      11526      11636      11637      11648      11647  
     11516      11517      11528      11527      11637      11638      11649      11648  
     11518      11519      11530      11529      11639      11640      11651      11650  
     11519      11520      11531      11530      11640      11641      11652      11651  
     11520      11521      11532      11531      11641      11642      11653      11652  
     11521      11522      11533      11532      11642      11643      11654      11653  
     11522      11523      11534      11533      11643      11644      11655      11654  
     11523      11524      11535      11534      11644      11645      11656      11655  
     11524      11525      11536      11535      11645      11646      11657      11656  
     11525      11526      11537      11536      11646      11647      11658      11657  
     11526      11527      11538      11537      11647      11648      11659      11658  
     11527      11528      11539      11538      11648      11649      11660      11659  
     11529      11530      11541      11540      11650      11651      11662      11661  
     11530      11531      11542      11541      11651      11652      11663      11662  
     11531      11532      11543      11542      11652      11653      11664      11663  
     11532      11533      11544      11543      11653      11654      11665      11664  
     11533      11534      11545      11544      11654      11655      11666      11665  
     11534      11535      11546      11545      11655      11656      11667      11666  
     11535      11536      11547      11546      11656      11657      11668      11667  
     11536      11537      11548      11547      11657      11658      11669      11668  
     11537      11538      11549      11548      11658      11659      11670      11669  
     11538      11539      11550      11549      11659      11660      11671      11670  
     11540      11541      11552      11551      11661      11662      11673      11672  
     11541      11542      11553      11552      11662      11663      11674      11673  
     11542      11543      11554      11553      11663      11664      11675      11674  
     11543      11544      11555      11554      11664      11665      11676      11675  
     11544      11545      11556      11555      11665      11666      11677      11676  
     11545      11546      11557      11556      11666      11667      11678      11677  
     11546      11547      11558      11557      11667      11668      11679      11678  
     11547      11548      11559      11558      11668      11669      11680      11679  
     11548      11549      11560      11559      11669      11670      11681      11680  
     11549      11550      11561      11560      11670      11671      11682      11681  
     11551      11552      11563      11562      11672      11673      11684      11683  
     11552      11553      11564      11563      11673      11674      11685      11684  
     11553      11554      11565      11564      11674      11675      11686      11685  
     11554      11555      11566      11565      11675      11676      11687      11686  
     11555      11556      11567      11566      11676      11677      11688      11687  
     11556      11557      11568      11567      11677      11678      11689      11688  
     11557      11558      11569      11568      11678      11679      11690      11689  
     11558      11559      11570      11569      11679      11680      11691      11690  
     11559      11560      11571      11570      11680      11681      11692      11691  
     11560      11561      11572      11571      11681      11682      11693      11692  
     11562      11563      11574      11573      11683      11684      11695      11694  
     11563      11564      11575      11574      11684      11685      11696      11695  
     11564      11565      11576      11575      11685      11686      11697      11696  
     11565      11566      11577      11576      11686      11687      11698      11697  
     11566      11567      11578      11577      11687      11688      11699      11698  
     11567      11568      11579      11578      11688      11689      11700      11699  
     11568      11569      11580      11579      11689      11690      11701      11700  
     11569      11570      11581      11580      11690      11691      11702      11701  
     11570      11571      11582      11581      11691      11692      11703      11702  
     11571      11572      11583      11582      11692      11693      11704      11703  
     11573      11574      11585      11584      11694      11695      11706      11705  
     11574      11575      11586      11585      11695      11696      11707      11706  
     11575      11576      11587      11586      11696      11697      11708      11707  
     11576      11577      11588      11587      11697      11698      11709      11708  
     11577      11578      11589      11588      11698      11699      11710      11709  
     11578      11579      11590      11589      11699      11700      11711      11710  
     11579      11580      11591      11590      11700      11701      11712      11711  
     11580      11581      11592      11591      11701      11702      11713      11712  
     11581      11582      11593      11592      11702      11703      11714      11713  
     11582      11583      11594      11593      11703      11704      11715      11714  
     11584      11585      11596      11595      11705      11706      11717      11716  
     11585      11586      11597      11596      11706      11707      11718      11717  
     11586      11587      11598      11597      11707      11708      11719      11718  
     11587      11588      11599      11598      11708      11709      11720      11719  
     11588      11589      11600      11599      11709      11710      11721      11720  
     11589      11590      11601      11600      11710      11711      11722      11721  
     11590      11591      11602      11601      11711      11712      11723      11722  
     11591      11592      11603      11602      11712      11713      11724      11723  
     11592      11593      11604      11603      11713      11714      11725      11724  
     11593      11594      11605      11604      11714      11715      11726      11725  
     11595      11596      11607      11606      11716      11717      11728      11727  
     11596      11597      11608      11607      11717      11718      11729      11728  
     11597      11598      11609      11608      11718      11719      11730      11729  
     11598      11599      11610      11609      11719      11720      11731      11730  
     11599      11600      11611      11610      11720      11721      11732      11731  
     11600      11601      11612      11611      11721      11722      11733      11732  
     11601      11602      11613      11612      11722      11723      11734      11733  
     11602      11603      11614      11613      11723      11724      11735      11734  
     11603      11604      11615      11614      11724      11725      11736      11735  
     11604      11605      11616      11615      11725      11726      11737      11736  
     11617      11618      11629      11628      11738      11739      11750      11749  
     11618      11619      11630      11629      11739      11740      11751      11750  
     11619      11620      11631      11630      11740      11741      11752      11751  
     11620      11621      11632      11631      11741      11742      11753      11752  
     11621      11622      11633      11632      11742      11743      11754      11753  
     11622      11623      11634      11633      11743      11744      11755      11754  
     11623      11624      11635      11634      11744      11745      11756      11755  
     11624      11625      11636      11635      11745      11746      11757      11756  
     11625      11626      11637      11636      11746      11747      11758      11757  
     11626      11627      11638      11637      11747      11748      11759      11758  
     11628      11629      11640      11639      11749      11750      11761      11760  
     11629      11630      11641      11640      11750      11751      11762      11761  
     11630      11631      11642      11641      11751      11752      11763      11762  
     11631      11632      11643      11642      11752      11753      11764      11763  
     11632      11633      11644      11643      11753      11754      11765      11764  
     11633      11634      11645      11644      11754      11755      11766      11765  
     11634      11635      11646      11645      11755      11756      11767      11766  
     11635      11636      11647      11646      11756      11757      11768      11767  
     11636      11637      11648      11647      11757      11758      11769      11768  
     11637      11638      11649      11648      11758      11759      11770      11769  
     11639      11640      11651      11650      11760      11761      11772      11771  
     11640      11641      11652      11651      11761      11762      11773      11772  
     11641      11642      11653      11652      11762      11763      11774      11773  
     11642      11643      11654      11653      11763      11764      11775      11774  
     11643      11644      11655      11654      11764      11765      11776      11775  
     11644      11645      11656      11655      11765      11766      11777      11776  
     11645      11646      11657      11656      11766      11767      11778      11777  
     11646      11647      11658      11657      11767      11768      11779      11778  
     11647      11648      11659      11658      11768      11769      11780      11779  
     11648      11649      11660      11659      11769      11770      11781      11780  
     11650      11651      11662      11661      11771      11772      11783      11782  
     11651      11652      11663      11662      11772      11773      11784      11783  
     11652      11653      11664      11663      11773      11774      11785      11784  
     11653      11654      11665      11664      11774      11775      11786      11785  
     11654      11655      11666      11665      11775      11776      11787      11786  
     11655      11656      11667      11666      11776      11777      11788      11787  
     11656      11657      11668      11667      11777      11778      11789      11788  
     11657      11658      11669      11668      11778      11779      11790      11789  
     11658      11659      11670      11669      11779      11780      11791      11790  
     11659      11660      11671      11670      11780      11781      11792      11791  
     11661      11662      11673      11672      11782      11783      11794      11793  
     11662      11663      11674      11673      11783      11784      11795      11794  
     11663      11664      11675      11674      11784      11785      11796      11795  
     11664      11665      11676      11675      11785      11786      11797      11796  
     11665      11666      11677      11676      11786      11787      11798      11797  
     11666      11667      11678      11677      11787      11788      11799      11798  
     11667      11668      11679      11678      11788      11789      11800      11799  
     11668      11669      11680      11679      11789      11790      11801      11800  
     11669      11670      11681      11680      11790      11791      11802      11801  
     11670      11671      11682      11681      11791      11792      11803      11802  
     11672      11673      11684      11683      11793      11794      11805      11804  
     11673      11674      11685      11684      11794      11795      11806      11805  
     11674      11675      11686      11685      11795      11796      11807      11806  
     11675      11676      11687      11686      11796      11797      11808      11807  
     11676      11677      11688      11687      11797      11798      11809      11808  
     11677      11678      11689      11688      11798      11799      11810      11809  
     11678      11679      11690      11689      11799      11800      11811      11810  
     11679      11680      11691      11690      11800      11801      11812      11811  
     11680      11681      11692      11691      11801      11802      11813      11812  
     11681      11682      11693      11692      11802      11803      11814      11813  
     11683      11684      11695      11694      11804      11805      11816      11815  
     11684      11685      11696      11695      11805      11806      11817      11816  
     11685      11686      11697      11696      11806      11807      11818      11817  
     11686      11687      11698      11697      11807      11808      11819      11818  
     11687      11688      11699      11698      11808      11809      11820      11819  
     11688      11689      11700      11699      11809      11810      11821      11820  
     11689      11690      11701      11700      11810      11811      11822      11821  
     11690      11691      11702      11701      11811      11812      11823      11822  
     11691      11692      11703      11702      11812      11813      11824      11823  
     11692      11693      11704      11703      11813      11814      11825      11824  
     11694      11695      11706      11705      11815      11816      11827      11826  
     11695      11696      11707      11706      11816      11817      11828      11827  
     11696      11697      11708      11707      11817      11818      11829      11828  
     11697      11698      11709      11708      11818      11819      11830      11829  
     11698      11699      11710      11709      11819      11820      11831      11830  
     11699      11700      11711      11710      11820      11821      11832      11831  
     11700      11701      11712      11711      11821      11822      11833      11832  
     11701      11702      11713      11712      11822      11823      11834      11833  
     11702      11703      11714      11713      11823      11824      11835      11834  
     11703      11704      11715      11714      11824      11825      11836      11835  
     11705      11706      11717      11716      11826      11827      11838      11837  
     11706      11707      11718      11717      11827      11828      11839      11838  
     11707      11708      11719      11718      11828      11829      11840      11839  
     11708      11709      11720      11719      11829      11830      11841      11840  
     11709      11710      11721      11720      11830      11831      11842      11841  
     11710      11711      11722      11721      11831      11832      11843      11842  
     11711      11712      11723      11722      11832      11833      11844      11843  
     11712      11713      11724      11723      11833      11834      11845      11844  
     11713      11714      11725      11724      11834      11835      11846      11845  
     11714      11715      11726      11725      11835      11836      11847      11846  
     11716      11717      11728      11727      11837      11838      11849      11848  
     11717      11718      11729      11728      11838      11839      11850      11849  
     11718      11719      11730      11729      11839      11840      11851      11850  
     11719      11720      11731      11730      11840      11841      11852      11851  
     11720      11721      11732      11731      11841      11842      11853      11852  
     11721      11722      11733      11732      11842      11843      11854      11853  
     11722      11723      11734      11733      11843      11844      11855      11854  
     11723      11724      11735      11734      11844      11845      11856      11855  
     11724      11725      11736      11735      11845      11846      11857      11856  
     11725      11726      11737      11736      11846      11847      11858      11857  
     11738      11739      11750      11749      11859      11860      11871      11870  
     11739      11740      11751      11750      11860      11861      11872      11871  
     11740      11741      11752      11751      11861      11862      11873      11872  
     11741      11742      11753      11752      11862      11863      11874      11873  
     11742      11743      11754      11753      11863      11864      11875      11874  
     11743      11744      11755      11754      11864      11865      11876      11875  
     11744      11745      11756      11755      11865      11866      11877      11876  
     11745      11746      11757      11756      11866      11867      11878      11877  
     11746      11747      11758      11757      11867      11868      11879      11878  
     11747      11748      11759      11758      11868      11869      11880      11879  
     11749      11750      11761      11760      11870      11871      11882      11881  
     11750      11751      11762      11761      11871      11872      11883      11882  
     11751      11752      11763      11762      11872      11873      11884      11883  
     11752      11753      11764      11763      11873      11874      11885      11884  
     11753      11754      11765      11764      11874      11875      11886      11885  
     11754      11755      11766      11765      11875      11876      11887      11886  
     11755      11756      11767      11766      11876      11877      11888      11887  
     11756      11757      11768      11767      11877      11878      11889      11888  
     11757      11758      11769      11768      11878      11879      11890      11889  
     11758      11759      11770      11769      11879      11880      11891      11890  
     11760      11761      11772      11771      11881      11882      11893      11892  
     11761      11762      11773      11772      11882      11883      11894      11893  
     11762      11763      11774      11773      11883      11884      11895      11894  
     11763      11764      11775      11774      11884      11885      11896      11895  
     11764      11765      11776      11775      11885      11886      11897      11896  
     11765      11766      11777      11776      11886      11887      11898      11897  
     11766      11767      11778      11777      11887      11888      11899      11898  
     11767      11768      11779      11778      11888      11889      11900      11899  
     11768      11769      11780      11779      11889      11890      11901      11900  
     11769      11770      11781      11780      11890      11891      11902      11901  
     11771      11772      11783      11782      11892      11893      11904      11903  
     11772      11773      11784      11783      11893      11894      11905      11904  
     11773      11774      11785      11784      11894      11895      11906      11905  
     11774      11775      11786      11785      11895      11896      11907      11906  
     11775      11776      11787      11786      11896      11897      11908      11907  
     11776      11777      11788      11787      11897      11898      11909      11908  
     11777      11778      11789      11788      11898      11899      11910      11909  
     11778      11779      11790      11789      11899      11900      11911      11910  
     11779      11780      11791      11790      11900      11901      11912      11911  
     11780      11781      11792      11791      11901      11902      11913      11912  
     11782      11783      11794      11793      11903      11904      11915      11914  
     11783      11784      11795      11794      11904      11905      11916      11915  
     11784      11785      11796      11795      11905      11906      11917      11916  
     11785      11786      11797      11796      11906      11907      11918      11917  
     11786      11787      11798      11797      11907      11908      11919      11918  
     11787      11788      11799      11798      11908      11909      11920      11919  
     11788      11789      11800      11799      11909      11910      11921      11920  
     11789      11790      11801      11800      11910      11911      11922      11921  
     11790      11791      11802      11801      11911      11912      11923      11922  
     11791      11792      11803      11802      11912      11913      11924      11923  
     11793      11794      11805      11804      11914      11915      11926      11925  
     11794      11795      11806      11805      11915      11916      11927      11926  
     11795      11796      11807      11806      11916      11917      11928      11927  
     11796      11797      11808      11807      11917      11918      11929      11928  
     11797      11798      11809      11808      11918      11919      11930      11929  
     11798      11799      11810      11809      11919      11920      11931      11930  
     11799      11800      11811      11810      11920      11921      11932      11931  
     11800      11801      11812      11811      11921      11922      11933      11932  
     11801      11802      11813      11812      11922      11923      11934      11933  
     11802      11803      11814      11813      11923      11924      11935      11934  
     11804      11805      11816      11815      11925      11926      11937      11936  
     11805      11806      11817      11816      11926      11927      11938      11937  
     11806      11807      11818      11817      11927      11928      11939      11938  
     11807      11808      11819      11818      11928      11929      11940      11939  
     11808      11809      11820      11819      11929      11930      11941      11940  
     11809      11810      11821      11820      11930      11931      11942      11941  
     11810      11811      11822      11821      11931      11932      11943      11942  
     11811      11812      11823      11822      11932      11933      11944      11943  
     11812      11813      11824      11823      11933      11934      11945      11944  
     11813      11814      11825      11824      11934      11935      11946      11945  
     11815      11816      11827      11826      11936      11937      11948      11947  
     11816      11817      11828      11827      11937      11938      11949      11948  
     11817      11818      11829      11828      11938      11939      11950      11949  
     11818      11819      11830      11829      11939      11940      11951      11950  
     11819      11820      11831      11830      11940      11941      11952      11951  
     11820      11821      11832      11831      11941      11942      11953      11952  
     11821      11822      11833      11832      11942      11943      11954      11953  
     11822      11823      11834      11833      11943      11944      11955      11954  
     11823      11824      11835      11834      11944      11945      11956      11955  
     11824      11825      11836      11835      11945      11946      11957      11956  
     11826      11827      11838      11837      11947      11948      11959      11958  
     11827      11828      11839      11838      11948      11949      11960      11959  
     11828      11829      11840      11839      11949      11950      11961      11960  
     11829      11830      11841      11840      11950      11951      11962      11961  
     11830      11831      11842      11841      11951      11952      11963      11962  
     11831      11832      11843      11842      11952      11953      11964      11963  
     11832      11833      11844      11843      11953      11954      11965      11964  
     11833      11834      11845      11844      11954      11955      11966      11965  
     11834      11835      11846      11845      11955      11956      11967      11966  
     11835      11836      11847      11846      11956      11957      11968      11967  
     11837      11838      11849      11848      11958      11959      11970      11969  
     11838      11839      11850      11849      11959      11960      11971      11970  
     11839      11840      11851      11850      11960      11961      11972      11971  
     11840      11841      11852      11851      11961      11962      11973      11972  
     11841      11842      11853      11852      11962      11963      11974      11973  
     11842      11843      11854      11853      11963      11964      11975      11974  
     11843      11844      11855      11854      11964      11965      11976      11975  
     11844      11845      11856      11855      11965      11966      11977      11976  
     11845      11846      11857      11856      11966      11967      11978      11977  
     11846      11847      11858      11857      11967      11968      11979      11978  
     11859      11860      11871      11870      11980      11981      11992      11991  
     11860      11861      11872      11871      11981      11982      11993      11992  
     11861      11862      11873      11872      11982      11983      11994      11993  
     11862      11863      11874      11873      11983      11984      11995      11994  
     11863      11864      11875      11874      11984      11985      11996      11995  
     11864      11865      11876      11875      11985      11986      11997      11996  
     11865      11866      11877      11876      11986      11987      11998      11997  
     11866      11867      11878      11877      11987      11988      11999      11998  
     11867      11868      11879      11878      11988      11989      12000      11999  
     11868      11869      11880      11879      11989      11990      12001      12000  
     11870      11871      11882      11881      11991      11992      12003      12002  
     11871      11872      11883      11882      11992      11993      12004      12003  
     11872      11873      11884      11883      11993      11994      12005      12004  
     11873      11874      11885      11884      11994      11995      12006      12005  
     11874      11875      11886      11885      11995      11996      12007      12006  
     11875      11876      11887      11886      11996      11997      12008      12007  
     11876      11877      11888      11887      11997      11998      12009      12008  
     11877      11878      11889      11888      11998      11999      12010      12009  
     11878      11879      11890      11889      11999      12000      12011      12010  
     11879      11880      11891      11890      12000      12001      12012      12011  
     11881      11882      11893      11892      12002      12003      12014      12013  
     11882      11883      11894      11893      12003      12004      12015      12014  
     11883      11884      11895      11894      12004      12005      12016      12015  
     11884      11885      11896      11895      12005      12006      12017      12016  
     11885      11886      11897      11896      12006      12007      12018      12017  
     11886      11887      11898      11897      12007      12008      12019      12018  
     11887      11888      11899      11898      12008      12009      12020      12019  
     11888      11889      11900      11899      12009      12010      12021      12020  
     11889      11890      11901      11900      12010      12011      12022      12021  
     11890      11891      11902      11901      12011      12012      12023      12022  
     11892      11893      11904      11903      12013      12014      12025      12024  
     11893      11894      11905      11904      12014      12015      12026      12025  
     11894      11895      11906      11905      12015      12016      12027      12026  
     11895      11896      11907      11906      12016      12017      12028      12027  
     11896      11897      11908      11907      12017      12018      12029      12028  
     11897      11898      11909      11908      12018      12019      12030      12029  
     11898      11899      11910      11909      12019      12020      12031      12030  
     11899      11900      11911      11910      12020      12021      12032      12031  
     11900      11901      11912      11911      12021      12022      12033      12032  
     11901      11902      11913      11912      12022      12023      12034      12033  
     11903      11904      11915      11914      12024      12025      12036      12035  
     11904      11905      11916      11915      12025      12026      12037      12036  
     11905      11906      11917      11916      12026      12027      12038      12037  
     11906      11907      11918      11917      12027      12028      12039      12038  
     11907      11908      11919      11918      12028      12029      12040      12039  
     11908      11909      11920      11919      12029      12030      12041      12040  
     11909      11910      11921      11920      12030      12031      12042      12041  
     11910      11911      11922      11921      12031      12032      12043      12042  
     11911      11912      11923      11922      12032      12033      12044      12043  
     11912      11913      11924      11923      12033      12034      12045      12044  
     11914      11915      11926      11925      12035      12036      12047      12046  
     11915      11916      11927      11926      12036      12037      12048      12047  
     11916      11917      11928      11927      12037      12038      12049      12048  
     11917      11918      11929      11928      12038      12039      12050      12049  
     11918      11919      11930      11929      12039      12040      12051      12050  
     11919      11920      11931      11930      12040      12041      12052      12051  
     11920      11921      11932      11931      12041      12042      12053      12052  
     11921      11922      11933      11932      12042      12043      12054      12053  
     11922      11923      11934      11933      12043      12044      12055      12054  
     11923      11924      11935      11934      12044      12045      12056      12055  
     11925      11926      11937      11936      12046      12047      12058      12057  
     11926      11927      11938      11937      12047      12048      12059      12058  
     11927      11928      11939      11938      12048      12049      12060      12059  
     11928      11929      11940      11939      12049      12050      12061      12060  
     11929      11930      11941      11940      12050      12051      12062      12061  
     11930      11931      11942      11941      12051      12052      12063      12062  
     11931      11932      11943      11942      12052      12053      12064      12063  
     11932      11933      11944      11943      12053      12054      12065      12064  
     11933      11934      11945      11944      12054      12055      12066      12065  
     11934      11935      11946      11945      12055      12056      12067      12066  
     11936      11937      11948      11947      12057      12058      12069      12068  
     11937      11938      11949      11948      12058      12059      12070      12069  
     11938      11939      11950      11949      12059      12060      12071      12070  
     11939      11940      11951      11950      12060      12061      12072      12071  
     11940      11941      11952      11951      12061      12062      12073      12072  
     11941      11942      11953      11952      12062      12063      12074      12073  
     11942      11943      11954      11953      12063      12064      12075      12074  
     11943      11944      11955      11954      12064      12065      12076      12075  
     11944      11945      11956      11955      12065      12066      12077      12076  
     11945      11946      11957      11956      12066      12067      12078      12077  
     11947      11948      11959      11958      12068      12069      12080      12079  
     11948      11949      11960      11959      12069      12070      12081      12080  
     11949      11950      11961      11960      12070      12071      12082      12081  
     11950      11951      11962      11961      12071      12072      12083      12082  
     11951      11952      11963      11962      12072      12073      12084      12083  
     11952      11953      11964      11963      12073      12074      12085      12084  
     11953      11954      11965      11964      12074      12075      12086      12085  
     11954      11955      11966      11965      12075      12076      12087      12086  
     11955      11956      11967      11966      12076      12077      12088      12087  
     11956      11957      11968      11967      12077      12078      12089      12088  
     11958      11959      11970      11969      12079      12080      12091      12090  
     11959      11960      11971      11970      12080      12081      12092      12091  
     11960      11961      11972      11971      12081      12082      12093      12092  
     11961      11962      11973      11972      12082      12083      12094      12093  
     11962      11963      11974      11973      12083      12084      12095      12094  
     11963      11964      11975      11974      12084      12085      12096      12095  
     11964      11965      11976      11975      12085      12086      12097      12096  
     11965      11966      11977      11976      12086      12087      12098      12097  
     11966      11967      11978      11977      12087      12088      12099      12098  
     11967      11968      11979      11978      12088      12089      12100      12099  
     11980      11981      11992      11991      12101      12102      12113      12112  
     11981      11982      11993      11992      12102      12103      12114      12113  
     11982      11983      11994      11993      12103      12104      12115      12114  
     11983      11984      11995      11994      12104      12105      12116      12115  
     11984      11985      11996      11995      12105      12106      12117      12116  
     11985      11986      11997      11996      12106      12107      12118      12117  
     11986      11987      11998      11997      12107      12108      12119      12118  
     11987      11988      11999      11998      12108      12109      12120      12119  
     11988      11989      12000      11999      12109      12110      12121      12120  
     11989      11990      12001      12000      12110      12111      12122      12121  
     11991      11992      12003      12002      12112      12113      12124      12123  
     11992      11993      12004      12003      12113      12114      12125      12124  
     11993      11994      12005      12004      12114      12115      12126      12125  
     11994      11995      12006      12005      12115      12116      12127      12126  
     11995      11996      12007      12006      12116      12117      12128      12127  
     11996      11997      12008      12007      12117      12118      12129      12128  
     11997      11998      12009      12008      12118      12119      12130      12129  
     11998      11999      12010      12009      12119      12120      12131      12130  
     11999      12000      12011      12010      12120      12121      12132      12131  
     12000      12001      12012      12011      12121      12122      12133      12132  
     12002      12003      12014      12013      12123      12124      12135      12134  
     12003      12004      12015      12014      12124      12125      12136      12135  
     12004      12005      12016      12015      12125      12126      12137      12136  
     12005      12006      12017      12016      12126      12127      12138      12137  
     12006      12007      12018      12017      12127      12128      12139      12138  
     12007      12008      12019      12018      12128      12129      12140      12139  
     12008      12009      12020      12019      12129      12130      12141      12140  
     12009      12010      12021      12020      12130      12131      12142      12141  
     12010      12011      12022      12021      12131      12132      12143      12142  
     12011      12012      12023      12022      12132      12133      12144      12143  
     12013      12014      12025      12024      12134      12135      12146      12145  
     12014      12015      12026      12025      12135      12136      12147      12146  
     12015      12016      12027      12026      12136      12137      12148      12147  
     12016      12017      12028      12027      12137      12138      12149      12148  
     12017      12018      12029      12028      12138      12139      12150      12149  
     12018      12019      12030      12029      12139      12140      12151      12150  
     12019      12020      12031      12030      12140      12141      12152      12151  
     12020      12021      12032      12031      12141      12142      12153      12152  
     12021      12022      12033      12032      12142      12143      12154      12153  
     12022      12023      12034      12033      12143      12144      12155      12154  
     12024      12025      12036      12035      12145      12146      12157      12156  
     12025      12026      12037      12036      12146      12147      12158      12157  
     12026      12027      12038      12037      12147      12148      12159      12158  
     12027      12028      12039      12038      12148      12149      12160      12159  
     12028      12029      12040      12039      12149      12150      12161      12160  
     12029      12030      12041      12040      12150      12151      12162      12161  
     12030      12031      12042      12041      12151      12152      12163      12162  
     12031      12032      12043      12042      12152      12153      12164      12163  
     12032      12033      12044      12043      12153      12154      12165      12164  
     12033      12034      12045      12044      12154      12155      12166      12165  
     12035      12036      12047      12046      12156      12157      12168      12167  
     12036      12037      12048      12047      12157      12158      12169      12168  
     12037      12038      12049      12048      12158      12159      12170      12169  
     12038      12039      12050      12049      12159      12160      12171      12170  
     12039      12040      12051      12050      12160      12161      12172      12171  
     12040      12041      12052      12051      12161      12162      12173      12172  
     12041      12042      12053      12052      12162      12163      12174      12173  
     12042      12043      12054      12053      12163      12164      12175      12174  
     12043      12044      12055      12054      12164      12165      12176      12175  
     12044      12045      12056      12055      12165      12166      12177      12176  
     12046      12047      12058      12057      12167      12168      12179      12178  
     12047      12048      12059      12058      12168      12169      12180      12179  
     12048      12049      12060      12059      12169      12170      12181      12180  
     12049      12050      12061      12060      12170      12171      12182      12181  
     12050      12051      12062      12061      12171      12172      12183      12182  
     12051      12052      12063      12062      12172      12173      12184      12183  
     12052      12053      12064      12063      12173      12174      12185      12184  
     12053      12054      12065      12064      12174      12175      12186      12185  
     12054      12055      12066      12065      12175      12176      12187      12186  
     12055      12056      12067      12066      12176      12177      12188      12187  
     12057      12058      12069      12068      12178      12179      12190      12189  
     12058      12059      12070      12069      12179      12180      12191      12190  
     12059      12060      12071      12070      12180      12181      12192      12191  
     12060      12061      12072      12071      12181      12182      12193      12192  
     12061      12062      12073      12072      12182      12183      12194      12193  
     12062      12063      12074      12073      12183      12184      12195      12194  
     12063      12064      12075      12074      12184      12185      12196      12195  
     12064      12065      12076      12075      12185      12186      12197      12196  
     12065      12066      12077      12076      12186      12187      12198      12197  
     12066      12067      12078      12077      12187      12188      12199      12198  
     12068      12069      12080      12079      12189      12190      12201      12200  
     12069      12070      12081      12080      12190      12191      12202      12201  
     12070      12071      12082      12081      12191      12192      12203      12202  
     12071      12072      12083      12082      12192      12193      12204      12203  
     12072      12073      12084      12083      12193      12194      12205      12204  
     12073      12074      12085      12084      12194      12195      12206      12205  
     12074      12075      12086      12085      12195      12196      12207      12206  
     12075      12076      12087      12086      12196      12197      12208      12207  
     12076      12077      12088      12087      12197      12198      12209      12208  
     12077      12078      12089      12088      12198      12199      12210      12209  
     12079      12080      12091      12090      12200      12201      12212      12211  
     12080      12081      12092      12091      12201      12202      12213      12212  
     12081      12082      12093      12092      12202      12203      12214      12213  
     12082      12083      12094      12093      12203      12204      12215      12214  
     12083      12084      12095      12094      12204      12205      12216      12215  
     12084      12085      12096      12095      12205      12206      12217      12216  
     12085      12086      12097      12096      12206      12207      12218      12217  
     12086      12087      12098      12097      12207      12208      12219      12218  
     12087      12088      12099      12098      12208      12209      12220      12219  
     12088      12089      12100      12099      12209      12210      12221      12220  
